<?xml version="1.0"?>
<VTKFile type="UnstructuredGrid" version="2.2">
  <UnstructuredGrid>
    <Piece NumberOfPoints="1812" NumberOfCells="3467">
      <Points>
        <DataArray type="Float64" NumberOfComponents="3" format="ascii">0.3290772530756106 0.02466093080584207 0 0.33 0 0 0.3477603422905192 0.01839861105349861 0 0.3548148148147337 0 0 0.3507861334070559 0.04005222258421484 0 0.3672204995161572 0.02149324383402157 0 0.3263141726783756 0.04918394767835577 0 0.3796296296294943 0 0 0.344812760362046 0.0661044218973441 0 0.3780611605622607 0.04252324555600044 0 0.3919769333081107 0.02151903925085999 0 0.4044444444442361 0 0 0.3217262110731744 0.07343190797261936 0 0.3650109033901161 0.05964178392539116 0 0.4165442445776427 0.02058052294143014 0 0.429259259258989 0 0 0.3391261126098071 0.09007757257058263 0 0.3649055898603543 0.08365216732518946 0 0.3864888727588636 0.06587686226420691 0 0.405876181839868 0.04596939214959676 0 0.440577294773161 0.02080084709476165 0 0.315339025999087 0.09726920726492613 0 0.4285630946400117 0.03820887711838068 0 0.4540740740737054 0 0 0.3313897820086207 0.1159582995718134 0 0.3533509462210947 0.104761772984305 0 0.3914107554309306 0.09134599130029936 0 0.409847724556173 0.07378689453493527 0 0.4284315989360427 0.05863137712819956 0 0.4668525492458322 0.02196851156018457 0 0.4480127478958287 0.04291429819759818 0 0.3071883371932287 0.1205625376825623 0 0.3729245579803992 0.1079930397771589 0 0.4788888888884407 0 0 0.3169894199757926 0.1387378323813034 0 0.3551548351541882 0.1251882976128024 0 0.4149291096157377 0.0993647571320147 0 0.3964254772675208 0.115810708084094 0 0.4334400653549194 0.08289615662590497 0 0.4522340780470132 0.06660495339662302 0 0.4912962962958273 0.01450852354697531 0 0.4708385766319392 0.0495600234638754 0 0.5037037037032137 0 0 0.2973197266164828 0.1431816334754564 0 0.3381281364569727 0.141702733324943 0 0.3779400200447969 0.1323558881811411 0 0.4916193393621507 0.03491121914216725 0 0.5155147264517113 0.02209116480429344 0 0.307647726965843 0.162424238625563 0 0.325614562521354 0.15813210934937 0 0.3593233659490316 0.1490653393731507 0 0.4384446285710156 0.1071604121996931 0 0.4199361642998433 0.1236123261794655 0 0.4014488670812985 0.1400839342144961 0 0.4569596620927899 0.09069448158633645 0 0.4754804444118208 0.07422038361800512 0 0.4938730199206516 0.05814285477711933 0 0.528518518517892 0 0 0.2857883835154311 0.1649999995382936 0 0.3427596712747102 0.1657913435132306 0 0.3829329790170023 0.1566038019327541 0 0.5105263283730237 0.0453051459409327 0 0.5409271608251429 0.02148954705000138 0 0.5533333333326754 0 0 0.297395020090127 0.1848972762543642 0 0.3225478579334515 0.18200439890181 0 0.364219888346259 0.1736334141740359 0 0.4619603417111565 0.114964777036478 0 0.4434483566358862 0.1314306902408083 0 0.4249419354653543 0.147898667558996 0 0.4064339139824104 0.1643630990170193 0 0.4804826420693226 0.09849633848250428 0 0.4990134146930926 0.08202294352285497 0 0.5342389869581095 0.04587637115209057 0 0.5173855691724953 0.06550411982899293 0 0.5657407600236524 0.02032009434769686 0 0.2726587958544359 0.185895618676743 0 0.3457277195136923 0.1906971351782885 0 0.3878720693987341 0.1810194000934934 0 0.5538405116663109 0.03741161606095655 0 0.5781481481473866 0 0 0.2855771411918562 0.2101435945491163 0 0.309019952138868 0.2016582935357731 0 0.3271293505180572 0.2071132266315191 0 0.3691115430381949 0.1983427621556911 0 0.4669690804858374 0.1392322812341256 0 0.4854920780065058 0.1227658861437219 0 0.4484510793107356 0.1557030612929233 0 0.4299341027182895 0.1721686521766437 0 0.4114213048134557 0.1886231928743194 0 0.5040115358761676 0.1062970267405534 0 0.5225520835450168 0.08981537573983452 0 0.5411581918347632 0.07315698995880546 0 0.559464001657338 0.05772361829365071 0 0.5905647037950899 0.021240644581783 0 0.5760353844374957 0.04099873563023593 0 0.6029629629621371 0 0 0.2580043896252853 0.2057516340982108 0 0.3505024454638852 0.2147945079922053 0 0.3928197340028446 0.2054138279401193 0 0.614785096686048 0.02073949174684069 0 0.6277777777768812 0 0 0.2660354752220878 0.2294035904747645 0 0.3095105847034358 0.2225772540747417 0 0.3315470401736159 0.2306871043655891 0 0.3741128864327288 0.2225193637330686 0 0.4719761752655434 0.1635070506519008 0 0.4905031301503383 0.1470339804933229 0 0.5090257377462122 0.1305709128753472 0 0.4534471287096928 0.1799734770797847 0 0.4349250295056258 0.1964304023287189 0 0.416411884243024 0.2128829309295755 0 0.5275762672831632 0.1140632178947543 0 0.5461520791072941 0.09748538661119596 0 0.5647167515723311 0.08095681938990476 0 0.5835061994006581 0.06435055756142616 0 0.6036031497588805 0.04490015420342005 0 0.6389935515769335 0.01969725785334701 0 0.2419071182136165 0.2244570029149979 0 0.2895171280631487 0.2377762730651491 0 0.3555897160973434 0.2391239874163996 0 0.3977805282137664 0.2297465080949012 0 0.6254137307840328 0.03715880519216297 0 0.6525925925915987 0 0 0.2477497814183456 0.2484777948188574 0 0.2714181047400089 0.255929673150273 0 0.3135612023490113 0.2471120632532998 0 0.3371029201114297 0.2555550240893837 0 0.3791268859206863 0.246727079623225 0 0.4769763191665883 0.1877941185930544 0 0.4955154421473971 0.1713139111282745 0 0.5140502559861544 0.1548365952268371 0 0.5325803252512573 0.13835879827579 0 0.4584475874849426 0.2042510512254437 0 0.4399137625713184 0.2206934586952437 0 0.4213175571220699 0.2373924274162311 0 0.5511358421730312 0.1218518071258045 0 0.5697111576708744 0.1052963080931378 0 0.5882762940925771 0.08876926692974475 0 0.6068288941303873 0.07226935935909626 0 0.6262219233758382 0.05670904072216056 0 0.6649854432403848 0.0234365499382108 0 0.6455467477251187 0.04131957651243803 0 0.2244570040178031 0.2419071171903628 0 0.2950911061350528 0.2641090809407269 0 0.3605777547522244 0.2633520910564466 0 0.4026083956428394 0.2543695373203129 0 0.6774074074063781 0 0 0.2286900013547603 0.2656901974990419 0 0.2525403453587286 0.2732222059085284 0 0.2764973199869606 0.2805542187522665 0 0.3185984349073851 0.2719676429842086 0 0.3420631827475578 0.2797835470293084 0 0.3840658431200895 0.2711555390357421 0 0.5005211121119826 0.195606504709384 0 0.4819830695447134 0.2120751411561448 0 0.5190604087820878 0.1791261434403905 0 0.5375999295440314 0.1626421992121118 0 0.5561391558607416 0.1461554053014022 0 0.4634382223695306 0.2285453859800593 0 0.4448804874195161 0.2450512934139538 0 0.426215874745702 0.2617756205943101 0 0.5747044892784462 0.1296314418716616 0 0.5932772187677258 0.1131002279354962 0 0.6118395046832928 0.09658709891291961 0 0.6303914673799004 0.08008502028840842 0 0.6490641337108942 0.0640384660265768 0 0.6911864113330585 0.0199649872374043 0 0.6674100700553215 0.048740204454491 0 0.2057516351387071 0.2580043887955171 0 0.3000337549027282 0.2883830107548556 0 0.3655091041756724 0.2875162155959821 0 0.4075142723659199 0.2785055672277433 0 0.7022222222212797 0 0 0.6835601627207522 0.03819146929781118 0 0.2088575852978029 0.2817950579264201 0 0.2336318670756505 0.2897585344036818 0 0.2577718962939641 0.2974210870525208 0 0.2814416487672567 0.3044737257581406 0 0.3234471019183635 0.29623101049694 0 0.3470489792585763 0.3040158051244972 0 0.388936970843464 0.2951021554096553 0 0.5240670025926788 0.2034284759844311 0 0.5055237693818102 0.2199092667610188 0 0.4869799268304336 0.236377216194686 0 0.542606069243881 0.1869397419931042 0 0.5611553769759198 0.1704500373138338 0 0.579707095632218 0.1539476626306597 0 0.4684397526492288 0.2528396654355123 0 0.449908763643057 0.2693251419520407 0 0.4312779871227231 0.2859127139411702 0 0.5982797687124797 0.137425944055436 0 0.6168531621778095 0.1209017554518681 0 0.6354105645509097 0.1044028452932499 0 0.6539799724490836 0.08800438320477434 0 0.6724694723821584 0.0715891704074057 0 0.714629629628724 0.01749517122348752 0 0.7044116995944988 0.04041201736879188 0 0.6906625935956689 0.05618246749195272 0 0.7270370370361676 0 0 0.7518518518510555 0 0 0.7394444444436116 0.02149026001989936 0 0.1858956196345984 0.2726587952013812 0 0.3048127041900643 0.3125861474750927 0 0.3705578259831028 0.3117405798655799 0 0.4126385078112249 0.3024926943355666 0 0.7642592592585038 0.0202634891767593 0 0.7766666666659507 0 0 0.1873547267945348 0.2997702288161244 0 0.2143655087186934 0.3063187913890433 0 0.2392090145579546 0.3140144268288957 0 0.2626455874531332 0.3214602668094815 0 0.2861547378101904 0.3289637576039727 0 0.3282831038036916 0.3205009346758001 0 0.3520102570293662 0.3282610642604954 0 0.3940806513548462 0.319234344395417 0 0.5290733926251476 0.2277363574485652 0 0.5476239879330471 0.2112457213303054 0 0.510524024114739 0.2442165355512511 0 0.4919788375093465 0.2606874597826744 0 0.5661743507298371 0.1947531631333361 0 0.584728963991203 0.1782507555243559 0 0.6032907465258623 0.1617452811059893 0 0.4734411955397324 0.2771618106462982 0 0.454905033567518 0.2936317920415835 0 0.436375671233407 0.3100956176406642 0 0.6218646104445568 0.1452246915313929 0 0.640425263490334 0.1287226466955979 0 0.6589894526236114 0.1122124483796655 0 0.6775417642730474 0.09575913771927842 0 0.6961153987356449 0.07919135901828904 0 0.7323344480438525 0.0447592483137149 0 0.7146736259241334 0.06268348215986166 0 0.7518518518510582 0.03574711575373506 0 0.7890740740734019 0.0214902600199008 0 0.8014814814808531 0 0 0.8511111111106724 0 0 0.875925925925582 0 0 0.8642349252682667 0.02239881073736861 0 0.8389068005470399 0.01668091820467637 0 0.826296296295737 0 0 0.8164218827729288 0.02530198896595669 0 0.1650000004322072 0.2857883829993298 0 0.3095158779381556 0.3369644455608476 0 0.3755935416684181 0.335902288710675 0 0.4177896573303984 0.3266821528427605 0 0.7734607444055752 0.03995984147276516 0 0.8883333333330139 0.01608823996309113 0 0.8410148017711978 0.03957286494555028 0 0.9007407407404482 0 0 0.9255555555553578 0 0 0.913256545510118 0.02213960461137654 0 0.1624140857038263 0.3096297665024593 0 0.1968718679788365 0.3222749351747802 0 0.2202679906073817 0.3302995651843582 0 0.2438297294523106 0.3382409307902071 0 0.2674664978371226 0.3456476728231525 0 0.2908134622802496 0.3534667924400561 0 0.3333240663342419 0.344724242075952 0 0.3570454161996557 0.3524713821964185 0 0.3991633361434499 0.3435386191536017 0 0.5526311324630875 0.2355617326456051 0 0.534075839045816 0.2520497764723275 0 0.5711905053858501 0.2190648905298014 0 0.5155222760017695 0.2685402160483478 0 0.496974451139313 0.284998331582269 0 0.5897503239337665 0.2025639228881653 0 0.6083121106033316 0.1860582823580542 0 0.6268752329177785 0.1695530544480038 0 0.4784002353898969 0.3015672815594199 0 0.4598747471843984 0.3179686431304706 0 0.4413689760862397 0.3343696468245216 0 0.6454378078943224 0.1530495528545274 0 0.6640004471904803 0.1365447067710094 0 0.6825656536849438 0.1200343787516358 0 0.701130635762843 0.1035230865539003 0 0.7196929184533809 0.08701246760529718 0 0.7381502718867881 0.07051363683879669 0 0.7570779941741846 0.05547599944076469 0 0.797875330750257 0.04457410091964405 0 0.8895138849891577 0.03586285760501348 0 0.866134233050034 0.04655127812482602 0 0.93711852867873 0.01643406614303385 0 0.950370370370224 0 0 0.9751851851851336 0 0 0.9604164173529304 0.02261974492386767 0 0.1431816342921367 0.2973197262231903 0 0.1784327829060834 0.3207063683611038 0 0.3145508253170056 0.3612203034609009 0 0.3805495922637888 0.3602796834388423 0 0.4227922471178944 0.3510075419002824 0 0.780625956326047 0.06220808352578706 0 0.8216000083408447 0.05276026235350237 0 0.8462536964173327 0.06201935729285492 0 0.9359937546050201 0.03741098117992503 0 0.9818661039166058 0.01818407024132339 0 1 0 0 0.1410187125854422 0.3219593476947541 0 0.1596306369067156 0.3330196511047262 0 0.1789599134588012 0.3393369983098246 0 0.2018359521472431 0.346525761451502 0 0.2252646310269177 0.3544542196334451 0 0.2487551675714283 0.3622349891937594 0 0.2722795886886512 0.3699290302421859 0 0.2957816799977598 0.3777086475439514 0 0.3383752937780673 0.3689584762947614 0 0.3618192502191129 0.3767697661114644 0 0.4041162521092647 0.3679293325290301 0 0.5761995634370098 0.2433877884545205 0 0.5576370559265507 0.2598862606305015 0 0.5390737390156488 0.2763877423153325 0 0.5947611300008553 0.2268873939032576 0 0.5205067651857536 0.2929014505862327 0 0.5019280853244781 0.309447982772222 0 0.6133212509768708 0.2103859093764366 0 0.6318847795486869 0.1938836883272518 0 0.6504500346516854 0.1773794880904415 0 0.4832614789984511 0.3262548349861287 0 0.4646571234164972 0.342910645779992 0 0.4461248050835209 0.3593817130066285 0 0.6690153472891462 0.1608740104210678 0 0.6875786118050404 0.1443679846735773 0 0.7061454570631849 0.1278583620259988 0 0.7247112723865227 0.1113461173719157 0 0.743277420838576 0.09483335650577635 0 0.7618452238866016 0.07831726700736528 0 0.8040671634690082 0.06960899399989266 0 0.8932358480532078 0.06255374085946333 0 0.9136335572280356 0.05004009695708742 0 0.8704897227637304 0.07136754622967717 0 0.979537742058721 0.03825381024085346 0 1 0.02499999999995287 0 0.1205625383738343 0.3071883369219244 0 0.3194844102624021 0.3854794295162788 0 0.3854426772454178 0.3845463616665703 0 0.4276267785880801 0.3757597408275524 0 0.7854337321918021 0.08613779330298935 0 0.8277957825978075 0.07726048062474253 0 0.8514827428488078 0.08509226343028438 0 0.9352152905894798 0.06248766295430173 0 0.9575671315420837 0.04977783338058997 0 0.1153279426859208 0.3360124139883537 0 0.139193555447945 0.3467590619896337 0 0.1604506364208979 0.3557439817625753 0 0.1833470876665316 0.3629246772882617 0 0.2068093876288755 0.3707497792339337 0 0.230295194309617 0.3785361892383687 0 0.2537851983921705 0.3863481419885133 0 0.2772824733121277 0.394159541547237 0 0.3008079315403669 0.4019637278848653 0 0.3428812063112402 0.3932915994812895 0 0.3666213155165073 0.4010710935909044 0 0.4090402226808763 0.3923546989180687 0 0.599774289109922 0.2512140630078458 0 0.5812074644686153 0.2677190747320721 0 0.5626399474529608 0.284228472069837 0 0.5440677087235314 0.3007476625888811 0 0.6183333873086897 0.2347106243778042 0 0.5254613584055916 0.3173395721498166 0 0.5068553731989376 0.3339334709099149 0 0.6368959139099105 0.2182115885096324 0 0.6554636701494561 0.2017129918641894 0 0.6740317110482394 0.1852061091944627 0 0.4882093364701993 0.3506780717358893 0 0.4696098258599721 0.367222963972624 0 0.4510822947490439 0.3836823812766937 0 0.6925890704674488 0.1686884078376003 0 0.711156735432724 0.1521905368016753 0 0.7297199312527183 0.1356678617294232 0 0.7482970399813349 0.1191718262234524 0 0.766865871567503 0.1026549752761022 0 0.8090892639026773 0.09388108381679919 0 0.9131448032637177 0.07932733073003906 0 0.8917698944235402 0.08219160457298458 0 0.8748190929567574 0.0937506726161981 0 0.9784800336079591 0.06272122387550867 0 1 0.04999999999989967 0 0.0972692078232136 0.3153390258268781 0 0.3243459006904633 0.4097649764254163 0 0.3902779270209418 0.4088644186229112 0 0.4325735458547566 0.4001780082590383 0 0.7904610277830356 0.1104393684983804 0 0.8328141761434416 0.1015850697724628 0 0.8565482074021706 0.1092957859032637 0 0.9383777816480864 0.08867376417003536 0 0.9571684556350958 0.07439423330936343 0 0.09088202270828556 0.339176325258719 0 0.1192670609574741 0.362981011678466 0 0.1414841651702391 0.371627684036449 0 0.1648510897206956 0.3793361378356489 0 0.188318580022031 0.3871526458110205 0 0.2117905148817825 0.39496615250905 0 0.235268871292608 0.4027926232074593 0 0.2587777669408386 0.4106073483617543 0 0.2822935347129659 0.418419363510851 0 0.3058225001001575 0.4262264574439251 0 0.347877009632231 0.4175707853336754 0 0.3715046898773021 0.4253680047891715 0 0.4139424362202254 0.4166701156172644 0 0.6047859649829493 0.2755467427572381 0 0.6233507880144709 0.2590395124280975 0 0.5862139186147283 0.2920543247706845 0 0.5676432687094052 0.3085572488211366 0 0.5490374285941689 0.3251508317062004 0 0.6419109692758461 0.2425358610776682 0 0.5303493506130683 0.34193022675368 0 0.5117620136958713 0.358479236502502 0 0.660473169081228 0.22605113884523 0 0.6790428907420969 0.2095389724411998 0 0.6976183742088589 0.1929953452882898 0 0.4931648628755141 0.3749983121588808 0 0.4745994342157954 0.391414083903496 0 0.4560848446754784 0.4079188649679855 0 0.7161489248914045 0.1764744061525507 0 0.7347385472849937 0.1599630372836176 0 0.7533154525194206 0.1434816431222242 0 0.7718882531676307 0.1269980627940359 0 0.81411392115319 0.1181781283120893 0 0.8987758629840557 0.1005957105225881 0 0.8801553088840277 0.1170979543368779 0 0.9209945908265229 0.1066346801085748 0 0.978928526037668 0.08687397750218458 0 1 0.07499999999985285 0 0.07343190839887077 0.3217262109758853 0 0.09856833527364794 0.3581691150673835 0 0.3293489294970102 0.4340366488291114 0 0.3951162205853223 0.4331762371554884 0 0.4375585056969254 0.4244992664734653 0 0.7955185747124809 0.1347458817241265 0 0.8378519743573312 0.1259022094646395 0 0.8615497790924831 0.1336715981459494 0 0.9598465399174374 0.0991320566388455 0 0.9446335831908776 0.1147517096420233 0 0.06406863068987256 0.345673196676714 0 0.07907269335889347 0.3639882737080145 0 0.1240002052538144 0.3876435943754505 0 0.09827580921140695 0.3817528354035314 0 0.1465076454825822 0.395746892431357 0 0.1698196160554624 0.4035689498035193 0 0.1932908737636773 0.4113975068153113 0 0.2167699420301746 0.4192362505221134 0 0.240261423321482 0.4270593853132657 0 0.2637713864907418 0.4348761563986571 0 0.2872935207610262 0.44269010589512 0 0.3108188327884669 0.4505049042718739 0 0.3528767787578172 0.4418491570648693 0 0.3764638734515497 0.4496651579450556 0 0.4189120243643329 0.4409778255409179 0 0.6097944638789872 0.2998879753241434 0 0.6283708210377525 0.2833749232855467 0 0.6469410392529806 0.2668655428732679 0 0.5912193131197138 0.3163907928612812 0 0.5726470790951526 0.332887278633282 0 0.5540566647501745 0.3494367958530002 0 0.6655052316393892 0.2503665675344056 0 0.535294895436361 0.3663533258630212 0 0.5167376803403896 0.382768749554941 0 0.6840689761424261 0.2338672069329571 0 0.7026670242078774 0.2173179655050882 0 0.7212838763908241 0.2007374451745133 0 0.4982327290597859 0.3991602769248775 0 0.4797062171539402 0.415566486510949 0 0.4611160500490518 0.4321986010991149 0 0.7398222890691737 0.1842414539453799 0 0.7583865403110959 0.1677446125771674 0 0.7769498696159389 0.1512840583896526 0 0.8192927900131409 0.1424184707621908 0 0.9036060133585913 0.1245981075835085 0 0.8851075257282097 0.1411197837102947 0 0.9274295005138098 0.1318614580032544 0 1 0.09999999999981468 0 0.9797511356307802 0.1118027676920151 0 0.04918394795091135 0.3263141726372945 0 0.334356005406747 0.4583184011515827 0 0.400353805064937 0.4574620361142469 0 0.4425182873301667 0.4487745096025854 0 0.8006422164916545 0.1590173929487333 0 0.8429364223366306 0.1502239181277412 0 0.8665008823335866 0.1579834554099067 0 0.962977920291513 0.1232702243711591 0 0.9515738227743237 0.1392571593310587 0 0.03839907693663803 0.3519361876324673 0 0.05469448199804167 0.3699390237978379 0 0.07073102725107719 0.3883578467513205 0 0.127669954304209 0.412257301272835 0 0.1097924908875145 0.4031345907432592 0 0.1512208423910728 0.4200476872642394 0 0.174743511592209 0.4278555505356061 0 0.1982393390991885 0.4356854404458504 0 0.2217391479837957 0.4435104480777428 0 0.2452442282381646 0.451334837516869 0 0.2687607907106715 0.4591544994913712 0 0.2922847931893215 0.4669750747648992 0 0.3158169243378649 0.4747928331005558 0 0.3579873038575623 0.4661206811862292 0 0.3816433454550792 0.4739326556318266 0 0.4239774044419503 0.465275889954606 0 0.6333814949167189 0.307726350247897 0 0.6148020521278881 0.324231169838594 0 0.6519660866237724 0.2912095448981825 0 0.6705426410947373 0.2746975446603026 0 0.5962217832368312 0.3407264756680041 0 0.577647543331881 0.357226217129972 0 0.5589750485842853 0.3738757606059855 0 0.6891172266833352 0.2581917026569142 0 0.5403753418307017 0.3904664586456959 0 0.5218346211905985 0.4069887956394966 0 0.7076958581590566 0.2416600576931914 0 0.7262921696040028 0.2251087655003776 0 0.7449173307163611 0.2085503048197386 0 0.5033535585824779 0.4232252337815016 0 0.4847443318990646 0.4397995345777888 0 0.4661319647574144 0.4564509159974375 0 0.7635117250894036 0.1920179552744534 0 0.7820435006356512 0.1755477531563381 0 0.824312232361527 0.1667927202724414 0 0.909086819535517 0.1482234149846797 0 0.8903434502606253 0.1652217952878605 0 0.9327932446403221 0.1559121501551899 0 1 0.1249999999997738 0 0.9760818880219659 0.1395466186011891 0 0.02466093094001071 0.3290772530655561 0 0.08981445596199912 0.4050596014280541 0 0.3393996715894907 0.4825993537352394 0 0.4053241754217245 0.4817553073941293 0 0.4475437313518437 0.4730148873461996 0 0.8057363316111882 0.1833154733876504 0 0.8479000305012592 0.1745446566822151 0 0.8716579911288355 0.1819588569539105 0 0.9579564497272148 0.1641613808172924 0 0.0184046735739704 0.3477661511691212 0 0.0368681824280504 0.376088920182139 0 0.04723601828187862 0.3933675051460651 0 0.06209613990136305 0.4130185081294612 0 0.1069688165434588 0.4257523976759495 0 0.1326480233194778 0.4365162404508103 0 0.1561753005939447 0.4443231987225436 0 0.1796955550325506 0.452139266212094 0 0.2031970041927239 0.4599736205122351 0 0.2267153892572634 0.4677998681025115 0 0.2502348127450159 0.4756195118640144 0 0.2737485883747923 0.4834419806363466 0 0.2972750455716377 0.4912678239496614 0 0.3208161075211634 0.4990900286537617 0 0.363059326197492 0.4903921711987387 0 0.3866957977266883 0.4982304333557344 0 0.4289836983359595 0.4895778093759598 0 0.6569786557467328 0.3155651813572881 0 0.638393466167904 0.3320771095524871 0 0.6198079475618343 0.3485814292952943 0 0.675565996246606 0.2990428360033394 0 0.6941509010732372 0.2825255394858427 0 0.6012184369916017 0.3650753336159238 0 0.5826322925941165 0.3815804581574778 0 0.5639972723481312 0.3981409760517691 0 0.7127425477864635 0.2659897671674849 0 0.5454125330844452 0.4146711441589624 0 0.5269096882930825 0.4310912219177947 0 0.7313275681100576 0.2494496660377493 0 0.7499215086971542 0.2329133610361195 0 0.7685248661908604 0.216383989346781 0 0.5083523634720948 0.4475555895516585 0 0.4897465793139702 0.4641349946379891 0 0.4711228086003896 0.4807829687209476 0 0.7871315193241947 0.19985573085202 0 0.8293279176228117 0.19111936595804 0 0.9141003436469506 0.1726171638322687 0 0.8956071391906525 0.1894280968361031 0 0.9373017375553643 0.1804484831661837 0 1 0.1499999999997036 0 0 0.33 0 0.01961697483099211 0.3676233253727331 0 0.08324458501475546 0.4253954162406472 0 0.3444411952297685 0.5068898863060832 0 0.4104188364188689 0.5060849854027917 0 0.4525718370833477 0.4973376279619018 0 0.8106852661868974 0.2076180154852373 0 0.8531448667566031 0.198588193036956 0 0.8769720503827443 0.2060642525365314 0 0.9816340229594396 0.1630391404119308 0 0.9551537078718035 0.1895113718087259 0 0 0.3548148148148881 0 0.02366547200188613 0.3934299386543805 0 0.03946641554680291 0.4109628226697091 0 0.06675850707164541 0.4380193197472296 0 0.1141103619957533 0.4529622438097788 0 0.1376267912305044 0.4607838857808054 0 0.09058500559531084 0.4451272542225414 0 0.1611370083491448 0.4686082794290024 0 0.1846466193238102 0.4764411947822674 0 0.2081773995311651 0.484269437358103 0 0.2317070107925374 0.4920885720127919 0 0.2552289802408488 0.4999054358128319 0 0.278722565236832 0.5077390864978916 0 0.3022669212466781 0.5155702459508122 0 0.3258172564746353 0.5233957055135057 0 0.3680169047502226 0.5146907255115567 0 0.3917121981167429 0.5225267549953637 0 0.433989743214147 0.5138902528065953 0 0.6805811232241697 0.3234016658516261 0 0.6619913436994445 0.3399256815192168 0 0.6434016558409115 0.3564408489321439 0 0.6248102910058697 0.3729376381646132 0 0.699170022624257 0.3068785490600856 0 0.7177123315071096 0.2903018714348236 0 0.6062216744373754 0.3894094465612777 0 0.5876385711404077 0.4059107198361441 0 0.5690824653856532 0.4223944508369661 0 0.7362982464091912 0.2737655536389133 0 0.5504887006266498 0.4389135520093013 0 0.5319267153229639 0.4553926915019384 0 0.7548873050393148 0.2572281182952009 0 0.7735171981624823 0.2407324007581068 0 0.7920911522445722 0.2241662234947965 0 0.5133631185641566 0.4719266182473222 0 0.4947531339683422 0.4885624100230174 0 0.4761447618039051 0.5051651097778027 0 0.8342860278375623 0.2151238423331129 0 0.9196171271078866 0.1968635406098791 0 0.9010085212332762 0.2135372750039323 0 0.9771947152888755 0.1875659834663653 0 0.9430558037238902 0.2047400566929903 0 1 0.1749999999996308 0 0 0.3796296296297976 0 0.04348039373643296 0.4299211580963785 0 0.3494130825584083 0.5312041428336345 0 0.4153873491488554 0.5303538448415432 0 0.4575577332308786 0.5217185536719323 0 0.8158282555601097 0.2316416965154114 0 0.8582276805109936 0.2226309148908239 0 0.8821861034761059 0.2302421784974626 0 0.9616395598859857 0.2045562194459939 0 0 0.4044444444446639 0 0.02148279520966402 0.419162565972814 0 0.04809908012615683 0.45371667346757 0 0.07205009080675122 0.4615795452369424 0 0.1190910212986484 0.4772386238566813 0 0.09557109106143387 0.469411633012797 0 0.1425897024629779 0.4850516273711941 0 0.1661071006746538 0.4928923086916492 0 0.1896127201743773 0.5007376404988022 0 0.2131762606726681 0.5085653678695643 0 0.2367098917611312 0.5163902917687526 0 0.2602209173265724 0.524217046338995 0 0.2837238914664837 0.5320481884814794 0 0.3072612340393962 0.5398819798787857 0 0.3308254909198856 0.5476932662075417 0 0.3730763179270225 0.538996721952373 0 0.3968058176419358 0.5468357843785725 0 0.4389884446226274 0.5382210930915733 0 0.6855989708292163 0.3477642031301974 0 0.7041376353536049 0.3311200306868121 0 0.6670053716650318 0.3642913701844351 0 0.6484130946969422 0.3808048244359282 0 0.6298304974758835 0.3972719722305469 0 0.7227331355671162 0.3144652778131072 0 0.7412026680015952 0.2978760863852226 0 0.6112513722093312 0.4137237458102409 0 0.5926677726982391 0.4302332367854999 0 0.5740812582884736 0.4467332424704598 0 0.759942064438024 0.281308044032896 0 0.5555039813229085 0.4632332269919249 0 0.5369286078712248 0.4797788314258722 0 0.7785534860037965 0.264788879914224 0 0.7973224965878788 0.248248386788827 0 0.5183972703052921 0.4963254544725842 0 0.4997281145382577 0.5130061449172096 0 0.4811285207238694 0.5295526495850661 0 0.8396991390728209 0.2391541296515769 0 0.9256495817795121 0.2210819367214183 0 0.9057840375421909 0.2379309600498605 0 1 0.1999999999995579 0 0.9544360274045173 0.2278712338546441 0 0.9783575451408426 0.2130924514072439 0 0.02241547776394759 0.445725598264378 0 0.3544929234486202 0.5555076971402868 0 0.4204014056874151 0.5547012991984063 0 0.4625401922438488 0.5460452665778495 0 0.8210769406595736 0.2557705046272383 0 0.8634759150737379 0.2466816629760398 0 0.8871509135582804 0.254520736660486 0 0 0.4292592592595735 0 0.05350969881244695 0.4780341553099566 0 0.0311783742616128 0.4716251531567359 0 0.07702974176426011 0.4858647390399261 0 0.1240227372624073 0.5015112577254147 0 0.1005436546062946 0.493685216189266 0 0.1475181497063038 0.5093706765442432 0 0.1710529167876076 0.5171977391948146 0 0.1946011430973675 0.5250466389967436 0 0.2181720997968347 0.532877822538256 0 0.2417196192234773 0.5407058452247595 0 0.2652253062503022 0.548538696113498 0 0.2887302582779369 0.5563581777238557 0 0.3122950085163611 0.564169375760071 0 0.3359367885324192 0.5720143961903517 0 0.3782091694462135 0.5633695962385488 0 0.4018429289271292 0.5712148344601078 0 0.4439357848147208 0.562542642876665 0 0.6906183858564441 0.3721310410277274 0 0.7092175523033341 0.3554253805991864 0 0.7279031378152707 0.3386443704301925 0 0.6720173024596652 0.3886630024747897 0 0.6534254412133286 0.4051717093417411 0 0.6348302935332726 0.4216857305119723 0 0.7466133190185359 0.3218564495093975 0 0.7651453821586627 0.3054926412344885 0 0.6162311162351937 0.438225858479976 0 0.5976325096922493 0.4547706042009618 0 0.5790482843688582 0.4712754639548711 0 0.7837244533761407 0.2889181845040754 0 0.5604622938504292 0.4878018264717605 0 0.5419077943172588 0.504318959932036 0 0.8024101399718708 0.2723043579396238 0 0.5233209919388984 0.5208363392464356 0 0.5047068872559052 0.5373916561667664 0 0.4861079137675831 0.5538983096915648 0 0.8449183787289023 0.2633511564011348 0 0.9305265643259393 0.2455559707327072 0 0.9108327183696194 0.2623644191729036 0 1 0.2249999999994851 0 0.9783493649054522 0.2374999999994486 0 0 0.454074074074455 0 0.01265633470770033 0.4664814814819018 0 0.3595795822031226 0.5798548466884264 0 0.4253508507254935 0.5789975465881957 0 0.4674844072124758 0.5704109193537977 0 0.8262832340358593 0.2799233004668558 0 0.8685200952960324 0.2711060889292318 0 0.9548789044832493 0.2534816534784519 0 0.8921968589501847 0.278949563016303 0 0.05940656137948078 0.5023671740401603 0 0.03681559110272196 0.4956722502860265 0 0.01627669665287338 0.4890828888975736 0 0.08194846437481346 0.5101678537646339 0 0.1054241643891805 0.5180187449197012 0 0.1288898268385934 0.5258796468503261 0 0.1524466142115825 0.5336914794320602 0 0.1759963666051561 0.5415429588060211 0 0.1996074171971913 0.5493610244330048 0 0.2231688021421831 0.5571983709623123 0 0.2467236727452798 0.5650313624310919 0 0.2702334784620631 0.5728715564808067 0 0.2938006997638472 0.5806870290713528 0 0.3173889940280059 0.5885064514618366 0 0.3410387320785203 0.5963547398839482 0 0.3832441341262139 0.5877013273423259 0 0.4067757641972878 0.5955180652447774 0 0.4488272798175423 0.5869353325314486 0 0.6956300929966992 0.3964988570364703 0 0.7142761199043486 0.379843059244315 0 0.7330662410180452 0.3627830839034639 0 0.7516509436309884 0.346216000069188 0 0.6770307789007879 0.4130332375050492 0 0.6584306802134212 0.4295714888921605 0 0.6398281971719189 0.446099881786607 0 0.7703381683066032 0.3296454947719938 0 0.7889589940921741 0.3130702053178469 0 0.6212322891482436 0.4626312870847501 0 0.6026399434281795 0.4791617802656255 0 0.5840459107027736 0.4956840124793951 0 0.8076018241768377 0.2964304573134965 0 0.5654621350122899 0.5122088740676579 0 0.5468868887572969 0.5287164339852889 0 0.5282937438579967 0.5452320360640903 0 0.509686808813411 0.5617501686216539 0 0.4910714853561944 0.5782565423522648 0 0.8498886459571064 0.2876983069329057 0 0.9345194777757614 0.2702151213114307 0 0.9158814001057787 0.2867976678978342 0 1 0.2499999999994122 0 0.9782803882586375 0.2631802189108212 0 0 0.4788888888893493 0 0.3646638306692007 0.6042123497456355 0 0.430277565944254 0.6034021462439869 0 0.4724237872749651 0.5947874220929934 0 0.8312622701027155 0.3042732054658588 0 0.8735634203665805 0.2955345608414642 0 0.9574466490363873 0.2775247331556324 0 0.897243424084591 0.3033806937274428 0 0.0638955687921848 0.526523135752592 0 0.04099107313300787 0.5200679840762946 0 0.0190502886376104 0.5128136781090632 0 0 0.5037037037042373 0 0.08679963484338304 0.5345199903938072 0 0.1103406684095908 0.5423485045947599 0 0.1338657589246714 0.5502014820276068 0 0.1574265495580474 0.5580284091467951 0 0.1810083957788826 0.5658598353597075 0 0.2045895348584034 0.5736932442767009 0 0.2281698323326953 0.5815232064239757 0 0.2517259396693075 0.5893631815334934 0 0.2752900119347619 0.5971918917152819 0 0.2988664473639545 0.6050247212862656 0 0.3225153188966809 0.6128792472353928 0 0.3460874383777551 0.6207179956558375 0 0.3882365916642461 0.6120345960002235 0 0.4117502981844005 0.6198924221670545 0 0.45380125150597 0.6113214063466468 0 0.7006184103843256 0.4208433247180771 0 0.7192898294209999 0.4042101690146111 0 0.7380781092727929 0.3872693207647131 0 0.7567827255341509 0.3705049408900548 0 0.7753908214667163 0.3539800961519919 0 0.6820245809440826 0.4373891721463927 0 0.6634334018413504 0.4539337087298677 0 0.6448215061740845 0.4704483112655725 0 0.7940120218329759 0.3374112320987708 0 0.8126381387429485 0.3208394021371245 0 0.626230483281518 0.486982865008921 0 0.6076522707125165 0.5035278061130275 0 0.589043696320649 0.5200305511401021 0 0.5704677989886343 0.5365706217045413 0 0.5518830807616009 0.5530827664247981 0 0.5332905130121289 0.5695984544199455 0 0.5146503096306576 0.5861240130352916 0 0.4960211723444405 0.6026480998240265 0 0.8549311942779432 0.3121155450766262 0 0.9387444297355052 0.2939171881274529 0 0.9209315167238519 0.3112313990511608 0 1 0.2749999999993393 0 0.9790846051792652 0.2878207790658679 0 0.3696849539018439 0.6285601831658232 0 0.4352321322010209 0.6278117203866797 0 0.4774116479233309 0.6191701858442327 0 0.8363009966377328 0.3286893589623837 0 0.8786061208275926 0.3199621939686349 0 0.9603158273724723 0.3018016466732115 0 0.9022882485322705 0.3278131820775784 0 0.0682207595820371 0.5510095643494717 0 0.04511196870052327 0.5448387735938716 0 0.02166646018552607 0.5381928926760549 0 0 0.5285185185191252 0 0.09175879251136339 0.55884912229546 0 0.1153057155975399 0.5666842044758457 0 0.1388603362534 0.57451638822494 0 0.1624346389923622 0.5823511690593317 0 0.1860165166683805 0.590189066555679 0 0.2095923717940554 0.5980173841814272 0 0.2331702494708242 0.6058589522923162 0 0.2567503707418713 0.613699935185102 0 0.2803348035577348 0.621543443581033 0 0.3039252897032281 0.6293865285149818 0 0.3275156694977805 0.6372292771335485 0 0.3511056181570162 0.645072387616436 0 0.3933174990140738 0.6363930910090397 0 0.4167657283053408 0.6442708012145372 0 0.4588056491382691 0.635693364822173 0 0.7056733573967093 0.4450558298091186 0 0.7243645772760315 0.4284263092836057 0 0.7430783299080979 0.4116663470500473 0 0.7617903952715519 0.3949986600483704 0 0.7804169157143237 0.3784078273591324 0 0.7990430589374919 0.3618273053379599 0 0.6870513016514477 0.4616359429131995 0 0.6684696306399981 0.4781649983781417 0 0.649865937305717 0.4946973936731823 0 0.8176721370606949 0.3452562734195672 0 0.6312426368278249 0.5112531780660146 0 0.6126008153233446 0.5277728876492028 0 0.5940610822305263 0.5443210060460738 0 0.5754645161189604 0.5608894347637413 0 0.5568874390684198 0.5774474966554852 0 0.5382789556401019 0.5939695578280895 0 0.5196513875789284 0.6104954460738263 0 0.5010273338737433 0.6270200749907852 0 0.8599718367982033 0.3365398539101744 0 0.9433299951151022 0.3183333261670561 0 0.9259045111786721 0.3355845685158936 0 1 0.2999999999992664 0 0.9793053585085839 0.312529371946886 0 0.3747346193705543 0.6529071752595837 0 0.4402085177953136 0.652206462777545 0 0.4824219055062554 0.6435476141199976 0 0.8413379607317523 0.3531183416665087 0 0.8836498533292332 0.3443905236757482 0 0.9631816573277043 0.3244480856019263 0 0.9072424378009376 0.352136441822977 0 0.07332786380320813 0.5752983796560383 0 0.04965995953872425 0.5674802428356102 0 0.02498344662395612 0.5651528626111491 0 0 0.5533333333340349 0 0.09674629115947381 0.5831635492503958 0 0.1202995322585305 0.5910010870886051 0 0.1438619260550686 0.5988369531347452 0 0.1674341096403941 0.606676361934124 0 0.1910142718786762 0.6145146190006138 0 0.2145897867122931 0.6223551487142688 0 0.2381669067575835 0.6301995848378826 0 0.2617472225624526 0.6380451383829437 0 0.2853302738861428 0.6458941109685716 0 0.3089227236988549 0.6537427509521185 0 0.3325253065178996 0.6615852543067342 0 0.3561435025317129 0.6694202961813709 0 0.3983658381878072 0.6607359091903859 0 0.4217755322065199 0.6686470060453141 0 0.4638097302168511 0.660073569535347 0 0.7108010400395803 0.4693270578253445 0 0.7294117247569233 0.4527426002074187 0 0.7481158117891346 0.4360395849023622 0 0.7668165423843181 0.4194143902534536 0 0.7854405115919889 0.4028493619084527 0 0.804071956913041 0.3862715395448746 0 0.8227040857033084 0.3696960597466959 0 0.6921935356497495 0.4858525896951692 0 0.6735805317536251 0.5024224975237228 0 0.6549639429176045 0.5189835335028034 0 0.6363420309741833 0.535514419986771 0 0.6177833072096253 0.5519918237299364 0 0.5991257405972434 0.5686369535982907 0 0.5804981325272504 0.5852355905753617 0 0.5618973408314814 0.6018174714043847 0 0.5432757029968468 0.6183425451771933 0 0.5246548509877803 0.6348683855875723 0 0.5060449438987317 0.6513999899877538 0 0.865013332758962 0.3609698314961345 0 0.9531236649779945 0.3442266817732499 0 0.9305828502485115 0.3600532203327809 0 1 0.3249999999991935 0 0.9783493649054521 0.3374999999991571 0 0.3797615314906225 0.6772665981412277 0 0.4452184102656507 0.6765827080230468 0 0.4874325970846668 0.6679314364642595 0 0.8463760247717016 0.3775511812021082 0 0.8886951415234459 0.3688217870664894 0 0.9118292370204353 0.3759890111096742 0 0.07818058969366909 0.5996435249183414 0 0.05540079033398124 0.5916442742869512 0 0.03838623720237222 0.5824496453125004 0 0 0.5781481481489228 0 0.10173452193631 0.6074844702268856 0 0.1252947760257384 0.6153252171631494 0 0.1488627021720616 0.623165890026508 0 0.1724352512820611 0.6310073339471542 0 0.1960101373307905 0.6388506250075393 0 0.2195821934257556 0.6466922125708729 0 0.2431523941554037 0.6545439789109433 0 0.2667318254645603 0.662401765136775 0 0.2903236403942442 0.6702533133009735 0 0.3139230764421379 0.678105302623464 0 0.3375365177540691 0.6859505507077661 0 0.3611532982273698 0.6937965450078256 0 0.403379358463573 0.6851146518338349 0 0.4267869831508935 0.6930374461099071 0 0.4688143396955933 0.6844621815032595 0 0.7345649576182961 0.4770313415666867 0 0.7159113631643572 0.4936440427604745 0 0.7532121197726598 0.4603950180133789 0 0.7718438659993923 0.4438247237676594 0 0.79047236340405 0.4272681592415942 0 0.8091054078727461 0.4107042650424866 0 0.8277394582998033 0.3941301941229965 0 0.6973216158050232 0.5101406464899626 0 0.6786861028248772 0.5267336425334909 0 0.6600664178193998 0.543280069233639 0 0.6414579396636297 0.5598002138807122 0 0.6228064378840583 0.5763694828514955 0 0.6041409676130407 0.5930143836231357 0 0.5855204742501847 0.6096386095846746 0 0.5669079556954897 0.6261935447267862 0 0.5483026600396838 0.6427212711355328 0 0.529678094494008 0.6592536044912389 0 0.5110614216166365 0.675788728096872 0 0.8700545744909211 0.3854010695818605 0 0.9759124781698978 0.3608569076349 0 0.9521705116113151 0.3714799610003981 0 0.9326759828093861 0.3807850394967379 0 1 0.3499999999991207 0 0.02075322666281553 0.5921571194557264 0 0.3847730366817771 0.7016477223950749 0 0.45020853001839 0.7009834057146062 0 0.4924417506160758 0.6923227999441702 0 0.8514155483916572 0.4019802005756848 0 0.893738631221328 0.3932537459362416 0 0.9205253414412262 0.4004712167907332 0 0.08316705357768354 0.6239649230426679 0 0.06038843476581364 0.615964340272247 0 0.03988365791433585 0.605514568238214 0 0 0.6029629629638107 0 0.1067245716982458 0.6318118969279088 0 0.1302861626698192 0.6396565226938079 0 0.1538560799082589 0.6475000906549068 0 0.177429803344555 0.6553446647659449 0 0.2010041757619188 0.6631885324831566 0 0.2245677744947461 0.6710469287776448 0 0.2481291041026533 0.6789077388374102 0 0.2717083176864658 0.6867663104198078 0 0.295316651357724 0.6946232392804955 0 0.3189273278663866 0.702471485215055 0 0.3425418151527775 0.7103217571485838 0 0.3661632671059536 0.7181777851683641 0 0.4083741369870222 0.7095025923467683 0 0.4317928328849593 0.7174315091767423 0 0.4738192410967837 0.7088551908629186 0 0.7582329149133482 0.4848457527696908 0 0.7395977487590596 0.5014290582494972 0 0.7209687844308551 0.5179901733645526 0 0.7768680722457341 0.4682572252634351 0 0.7955036770359996 0.4516974437532917 0 0.8141385725025759 0.4351276641439665 0 0.8327767604847427 0.4185595384854753 0 0.7023420749081952 0.5345451230715416 0 0.6837181060933275 0.551098016733264 0 0.6650954261220422 0.5676496129384747 0 0.6464756229201802 0.584189286002208 0 0.6278437905084591 0.6007553090302902 0 0.6091968819144433 0.6173828205900052 0 0.590536140289862 0.6340417618669703 0 0.5719244862929541 0.6505749868607668 0 0.5533107356835792 0.6671092012687176 0 0.5346929400802517 0.6836440951618366 0 0.5160726800592105 0.7001824456696432 0 0.8750980141011381 0.4098353719750641 0 1 0.3749999999990478 0 0.9753264526933141 0.3858473132718679 0 0.9482719737254425 0.3959317882501031 0 0.02043278372079466 0.6169019114384878 0 0.3897881576909517 0.726033836676935 0 0.4552264081358255 0.7253703513534062 0 0.4974493922559448 0.716718602438162 0 0.8564543811189804 0.4264138926531589 0 0.8985890911033567 0.4179891175716099 0 0.9374829460330925 0.4154585787787213 0 0.08798693055698512 0.6482029125865802 0 0.06472843155263536 0.6404172100331059 0 0.04194071196319545 0.629619835412314 0 0 0.6277777777786986 0 0.1117082054870657 0.656144847635144 0 0.1352772696872632 0.6639911897015602 0 0.1588494412704852 0.6718370785013601 0 0.1824246206188084 0.6796871404428187 0 0.2059893220198844 0.6875358339615093 0 0.2295494575028608 0.6954132759019774 0 0.2531118814957625 0.7032837992087929 0 0.2767075885785432 0.711142494480523 0 0.3003184908205314 0.7189921806549266 0 0.323921709474679 0.7268428569810963 0 0.3475443955583881 0.7347018222516775 0 0.3711721311845384 0.742568470076992 0 0.4133750154260039 0.7338794850808863 0 0.4367859235916208 0.7418157744548801 0 0.4788276551307605 0.7332520901565127 0 0.7632519455272584 0.5092908977893991 0 0.781891609582131 0.492712736293083 0 0.7446199854398039 0.5258478994191088 0 0.7259893539123929 0.54240021284597 0 0.8005288092582254 0.4761416799342002 0 0.8191703788060202 0.4595652101688951 0 0.8378125251269164 0.4429933580947292 0 0.707363426704201 0.5589540464589504 0 0.6887315237270182 0.5755230955112036 0 0.6701082738977082 0.5920676642788406 0 0.6514871861970258 0.608597526255187 0 0.6328412579125546 0.6252085009618804 0 0.6141836362728109 0.6418551812241242 0 0.5955529027120111 0.658431060567028 0 0.576936897482799 0.6749619895449902 0 0.5583215901028831 0.6915002605991004 0 0.5397078453887817 0.7080421403621171 0 0.5210804196583336 0.7245844938515604 0 0.8801389300975627 0.4342712321935149 0 1 0.399999999998975 0 0.9756037526532302 0.4118152227477838 0 0.92131033969517 0.4273419196373924 0 0.9548932158257819 0.4205568437945992 0 0.01992242293179292 0.6404324285076105 0 0.3947719414417699 0.7503947984531412 0 0.4602296618681621 0.7497682927731849 0 0.5024473739750948 0.7411263537594519 0 0.861491453002873 0.4508500196699469 0 0.9038321410739456 0.442128379357508 0 0.9440994591853091 0.4375111603566565 0 0.06845433955732563 0.6642452437186221 0 0.09291860414737052 0.6725280948787483 0 0.04453978180175015 0.6544745428891997 0 0 0.6525925925936003 0 0.1166986267651881 0.680481457885839 0 0.1402684416660821 0.6883266958890253 0 0.1638159760878217 0.6961666426694766 0 0.1873699831320976 0.7040338177618658 0 0.2109353118699733 0.7119170212549324 0 0.2345043390261596 0.7197926524322802 0 0.2580966426425832 0.7276655325348811 0 0.2817107238198532 0.7355175210303875 0 0.3052826078803224 0.7433540757571917 0 0.3289156195696684 0.7512158208591436 0 0.3525284888538035 0.7591013441058913 0 0.3761808199734725 0.7669671269889418 0 0.4182320585294196 0.7583209355040392 0 0.4416067572392866 0.7662785430806897 0 0.4837938534527524 0.7576737497519525 0 0.7869161514994587 0.5171523207264128 0 0.7682792241124586 0.5337144185559158 0 0.8055599728934273 0.500580460590905 0 0.7496433710414931 0.5502765145623234 0 0.7310104437079079 0.5668089733866573 0 0.8242034525647993 0.484004992322275 0 0.8428475675447278 0.4674283565452695 0 0.7123736745962509 0.5834003810706497 0 0.6937218748715848 0.6000043330775011 0 0.6750900571165191 0.6165768555530667 0 0.6564536625667952 0.6331457146916296 0 0.637826725253989 0.6497001677957585 0 0.6191902190465857 0.6662819881775419 0 0.6005696847579037 0.6828148294140886 0 0.5819615507881932 0.6993513698194793 0 0.5633539621419374 0.7158977489651736 0 0.5447245278503998 0.7324470084656596 0 0.5260894349681721 0.7489948521045041 0 0.8851786504168292 0.4587131670414243 0 1 0.4249999999989021 0 0.9721633022312616 0.4381861633990864 0 0.9271590142568096 0.4511089855043814 0 0.02244024297541851 0.6654433106669332 0 0.3997265931003933 0.7748024374907218 0 0.4651437450658902 0.7742284139993334 0 0.5074490618606399 0.7655436525242044 0 0.8665279864203848 0.4752870703892063 0 0.9088681797029519 0.4665741416133665 0 0.9524085324950322 0.4573430387102664 0 0.04561500423203528 0.6805406386061202 0 0.07455133297017938 0.6891220499904533 0 0.0981121895474793 0.6969720574558518 0 0 0.6774074074084013 0 0.1216762775226569 0.7048080632968695 0 0.1451988306237398 0.7126692141001613 0 0.1687467165596969 0.7205563307061619 0 0.1923083255417647 0.72842106713372 0 0.2158904439970728 0.7363054803382424 0 0.2394737539265027 0.7441820301922364 0 0.2630566931936394 0.7519940352089012 0 0.2865177321955521 0.7598723949524931 0 0.3101677547334347 0.7677594600094861 0 0.3338621832898239 0.7756089142762985 0 0.3574806569041407 0.7835754204122077 0 0.3811272793572237 0.7913948670463612 0 0.4231440460899292 0.7827702295511303 0 0.446496158298585 0.7907782837904356 0 0.4888030824574081 0.7820951077102581 0 0.8105903098612665 0.5250136577475472 0 0.7919471164826494 0.5415861891476389 0 0.7733031098915536 0.5581532026021419 0 0.8292360251359028 0.5084394077173153 0 0.7546581091848424 0.5747343805641472 0 0.7360083295387583 0.5913167217112139 0 0.8478806698775845 0.491863818746158 0 0.7173775267238472 0.607866558195997 0 0.6987358151163786 0.6244462520938459 0 0.6800972842677196 0.641020840732326 0 0.6614619653177412 0.6575891316867569 0 0.6428329522382431 0.6741390916814602 0 0.6242063079247772 0.6906767063117893 0 0.6056020971383476 0.7072031767035676 0 0.5869934171121712 0.7237479104277599 0 0.5683704554888648 0.7403067140248543 0 0.5497423326201096 0.7568597420194432 0 0.5311042163890261 0.7734121165699961 0 0.890211568585823 0.4831489113624124 0 1 0.4499999999988292 0 0.9324695775011571 0.4742446666747282 0 0.9769746177693134 0.464482946299 0 0.01920752479417071 0.6870985649337775 0 0.4047482662464441 0.7992619088922663 0 0.470155676252775 0.7986491679186329 0 0.5124561953200759 0.7899581500420252 0 0.8715669057478205 0.4997267902294428 0 0.9132246291826989 0.4911070957795024 0 0.9575096759650643 0.479360736799831 0 0.05600439512975839 0.7054972211523109 0 0.07952918663254258 0.7134636242390605 0 0.1030902758993148 0.7212975498573286 0 0.03424303741284614 0.700266998812485 0 0 0.7022222222231429 0 0.1266137128524208 0.7291784913563523 0 0.1501358401043872 0.7370644787623744 0 0.1736513438683701 0.744982763809374 0 0.197228920822493 0.7528590340320109 0 0.2208571900377289 0.7607099998734675 0 0.2444633977442268 0.7685412864797241 0 0.2678110478992742 0.7762711723723784 0 0.2909796951262054 0.7844945896165008 0 0.3146118715267358 0.7923850526815192 0 0.3382973206133312 0.8002490927188095 0 0.3618507668950539 0.8081511455465313 0 0.3855735787157545 0.8159967617825253 0 0.428157695229363 0.8072694418509797 0 0.4515566133652024 0.815191912390708 0 0.4938112534552203 0.8065125246181337 0 0.8342685565148311 0.5328770022703406 0 0.8156205248315259 0.5494513648156563 0 0.7969737944879782 0.5660264612527263 0 0.778327846265596 0.5825999787804149 0 0.8529169721850828 0.5163021415301481 0 0.7596814273406012 0.5991723224975141 0 0.7410359199186193 0.6157423145910956 0 0.722395763072496 0.632304202894173 0 0.7037528084718319 0.648861982561649 0 0.6851141027347445 0.6654480257240076 0 0.6664774111579878 0.682007754787612 0 0.6478471062190357 0.6985494919820174 0 0.6292496820900264 0.7150654038802409 0 0.6106556356591861 0.7315964000477299 0 0.5920447109041107 0.748159521002798 0 0.5734027054843994 0.7647223725802377 0 0.554761968389669 0.7812798746558537 0 0.536097664664359 0.7978257982503864 0 0.8951345925527248 0.5076178808056708 0 1 0.4749999999987564 0 0.9344644825328254 0.4994541645876123 0 0.9786587875259285 0.4880466552337779 0 0.01824729961814771 0.7130198012397945 0 0.4093588875337526 0.8238327497371727 0 0.4751498670348792 0.8230531698187513 0 0.5174246461818924 0.8143545225283269 0 0.8766092130184299 0.5241687347679722 0 0.9181993742207111 0.5156028096332241 0 0.9584941364832372 0.50346416994387 0 0.06120311471347693 0.7300545946570484 0 0.03875993630237985 0.7226541127331855 0 0.08451646274952443 0.7377999303353177 0 0.1080367636456455 0.745670332689554 0 0 0.7270370370379062 0 0.1315442893187808 0.7535613094318256 0 0.1550372283445993 0.7615347716805415 0 0.1786296656357228 0.7693882904383488 0 0.2022409764123168 0.777232595416341 0 0.2258231276026104 0.7850408332948762 0 0.249164123168908 0.7930524106188345 0 0.2724963639894199 0.8009699366616165 0 0.2958799728109277 0.8089653281493883 0 0.3195319207260942 0.8168377857818033 0 0.3432162183672166 0.8247018948802427 0 0.3668636628428133 0.8325768786879997 0 0.3905374463273999 0.8404333611782937 0 0.4329186132312133 0.8317316340011423 0 0.456507026054372 0.8396077996648958 0 0.49871816434516 0.8309170916254112 0 0.8393002811484253 0.5573161561499428 0 0.8579525158727791 0.5407400881579341 0 0.8206499262716744 0.5738906153708209 0 0.8020018884890001 0.5904640482835788 0 0.7833527330034109 0.6070343279275489 0 0.76470562613238 0.6236062114106646 0 0.7460598568898589 0.6401738308055878 0 0.7274167070078941 0.6567387052256826 0 0.70877432676313 0.6733064841614906 0 0.6901301983251378 0.6898717543847304 0 0.671498377578869 0.706413164379766 0 0.6528842826407876 0.7229380124267593 0 0.6342996548526731 0.7394685092379862 0 0.6156867288231288 0.7560088965305002 0 0.597063289480451 0.7725776872251813 0 0.5784130569009274 0.7891345073264603 0 0.5597598116778546 0.8057104590720048 0 0.5410632995476801 0.8222484638373374 0 0.9003357758593779 0.5320548118124253 0 1 0.4999999999986943 0 0.9414622937374929 0.525690772935795 0 0.9793957259734243 0.5125897029772474 0 0.02029393074179774 0.7378077053234002 0 0.4142177254523408 0.8483033907178292 0 0.4800588806167178 0.8474528052846741 0 0.5223159902971344 0.838858104013089 0 0.8816431454799381 0.5486040543817037 0 0.9225799749301715 0.540224795227261 0 0.9633995159941118 0.5250178219923967 0 0.06610757636210632 0.7544983380562399 0 0.04265447262438838 0.7463623280179182 0 0.08947675625579593 0.7621529960029251 0 0.112982635228956 0.7700428983957309 0 0 0.7518518518526134 0 0.1364804826530633 0.7779872886573088 0 0.1600215019159824 0.7859072220459511 0 0.1836247469347055 0.7937601549562938 0 0.2071979187151421 0.8015580913797083 0 0.2304967436593399 0.8095092405854826 0 0.2538762321814915 0.8175542563787369 0 0.2772804569612926 0.8255679894991821 0 0.3008858772367714 0.8333842211339795 0 0.3245440390403293 0.8412602420259869 0 0.3482096000856778 0.8491362245203258 0 0.3718768601292854 0.8570088430682122 0 0.3955441224637852 0.8648892755698485 0 0.4378797835271048 0.8561892706646259 0 0.4614529047242886 0.8640556176933096 0 0.5035167285887554 0.855502167274214 0 0.8443283558480825 0.5817492196580138 0 0.8629848927457069 0.5651851272608561 0 0.8256769760209904 0.5983244505994412 0 0.8070289631567459 0.6149013777825461 0 0.7883733270347737 0.6314647203724463 0 0.769729409616177 0.6480382672948997 0 0.7510827431369503 0.6646049036347496 0 0.7324391445694257 0.6811733832470923 0 0.7137921115032724 0.6977388356023784 0 0.6951424081811628 0.7143005552030098 0 0.6765058508437514 0.730851290922873 0 0.6578978048075261 0.7473759103858444 0 0.6392687951113151 0.7639215323688374 0 0.6206529963453193 0.7804240694357407 0 0.6020157041226066 0.7969951635556223 0 0.5834030811865709 0.8135701803336046 0 0.5646986481010636 0.8301761899607343 0 0.5459599123183737 0.8467606740005014 0 0.9055301699914653 0.5566836017411674 0 1 0.5249999999987492 0 0.9400572834987744 0.5496719522196234 0 0.9795180805437578 0.5375133733631878 0 0.9596026851516696 0.5458749112788488 0 0.0222197853516632 0.7623746137305287 0 0.4192221616445168 0.8727592505160064 0 0.4849723353862154 0.8720428715936878 0 0.5272131908009456 0.8633657048127434 0 0.8868388327287671 0.5732390060727679 0 0.9283628038074596 0.5655574414253957 0 0.07091407352867399 0.77865609413702 0 0.0473424922749063 0.7707846036071072 0 0.09446689135667627 0.7865006414462673 0 0.1179496127396491 0.7944597721052112 0 0 0.7766666666673896 0 0.1414377216832498 0.8024059942471875 0 0.1650122762116271 0.8102963409401812 0 0.1886138733607201 0.8181237027463122 0 0.211916733046224 0.8259054708723268 0 0.2351887975147401 0.8341006697809178 0 0.2586309077952489 0.8421252911263888 0 0.2822364376868849 0.8499256851797482 0 0.3058904460364109 0.8578139056214299 0 0.3295549586290289 0.8656920861865056 0 0.3532214787574804 0.8735683324579648 0 0.3768932545614621 0.8814396398672131 0 0.4005611535665717 0.8893313962064145 0 0.4428109949968604 0.8806792491882121 0 0.4663518110898653 0.8886412674858473 0 0.5084868954603224 0.879997863105044 0 0.8493752657451179 0.6061599122303861 0 0.8680410149538313 0.5896389721926487 0 0.8307093562608239 0.6227172745311449 0 0.8120528158532958 0.6392986499891086 0 0.7934018709564656 0.655875526872803 0 0.7747473201383935 0.6724617571716209 0 0.7561091838173526 0.6890342785652648 0 0.737464414151273 0.7056032872923197 0 0.7188106747023 0.7221718217193971 0 0.7001537422192166 0.7387367648201518 0 0.681520243872369 0.7552993372376001 0 0.6628776156842262 0.7718532384925774 0 0.6441793787924621 0.78844642347837 0 0.6255937518544659 0.8049318513625564 0 0.606974713706163 0.8214927375247165 0 0.5883914843814165 0.838054436311463 0 0.5695760711041975 0.8547059114160456 0 0.550836136673637 0.8713141493559005 0 0.9102562875050957 0.5814862555483349 0 1 0.5499999999988151 0 0.9537171211796475 0.5715497880056861 0 0.9783491899070615 0.5624967757087396 0 0.02223927512402528 0.7894683281093189 0 0.424241147382358 0.8972083794132588 0 0.4898457555776495 0.8965456696886969 0 0.5321515865497388 0.8878954370638176 0 0.8918635378642861 0.5977937202223197 0 0.9338331342763044 0.589657183153611 0 0.07571908385350662 0.8031484651213519 0 0.05123146159803522 0.7955465057895227 0 0.09943387232950293 0.8108903724224946 0 0.1228960731864461 0.8189314374622783 0 0 0.8014814814820662 0 0.1464012203385429 0.8268327195633058 0 0.169966895065387 0.8346232232017841 0 0.1932724058745588 0.8426661455126424 0 0.2165955102092512 0.8505605624777646 0 0.2399059307779283 0.8586062571685505 0 0.2635674892502444 0.8664868653507974 0 0.2872336490329104 0.8743672071656003 0 0.3108995669642632 0.8822490424251763 0 0.334570887737751 0.8901275427187075 0 0.3582368399174962 0.8979978433002976 0 0.3819212655113539 0.9058432698431887 0 0.4056828121919814 0.9134674252257169 0 0.4476774223693781 0.9054117583239948 0 0.4708996786698251 0.9136339471436719 0 0.5134245705589466 0.9044137094147465 0 0.8544234128164481 0.6305252915608368 0 0.873101712448271 0.6140641449963573 0 0.8357569257695961 0.6471138808805638 0 0.8170911678329521 0.6637157556850348 0 0.7984405092487057 0.6803042672706388 0 0.7797862026956973 0.6968915777793727 0 0.7611429383309583 0.7134641039733971 0 0.7424893362535308 0.7300379596997184 0 0.7238335835213539 0.7466083791793581 0 0.7051770863909808 0.7631774450001865 0 0.6865181826802713 0.7797494137516268 0 0.6678589912547792 0.7963210383934876 0 0.6491967595627167 0.8128932509676103 0 0.6305355730680636 0.829461264764749 0 0.6119919165840637 0.8460152153685798 0 0.5932608390052647 0.8625928361744131 0 0.5745237613731126 0.8791956813831188 0 0.5558414498614074 0.8957762757379046 0 0.9149294035335194 0.6057434780341093 0 1 0.574999999998881 0 0.9567530219614166 0.5997636235265711 0 0.9779770871758517 0.5869246431307577 0 0.03453677873593917 0.8142782483861686 0 0.01444291403783642 0.8138888888894578 0 0.4292653241475136 0.9211623317842248 0 0.4947709213645926 0.9209622113264406 0 0.5368535930509325 0.9119985546856207 0 0.8966496858010352 0.6221692495401567 0 0.9379484251596392 0.6153801054156038 0 0.05781575898654383 0.8195138932614028 0 0.0807275998521543 0.8275282007471221 0 0.1042281191000219 0.8354561758552637 0 0.1277931650240382 0.8433479157997509 0 0 0.8262962962968513 0 0.1513390790882483 0.8511441445928329 0 0.1745903302285362 0.8591074458510972 0 0.1979636625270052 0.8671892472402747 0 0.2213737965260962 0.875207785429112 0 0.2449070073305828 0.8830388470995707 0 0.2685725614652825 0.8909232706921136 0 0.2922408057806687 0.8988073809818486 0 0.3159141023378611 0.9066908614255624 0 0.3396005727975765 0.9145682117593864 0 0.3621924985660483 0.9218671453624625 0 0.3857970190909464 0.9332910616487249 0 0.4131655322338794 0.9371121600393097 0 0.4519250213931413 0.9319023912771636 0 0.4748271402243234 0.9383403847598879 0 0.5181192031163944 0.928509483440386 0 0.8594774966171587 0.6549552251135986 0 0.8781325451393449 0.6383939863460806 0 0.840812472597684 0.671543630759814 0 0.82213931393026 0.6881404403977575 0 0.8034771799384652 0.7047405457172441 0 0.7848247810546968 0.7213230051244592 0 0.7661694938104759 0.737904654565753 0 0.7475131055045867 0.7544782968170135 0 0.728857266449918 0.7710498634639176 0 0.7101995963395784 0.7876221136366515 0 0.69154073487845 0.8041954134874858 0 0.6728798765211068 0.820769666214477 0 0.6542123676697466 0.8373450127219 0 0.6355667210164716 0.8539185029356087 0 0.6169004978281958 0.8704969407239753 0 0.5982067713945226 0.8870809044497074 0 0.57953064540326 0.9036580357377688 0 0.5608631244099471 0.9202368199814355 0 0.9198497274508971 0.6305276821573385 0 1 0.5999999999989468 0 0.9784557823631685 0.6124992939670016 0 0.9594109584700307 0.6251240553194752 0 0.02181265510500167 0.8378756231713184 0 0.0438435128510799 0.8349390219755524 0 0.4345791820456519 0.9400937638581185 0 0.4997608834190932 0.9454096159710605 0 0.5424231033824529 0.9359521525811052 0 0.9018413455411203 0.6462493828440965 0 0.9425566432439851 0.6402696075180441 0 0.06248246205093172 0.8438214249673297 0 0.08563495426701889 0.8519754252945992 0 0.1091548178085724 0.8598817827109431 0 0.1327208301057691 0.8676732528963976 0 0 0.8511111111115713 0 0.1560150998324549 0.875796878406065 0 0.1793103561464382 0.8838205794370687 0 0.2026395761771506 0.8917729647339635 0 0.2262436613244302 0.899591613168254 0 0.2499117805100043 0.9074790303243869 0 0.2735809604107413 0.9153629157037421 0 0.2974706959017174 0.9225925868923067 0 0.3209676028773956 0.9310309865792397 0 0.3440905558895249 0.9379920904975798 0 0.3635087381893921 0.9415103951255982 0 0.3994783974841097 0.9568717541490975 0 0.4241904584430738 0.9577866235699758 0 0.4511897328231914 0.9559718867128943 0 0.4801575592943815 0.961937243067543 0 0.5242545733695935 0.9562820574104213 0 0.864509711812433 0.6794144134521598 0 0.8831784135184899 0.6628252905974504 0 0.8458420761646341 0.6960064009085458 0 0.8271767170213448 0.712595667750621 0 0.8085137414706083 0.7291882129764368 0 0.7898520901557156 0.7457735000423362 0 0.77119430059017 0.7623504110118221 0 0.752536566181661 0.7789226132278473 0 0.7338780981415631 0.7954942957465607 0 0.7152208512468929 0.8120681241843084 0 0.6965665550098681 0.8286451546695029 0 0.6779022470008235 0.8452229797962034 0 0.65923505926287 0.8618007602780051 0 0.6405703391942119 0.8783805487105526 0 0.6219014715142935 0.8949619265352272 0 0.603227054120535 0.9115448113332413 0 0.5850837544365208 0.9278457600864441 0 0.567585098297927 0.9429716913268837 0 0.925334921062209 0.6547657541139006 0 1 0.6249999999990126 0 0.9791624950347799 0.6369927481957234 0 0.961254552127965 0.6458555409153441 0 0.04256990937698303 0.8592059200915423 0 0.01963700143056773 0.8646402808260137 0 0.3748873527843648 0.9582037673764474 0 0.5027808158078813 0.9709878500244695 0 0.5507472810645824 0.9576505966007567 0 0.9068777488216413 0.6706923418096659 0 0.9492670038284078 0.6619779312999536 0 0.0669242326425559 0.8685844704727985 0 0.0905408770266989 0.8764288296193739 0 0.1141581956181559 0.8842755942035675 0 0.1374866424149386 0.8922163649444228 0 0 0.8759259259263066 0 0.1607478272674254 0.9002724519903215 0 0.1839848821459442 0.9083443650207415 0 0.207576134186653 0.9161467584908285 0 0.2312467798443926 0.9240369818626744 0 0.2571609728158175 0.9352949370198208 0 0.2811050320991304 0.9349644365076406 0 0.2998803480695494 0.9445451268007657 0 0.3236114093795992 0.9568552917230975 0 0.3500032715461944 0.9603064656157594 0 0.387496423359403 0.9783511625950534 0 0.4124060183924217 0.9783774111509524 0 0.4373436754833698 0.9785340529907998 0 0.4625000000019244 0.9783493649053084 0 0.4840876750216445 0.9822548915994642 0 0.5191218073013006 0.9821724671323171 0 0.5382556730394342 0.9779206683461595 0 0.8882115913920219 0.6872887432689789 0 0.8695410507511017 0.7038771987024882 0 0.8508731908749817 0.7204670543884355 0 0.8322079224094654 0.7370553254396865 0 0.813543758243963 0.7536412337842737 0 0.7948797379891946 0.7702241807135084 0 0.7762152082973186 0.7868036649031503 0 0.7575585731410007 0.8033765025300381 0 0.7388977635789535 0.8199492723699466 0 0.7202461892855307 0.8365202795431178 0 0.7015937985717031 0.853100231840578 0 0.6829172568852722 0.8696715821392436 0 0.6642578482225396 0.8862564922687696 0 0.645596216359719 0.902797387877494 0 0.6269254442745065 0.9194273030213035 0 0.608248800364631 0.9360151305494228 0 0.5898183772612799 0.9515220972551015 0 0.5723240506519374 0.9618223826239241 0 0.934737104484154 0.6808016589801904 0 1 0.6499999999990784 0 0.9754473838228733 0.6627066425473708 0 0.03354440105454379 0.8754414881128383 0 0.04924277196120186 0.8849435585446356 0 0.01989504304687788 0.888281616542506 0 0.3625307347035507 0.9790578192483368 0 0.5000000000020587 1 0 0.5626423181488592 0.979180453582676 0 0.9122714217069425 0.6955943195252896 0 0.9594290170779416 0.6797290205629724 0 0.07192628482908667 0.892963523787434 0 0.09554863702873637 0.9008236890336012 0 0.1190274715255467 0.9087119103622153 0 0.1423686510308664 0.9166998529474855 0 0 0.9007407407410539 0 0.1655237438408506 0.9248133694185401 0 0.1889217108574864 0.932716529098903 0 0.2129816603145376 0.9397370674081864 0 0.2362495506313334 0.9484885495401602 0 0.2774321832978264 0.957026616121568 0 0.300087269803996 0.9648181346174542 0 0.3376847128895314 0.9789813219938279 0 0.3750000000015603 1 0 0.4000000000016644 1 0 0.4250000000017684 1 0 0.4500000000018723 1 0 0.4750000000019764 1 0 0.5250000000019071 1 0 0.5500000000017335 1 0 0.8932406709472689 0.7117279148403927 0 0.8745694406072638 0.7283380902324914 0 0.8559025396519228 0.7449269894472681 0 0.837235348314804 0.7615118766610842 0 0.8185714391990558 0.7780967280124951 0 0.7999049109771239 0.7946792791683643 0 0.7812345206137096 0.8112613823940367 0 0.7625707610710051 0.8278343259961393 0 0.7439137921363927 0.8444079944861416 0 0.7252655030627194 0.8609837249434402 0 0.706594488310059 0.8775549054037276 0 0.6879136268544929 0.8941394164262114 0 0.6692620620454082 0.9106863572398884 0 0.6506773244290274 0.9270817877030002 0 0.6323996959861182 0.9425581346183187 0 0.6154416680630288 0.9613802606283416 0 0.5882266297807763 0.9775910734962301 0 0.9323631008275637 0.7052440085287346 0 0.9556622308188826 0.7024818394621203 0 1 0.6749999999991443 0 0.9788044805711458 0.6882878970113018 0 0.03616082106312449 0.8991606485063355 0 0.05535260426139957 0.9091817809746422 0 0.02048860481955905 0.9130243964976872 0 0.2542360000606473 0.9591454860375523 0 0.312656379876748 0.9796327498855463 0 0.3500000000014564 1 0 0.5750000000015603 1 0 0.9168947122759913 0.7197372546779693 0 0.07693002842642371 0.917359525843903 0 0.1005687386392864 0.9252283173153746 0 0.1242363762282368 0.9330843419612349 0 0.1469305956698863 0.9401602037102973 0 0 0.9255555555557314 0 0.1701760425627227 0.9473224902455466 0 0.1944669342036632 0.9575483269920848 0 0.2188233490931837 0.9597407040454566 0 0.236954073546028 0.9750043147723964 0 0.2632059999326509 0.9787595090613923 0 0.2876432289751553 0.9800998404127301 0 0.3250000000013522 1 0 0.8982868144832454 0.7362927081142046 0 0.8796045827087077 0.7527848205034331 0 0.8609312289907329 0.7693769141696842 0 0.8422681643821882 0.7859645592246585 0 0.82360032841777 0.8025543695908659 0 0.8049301797686055 0.8191381335784083 0 0.7862515569452764 0.835725350144819 0 0.7675738733119485 0.8523091266658938 0 0.7489383597485059 0.8688851538140726 0 0.7302624243045247 0.8854625528333693 0 0.7115802215234235 0.9020429637643508 0 0.6928870756619284 0.9186342859550657 0 0.6739181690774918 0.9343119035934653 0 0.6558464245866678 0.9496938747930055 0 0.6396385028359762 0.9606977949823825 0 0.6125011624164099 0.9837659019639612 0 0.6000000000013869 1 0 0.9422500348518479 0.7276049699981031 0 0.9792287127636821 0.7126313223765952 0 1 0.69999999999921 0 0.03844150123516485 0.9240910503657039 0 0.0590454822323491 0.9336156757830225 0 0.01980868686819351 0.9378827813639277 0 0.3000000000012483 1 0 0.6338375142356439 0.979858175695234 0 0.9220723260656665 0.7444493038458219 0 0.9637160826647106 0.7254588490098435 0 0.08231180193789812 0.9406370426761783 0 0.106347889952416 0.9490329276239633 0 0.1295789816352193 0.9572013610994821 0 0.1526392646682543 0.9617809366000927 0 0 0.9503703703705487 0 0.1751676162955255 0.9660941309669955 0 0.2105581120318907 0.9791514003032026 0 0.2500000000010403 1 0 0.2750000000011442 1 0 0.9033391542945752 0.7607188645851191 0 0.8846485810464095 0.7772462152011036 0 0.8659768496226472 0.7938192232982606 0 0.8473014206242375 0.8104276816442655 0 0.8286302923670088 0.8270156526983861 0 0.8099554019392907 0.8436033849322691 0 0.7912783901761431 0.8601912371355455 0 0.7726082678563737 0.8767781441390849 0 0.7539413172360896 0.8933585971369442 0 0.735254655946351 0.9099499719376813 0 0.7165598701263948 0.9265518468466896 0 0.6971582987290833 0.942014848942291 0 0.6780589084576136 0.9575839248166665 0 0.6604280840451401 0.9752242958410899 0 0.6250000000012135 1 0 0.9605575770858703 0.7414900853829955 0 0.9460736412686895 0.7543866079083467 0 1 0.724999999999276 0 0.9783493649053321 0.7374999999993094 0 0.03977368991005897 0.9501009268338954 0 0.06391854309479393 0.9590290071274852 0 0.01938134303210228 0.9621452986073822 0 0.1869379492751733 0.9802561058451058 0 0.2250000000009362 1 0 0.6500000000010401 1 0 0.9270939104672534 0.7685397490232783 0 0.0892100061685247 0.9593765230451494 0 0.1101981146393371 0.9749888975668901 0 0.1378394971796655 0.9790826025454146 0 0.1625601080808701 0.9804655500166211 0 0 0.9751851851852422 0 0.2000000000008322 1 0 0.908367206300181 0.7850937273814451 0 0.8896724643616134 0.8016837412686796 0 0.8710095688206395 0.8182918049394904 0 0.8523346373190599 0.8348908428960005 0 0.833659474116653 0.8514815193596421 0 0.8149841850920198 0.8680699418025566 0 0.7963067584478543 0.8846602522761958 0 0.7776287284519191 0.9012506570356166 0 0.7589526775259645 0.9178416417639955 0 0.7402709404913043 0.9344356504820477 0 0.7221320089777292 0.9545919696673464 0 0.6999998737602781 0.9629026132972568 0 0.6874998526486905 0.9783494499793081 0 0.6750000000008667 1 0 0.9723987617387713 0.7624999999993753 0 0.9511512253670986 0.7767767886168389 0 1 0.7499999999993417 0 0.03865046829144668 0.9773366052353089 0 0.08374992471769123 0.9795104246909145 0 0.01805521312291457 0.9819959226553715 0 0.1750000000007281 1 0 0.9319664786549031 0.792841631083439 0 0.1250000000005201 1 0 0.1500000000006241 1 0 0.0622637872208904 0.9831752074107417 0 0 1 0 0.9133158576105505 0.8094761078602813 0 0.8947214722250941 0.8261708052038573 0 0.8760431834715185 0.8427669110103704 0 0.8573655960289002 0.8593607298018158 0 0.8386885928254116 0.8759484859831972 0 0.8200156942657687 0.8925285908329816 0 0.8013621073538839 0.9090453521394641 0 0.7829865157888238 0.9240238958915669 0 0.765567288845252 0.9397820229680001 0 0.7509350797360043 0.9572692101405527 0 0.7125000000006065 0.9783493649055393 0 0.7000000000006934 1 0 0.9776291595009881 0.7875380515276744 0 1 0.7749999999994076 0 0.9561619377115562 0.8016247214406151 0 0.100000000000416 1 0 0.05000000000020799 1 0 0.02500000000010405 1 0 0.07500000000031215 1 0 0.7373728002825997 0.9797457966742749 0 0.936501768568726 0.8167601470307382 0 0.9179198229085419 0.8334700925866981 0 0.8997545628036985 0.850646150514148 0 0.8810748357760607 0.8672409377778467 0 0.8623949756234002 0.8838346161837048 0 0.8437145735550087 0.9004276213555383 0 0.8250690499201967 0.9169161840051478 0 0.8066312769403667 0.9360687629678172 0 0.787877567405636 0.9431430579458403 0 0.7763840592035564 0.9592015607820013 0 0.7623386951329825 0.979113923742874 0 0.7250000000005199 1 0 0.9785045479397869 0.813272731266268 0 1 0.7999999999994734 0 0.9578471192075504 0.8261727904711519 0 0.7500000000003466 1 0 0.9391128527136925 0.8403434994693112 0 0.9220365280160845 0.8571983502841284 0 0.9045500207971511 0.8749002582797889 0 0.886106788782708 0.8917166463959966 0 0.8674239965032453 0.9083123153430144 0 0.8487409039285756 0.9249085076766184 0 0.8300502952676565 0.941506388529801 0 0.7988740897752287 0.9585094594659177 0 0.7879965183082089 0.9787583886857587 0 0.7750000000001732 1 0 1 0.8249999999995392 0 0.9788637986048095 0.8379581758187318 0 0.9583083698274745 0.8505032137891103 0 0.8201993130711416 0.9593370027969825 0 0.9420106583123118 0.861984592576875 0 0.932272895769898 0.8823819684245983 0 0.9098224078672256 0.8995969187648785 0 0.8911388419334254 0.9161948069347212 0 0.8724544057399206 0.9327926566294283 0 0.8545858659566004 0.9502129051909997 0 0.837499999999744 0.9700914849871917 0 0.8122917238383637 0.9781055606954954 0 0.7999999999999998 1 0 1 0.8499999999996051 0 0.9785227546540463 0.8628003193867176 0 0.9566987308811586 0.8749999999996693 0 0.933540990258774 0.9074780711296373 0 0.9148558428993067 0.9240777970427465 0 0.8959904604396117 0.9397747407701227 0 0.8784853701953227 0.9569978691521464 0 0.8632446788495237 0.9766771819578199 0 0.8249999999998263 1 0 0.9559309085209713 0.898711103850057 0 1 0.8749999999996708 0 0.9781530512229279 0.8880930545417838 0 0.8499999999996529 1 0 0.9382926456802405 0.9328115065652157 0 0.9544298726402942 0.9196756121555638 0 0.9196554759548007 0.9469137389282831 0 0.9033970037405431 0.9616579055256818 0 0.8880972945692732 0.9794009325041808 0 0.8749999999995011 1 0 0.9766321162560174 0.9157580083356738 0 1 0.8999999999997368 0 0.9438287412875873 0.9571755573468378 0 0.9622966325533394 0.9398438882569635 0 0.9250191183149887 0.965686669358203 0 0.9125008924568141 0.9810589679817073 0 0.8999999999995836 1 0 1 0.9249999999998024 0 0.9835192958639845 0.938104386090405 0 0.9615520967513288 0.9584733171828812 0 0.936713981574347 0.9800001555686662 0 0.9786677305105652 0.9599200338597171 0 0.9249999999996876 1 0 1 0.9499999999998684 0 0.9614152826538228 0.9769537892680058 0 0.9499999999997918 1 0 1 0.9749999999999343 0 0.9818260183860712 0.981826018386081 0 0.9749999999998958 1 0 1 1 0 </DataArray>
      </Points>
      <Cells>
        <DataArray type="Int32" Name="connectivity" format="ascii">0 1 2 1 3 2 4 0 2 3 5 2 6 0 4 5 4 2 3 7 5 6 4 8 9 4 5 7 10 5 7 11 10 12 6 8 8 4 13 4 9 13 10 9 5 10 11 14 11 15 14 16 12 8 17 8 13 9 18 13 10 19 9 10 14 19 15 20 14 21 12 16 17 16 8 18 17 13 19 18 9 19 14 22 15 23 20 14 20 22 21 16 24 16 17 25 18 26 17 27 18 19 28 19 22 20 23 29 20 30 22 31 21 24 24 16 25 17 32 25 27 26 18 17 26 32 28 27 19 30 28 22 23 33 29 20 29 30 31 24 34 35 24 25 32 35 25 27 36 26 32 26 37 38 27 28 39 28 30 29 33 40 29 41 30 33 42 40 43 31 34 24 44 34 35 44 24 45 35 32 38 36 27 26 36 37 45 32 37 38 28 39 41 39 30 46 29 40 46 41 29 42 47 40 48 43 34 34 44 49 35 50 44 45 50 35 38 51 36 37 36 52 45 37 53 54 38 39 41 55 39 47 46 40 56 41 46 42 57 47 58 43 48 48 34 49 44 59 49 44 50 59 60 50 45 54 51 38 36 51 52 53 37 52 60 45 53 55 54 39 56 55 41 46 47 61 56 46 61 47 57 62 57 63 62 58 48 64 65 48 49 59 65 49 50 66 59 60 66 50 67 51 54 51 68 52 69 53 52 70 60 53 71 54 55 72 55 56 47 73 61 74 56 61 73 47 62 63 75 62 76 58 64 64 48 65 59 77 65 66 77 59 60 78 66 67 68 51 67 54 71 68 69 52 70 53 69 70 78 60 71 55 72 72 56 74 73 74 61 73 62 79 63 80 75 62 75 79 81 76 64 64 65 82 77 83 65 77 66 84 66 78 84 85 68 67 67 71 86 68 87 69 88 70 69 70 89 78 71 72 90 91 72 74 73 92 74 93 73 79 75 80 94 75 95 79 80 96 94 97 76 81 81 64 82 65 83 82 98 83 77 98 77 84 84 78 99 85 87 68 85 67 86 71 90 86 87 88 69 88 89 70 78 89 99 90 72 91 92 91 74 93 92 73 95 93 79 75 94 95 96 100 94 96 101 100 97 81 102 103 81 82 83 103 82 98 104 83 98 84 105 84 99 105 106 87 85 107 85 86 86 90 108 87 109 88 88 110 89 89 111 99 90 91 112 92 113 91 114 92 93 115 93 95 94 116 95 100 116 94 100 101 117 118 97 102 81 119 102 119 81 103 83 104 103 120 104 98 120 98 105 99 121 105 106 109 87 106 85 107 107 86 108 108 90 112 88 109 110 89 110 111 111 121 99 91 113 112 114 113 92 114 93 115 116 115 95 116 100 122 101 123 117 100 117 122 124 118 102 119 125 102 119 103 126 103 104 126 120 127 104 128 120 105 121 128 105 106 129 109 130 106 107 131 107 108 132 108 112 110 109 133 111 110 134 111 135 121 113 136 112 114 137 113 138 114 115 116 139 115 140 116 122 123 141 117 117 142 122 143 118 124 125 124 102 144 125 119 144 119 126 104 127 126 145 127 120 145 120 128 128 121 146 130 129 106 109 129 133 131 130 107 132 131 108 136 132 112 134 110 133 111 134 135 121 135 146 113 137 136 138 137 114 139 138 115 140 139 116 142 140 122 123 147 141 141 142 117 143 124 148 149 124 125 150 125 144 151 144 126 127 151 126 152 127 145 145 128 153 153 128 146 130 154 129 133 129 155 156 130 131 157 131 132 158 132 136 159 134 133 135 134 160 135 161 146 136 137 162 138 163 137 164 138 139 165 139 140 166 140 142 141 147 167 141 168 142 169 143 148 148 124 149 149 125 150 150 144 170 170 144 151 152 151 127 152 145 171 145 153 171 153 146 172 156 154 130 129 154 155 159 133 155 156 131 157 157 132 158 158 136 162 160 134 159 161 135 160 146 161 172 137 163 162 164 163 138 164 139 165 165 140 166 168 166 142 147 173 167 141 167 174 168 141 174 175 169 148 148 149 176 149 150 177 150 170 178 170 151 179 179 151 152 180 152 171 171 153 181 181 153 172 182 154 156 154 183 155 184 159 155 156 157 185 157 158 186 158 162 187 188 160 159 189 161 160 161 190 172 163 191 162 192 163 164 164 165 193 165 166 194 168 195 166 167 173 196 167 197 174 198 168 174 173 199 196 199 200 201 202 169 175 175 148 176 149 177 176 177 150 178 170 203 178 170 179 203 179 152 180 204 180 171 204 171 181 205 181 172 182 183 154 182 156 185 183 184 155 184 188 159 185 157 186 186 158 187 162 191 187 188 189 160 189 190 161 190 205 172 192 191 163 192 164 193 165 194 193 166 195 194 198 195 168 197 167 196 197 198 174 199 201 196 201 200 206 200 207 206 202 175 208 175 176 209 176 177 210 177 178 211 203 212 178 179 213 203 179 180 213 214 180 204 215 204 181 205 215 181 182 216 183 217 182 185 183 218 184 184 219 188 220 185 186 221 186 187 191 222 187 188 223 189 189 224 190 190 225 205 192 226 191 227 192 193 194 228 193 194 195 229 198 230 195 231 197 196 232 198 197 201 231 196 201 206 233 207 234 206 207 235 234 236 237 238 239 236 238 240 236 239 235 240 241 242 202 208 208 175 209 176 210 209 210 177 211 178 212 211 243 212 203 213 243 203 213 180 214 214 204 244 244 204 215 205 245 215 217 216 182 183 216 218 220 217 185 184 218 219 188 219 223 221 220 186 222 221 187 191 226 222 189 223 224 190 224 225 205 225 245 227 226 192 228 227 193 228 194 229 195 230 229 232 230 198 232 197 231 231 201 233 206 246 233 206 234 246 234 235 241 238 237 247 239 238 248 240 239 241 237 249 247 249 250 251 252 242 208 253 208 209 210 254 209 255 210 211 212 256 211 257 212 243 243 213 258 213 214 258 214 244 259 260 244 215 245 260 215 217 261 216 218 216 262 263 217 220 219 218 264 223 219 265 221 266 220 267 221 222 226 268 222 224 223 269 225 224 270 245 225 271 272 226 227 273 227 228 274 228 229 230 275 229 276 230 232 232 231 277 278 231 233 246 278 233 234 279 246 279 234 241 280 238 247 241 239 248 238 281 248 249 251 247 251 250 282 250 283 282 283 284 285 286 242 252 252 208 287 208 253 287 254 253 209 254 210 255 256 255 211 257 256 212 288 257 243 288 243 258 214 259 258 259 244 289 289 244 260 260 245 290 263 261 217 216 261 262 218 262 264 266 263 220 265 219 264 223 265 269 267 266 221 268 267 222 272 268 226 224 269 270 271 225 270 245 271 290 272 227 273 273 228 274 275 274 229 276 275 230 276 232 277 231 278 277 291 278 246 279 291 246 292 279 241 280 281 238 251 280 247 292 241 248 281 293 248 294 251 282 283 285 282 285 284 295 284 296 295 286 252 297 298 252 287 253 299 287 254 300 253 301 254 255 256 302 255 303 256 257 304 257 288 288 258 305 258 259 305 259 289 306 289 260 307 307 260 290 263 308 261 261 309 262 262 310 264 311 263 266 312 265 264 265 313 269 314 266 267 315 267 268 316 268 272 269 317 270 318 271 270 271 319 290 272 273 320 273 274 321 322 274 275 323 275 276 324 276 277 278 325 277 291 325 278 326 291 279 326 279 292 281 280 327 251 328 280 293 292 248 329 293 281 328 251 294 285 294 282 330 285 295 296 331 295 332 286 297 297 252 298 299 298 287 253 300 299 301 300 254 302 301 255 303 302 256 303 257 304 304 288 333 333 288 305 305 259 306 289 334 306 289 307 334 335 307 290 311 308 263 261 308 309 309 310 262 310 312 264 311 266 314 265 312 313 313 317 269 314 267 315 315 268 316 316 272 320 317 318 270 318 319 271 319 335 290 273 321 320 321 274 322 322 275 323 323 276 324 325 324 277 336 325 291 336 291 326 337 326 292 280 328 327 329 281 327 293 337 292 329 338 293 339 328 294 285 340 294 340 285 330 331 330 295 341 332 297 342 297 298 299 343 298 300 344 299 301 345 300 302 346 301 347 302 303 303 304 348 349 304 333 350 333 305 350 305 306 334 351 306 334 307 352 352 307 335 353 308 311 308 354 309 310 309 355 356 312 310 311 314 357 312 358 313 317 313 359 314 315 360 315 316 361 362 316 320 363 318 317 364 319 318 365 335 319 320 321 366 321 322 367 322 323 368 323 324 369 370 324 325 370 325 336 336 326 371 326 337 371 328 372 327 329 327 373 338 337 293 374 338 329 339 372 328 340 339 294 375 340 330 331 376 330 377 332 341 342 341 297 343 342 298 344 343 299 300 345 344 301 346 345 347 346 302 347 303 348 304 349 348 378 349 333 350 378 333 351 350 306 351 334 379 334 352 379 352 335 380 353 354 308 353 311 357 309 354 355 356 310 355 356 358 312 314 360 357 313 358 359 363 317 359 315 361 360 361 316 362 362 320 366 364 318 363 365 319 364 380 335 365 321 367 366 367 322 368 323 369 368 369 324 370 370 336 381 336 371 381 337 382 371 327 372 373 374 329 373 338 382 337 374 383 338 339 384 372 340 385 339 375 385 340 376 375 330 386 377 341 342 387 341 343 388 342 344 389 343 344 345 390 345 346 391 347 392 346 393 347 348 349 394 348 378 395 349 396 378 350 396 350 351 397 351 379 352 398 379 352 380 398 399 354 353 400 353 357 354 401 355 402 356 355 356 403 358 357 360 404 358 405 359 406 363 359 361 407 360 361 362 408 409 362 366 364 363 410 365 364 411 380 365 412 366 367 413 367 368 414 369 415 368 369 370 416 416 370 381 381 371 417 371 382 417 372 418 373 418 374 373 338 383 382 419 383 374 339 385 384 372 384 420 375 421 385 376 422 375 423 377 386 386 341 424 342 388 387 341 387 424 343 389 388 344 390 389 390 345 391 346 392 391 393 392 347 394 393 348 395 394 349 425 395 378 425 378 396 397 396 351 426 397 379 398 426 379 398 380 427 399 401 354 399 353 400 400 357 404 401 402 355 402 403 356 358 403 405 360 407 404 405 406 359 410 363 406 361 408 407 408 362 409 409 366 413 364 410 411 412 365 411 427 380 412 413 367 414 368 415 414 369 416 415 428 416 381 428 381 417 382 429 417 418 372 420 419 374 418 382 383 429 419 430 383 384 385 431 384 432 420 375 422 421 385 421 431 423 386 433 434 386 424 387 388 435 387 436 424 388 389 437 389 390 438 439 390 391 391 392 440 393 441 392 442 393 394 395 443 394 444 395 425 425 396 445 445 396 397 446 397 426 398 447 426 398 427 447 399 448 401 449 399 400 450 400 404 401 451 402 402 452 403 403 453 405 404 407 454 455 406 405 410 406 456 407 408 457 408 409 458 459 409 413 411 410 460 461 412 411 462 427 412 463 413 414 414 415 464 415 416 465 465 416 428 466 428 417 429 466 417 467 418 420 419 418 467 383 430 429 468 430 419 432 384 431 432 469 420 422 470 421 421 471 431 472 423 433 433 386 434 436 434 424 435 388 437 387 435 436 389 438 437 438 390 439 439 391 440 392 441 440 442 441 393 443 442 394 444 443 395 444 425 473 425 445 473 445 397 446 474 446 426 447 474 426 447 427 475 449 448 399 401 448 451 450 449 400 450 404 454 402 451 452 403 452 453 453 455 405 407 457 454 456 406 455 410 456 460 457 408 458 409 459 458 463 459 413 461 411 460 461 462 412 475 427 462 463 414 464 415 465 464 465 428 476 428 466 476 477 466 429 469 467 420 468 419 467 430 477 429 478 430 468 432 431 479 480 469 432 470 471 421 431 471 479 481 472 433 482 433 434 434 436 483 484 435 437 436 435 485 438 486 437 438 439 487 439 440 488 441 489 440 490 441 442 491 442 443 492 443 444 493 444 473 473 445 494 445 446 494 446 474 495 447 496 474 447 475 496 449 497 448 451 448 498 499 449 450 500 450 454 452 451 501 453 452 502 453 503 455 457 504 454 456 455 505 456 506 460 507 457 458 459 508 458 463 509 459 510 461 460 511 462 461 475 462 512 513 463 464 465 514 464 514 465 476 466 515 476 477 515 466 469 516 467 516 468 467 478 477 430 478 468 517 480 432 479 480 518 469 470 519 471 471 520 479 521 472 481 481 433 482 482 434 483 483 436 522 435 484 485 486 484 437 522 436 485 486 438 487 487 439 488 440 489 488 490 489 441 490 442 491 491 443 492 492 444 493 523 493 473 523 473 494 446 495 494 495 474 524 474 496 524 496 475 525 499 497 449 448 497 498 451 498 501 499 450 500 504 500 454 502 452 501 453 502 503 455 503 505 457 507 504 506 456 505 506 510 460 508 507 458 459 509 508 513 509 463 510 511 461 462 511 512 525 475 512 514 513 464 526 514 476 515 526 476 527 515 477 469 518 516 468 516 517 527 477 478 528 478 517 520 480 479 529 518 480 471 519 520 521 481 530 481 482 531 482 483 532 533 483 522 484 534 485 486 535 484 534 522 485 536 486 487 537 487 488 489 538 488 539 489 490 490 491 540 491 492 541 492 493 542 543 493 523 523 494 544 494 495 544 495 524 545 496 546 524 496 525 546 499 547 497 497 548 498 501 498 549 550 499 500 551 500 504 552 502 501 503 502 553 503 554 505 507 555 504 556 506 505 557 510 506 558 507 508 509 559 508 513 560 509 510 561 511 511 562 512 563 525 512 564 513 514 526 564 514 565 526 515 565 515 527 518 566 516 516 566 517 527 478 528 567 528 517 529 480 520 568 518 529 519 569 520 570 521 530 481 571 530 571 481 531 482 532 531 483 533 532 533 522 572 535 534 484 536 535 486 522 534 572 537 536 487 538 537 488 539 538 489 539 490 540 491 541 540 492 542 541 542 493 543 543 523 573 573 523 544 544 495 545 524 574 545 524 546 574 546 525 575 550 547 499 497 547 548 498 548 549 552 501 549 551 550 500 555 551 504 553 502 552 503 553 554 554 556 505 558 555 507 556 557 506 557 561 510 559 558 508 560 559 509 564 560 513 561 562 511 562 563 512 575 525 563 576 564 526 576 526 565 565 527 577 568 566 518 566 567 517 527 528 577 528 567 578 529 520 579 568 529 580 520 569 579 581 570 530 571 581 530 582 571 531 532 582 531 532 533 583 584 533 572 535 585 534 536 586 535 534 587 572 537 588 536 538 589 537 590 538 539 591 539 540 540 541 592 542 593 541 542 543 594 595 543 573 596 573 544 596 544 545 574 597 545 546 598 574 546 575 598 599 547 550 547 600 548 548 601 549 602 552 549 603 550 551 604 551 555 553 552 605 554 553 606 554 607 556 608 555 558 556 609 557 557 610 561 611 558 559 612 559 560 613 560 564 561 614 562 562 615 563 616 575 563 613 564 576 576 565 617 617 565 577 568 618 566 566 618 567 577 528 578 567 619 578 620 529 579 621 568 580 529 620 580 569 622 579 623 581 571 582 623 571 582 532 583 533 624 583 584 624 533 587 584 572 535 586 585 534 585 587 536 588 586 537 589 588 590 589 538 590 539 591 591 540 592 541 593 592 542 594 593 594 543 595 625 595 573 596 625 573 597 596 545 626 597 574 598 626 574 598 575 627 599 600 547 599 550 603 600 601 548 601 602 549 552 602 605 603 551 604 604 555 608 606 553 605 554 606 607 556 607 609 608 558 611 557 609 610 561 610 614 611 559 612 612 560 613 614 615 562 615 616 563 627 575 616 613 576 628 628 576 617 629 617 577 621 618 568 618 619 567 629 577 578 619 630 578 622 620 579 621 580 631 580 620 631 632 623 582 633 582 583 624 633 583 584 634 624 635 584 587 585 586 636 585 637 587 586 588 638 588 589 639 590 640 589 641 590 591 642 591 592 592 593 643 593 594 644 594 595 645 646 595 625 647 625 596 647 596 597 626 648 597 598 649 626 598 627 649 650 600 599 599 603 651 600 652 601 601 653 602 605 602 654 603 604 655 604 608 656 657 606 605 607 606 658 609 607 659 608 611 660 610 609 661 614 610 662 611 612 663 612 613 664 615 614 665 666 616 615 627 616 667 613 628 664 668 628 617 629 668 617 669 618 621 669 619 618 630 629 578 619 670 630 622 671 620 672 621 631 620 673 631 632 582 633 624 674 633 635 634 584 634 674 624 637 635 587 636 586 638 585 636 637 588 639 638 589 640 639 641 640 590 642 641 591 642 592 643 593 644 643 594 645 644 645 595 646 646 625 675 625 647 675 648 647 597 626 676 648 626 649 676 649 627 677 650 652 600 650 599 651 603 655 651 652 653 601 602 653 654 657 605 654 655 604 656 608 660 656 658 606 657 607 658 659 661 609 659 660 611 663 610 661 662 665 614 662 663 612 664 666 615 665 667 616 666 627 667 677 664 628 678 628 668 678 679 668 629 669 621 672 669 670 619 679 629 630 670 680 630 620 671 673 673 672 631 681 632 633 674 681 633 635 682 634 674 634 683 637 684 635 685 636 638 637 636 686 638 639 687 640 688 639 641 689 640 690 641 642 691 642 643 643 644 692 645 693 644 645 646 694 646 675 695 647 696 675 648 696 647 648 676 697 676 649 698 698 649 677 699 652 650 700 650 651 651 655 701 652 702 653 653 703 654 704 657 654 705 655 656 656 660 706 707 658 657 658 708 659 709 661 659 710 660 663 661 711 662 665 662 712 713 663 664 714 666 665 667 666 715 667 716 677 713 664 678 668 717 678 679 717 668 718 669 672 718 670 669 680 679 630 719 680 670 671 720 673 673 721 672 722 681 674 635 684 682 634 682 683 674 683 723 637 686 684 686 636 685 685 638 687 639 688 687 640 689 688 690 689 641 691 690 642 691 643 692 644 693 692 645 694 693 694 646 695 675 724 695 696 724 675 648 697 696 697 676 725 676 698 725 698 677 726 699 702 652 699 650 700 700 651 701 655 705 701 653 702 703 703 704 654 704 707 657 705 656 706 660 710 706 708 658 707 708 709 659 711 661 709 713 710 663 662 711 712 714 665 712 715 666 714 667 715 716 677 716 726 727 713 678 717 727 678 679 728 717 729 718 672 719 670 718 680 728 679 730 680 719 720 721 673 721 729 672 722 674 723 682 684 731 683 682 732 683 733 723 684 686 734 686 685 735 736 685 687 688 737 687 689 738 688 690 739 689 740 690 691 741 691 692 693 742 692 693 694 743 744 694 695 724 745 695 696 746 724 696 697 746 697 725 747 698 748 725 748 698 726 749 702 699 699 700 750 751 700 701 705 752 701 702 753 703 754 704 703 704 755 707 756 705 706 710 757 706 758 708 707 708 759 709 760 711 709 713 761 710 711 762 712 763 714 712 715 714 764 716 715 765 716 766 726 727 761 713 727 717 767 717 728 767 768 718 729 719 718 768 730 728 680 730 719 769 720 770 721 729 721 771 772 722 723 684 734 731 732 682 731 683 732 733 733 772 723 734 686 735 685 736 735 737 736 687 738 737 688 689 739 738 740 739 690 740 691 741 742 741 692 742 693 743 694 744 743 745 744 695 724 773 745 724 746 773 746 697 747 725 774 747 748 774 725 775 748 726 749 753 702 749 699 750 700 751 750 752 751 701 756 752 705 753 754 703 754 755 704 755 758 707 757 756 706 761 757 710 758 759 708 759 760 709 760 762 711 762 763 712 764 714 763 715 764 765 766 716 765 766 775 726 776 761 727 776 727 767 728 777 767 768 729 778 719 768 769 730 777 728 779 730 769 721 770 771 729 771 778 734 780 731 732 731 781 732 782 733 783 772 733 784 734 735 736 785 735 786 736 737 737 738 787 738 739 788 740 789 739 790 740 741 791 741 742 792 742 743 744 793 743 745 794 744 745 773 795 773 746 796 796 746 747 747 774 797 798 774 748 775 798 748 799 753 749 800 749 750 751 801 750 752 802 751 756 803 752 804 754 753 805 755 754 806 758 755 757 807 756 761 808 757 809 759 758 810 760 759 811 762 760 812 763 762 764 763 813 764 814 765 815 766 765 816 775 766 776 808 761 817 776 767 777 817 767 818 768 778 769 768 818 779 777 730 819 779 769 770 820 771 771 821 778 734 784 780 731 780 781 782 732 781 782 783 733 785 784 735 786 785 736 786 737 787 787 738 788 739 789 788 790 789 740 791 790 741 792 791 742 793 792 743 744 794 793 745 795 794 795 773 822 773 796 822 796 747 797 774 823 797 798 823 774 824 798 775 804 753 799 799 749 800 801 800 750 751 802 801 752 803 802 756 807 803 805 754 804 806 755 805 809 758 806 757 808 807 810 759 809 811 760 810 812 762 811 813 763 812 764 813 814 814 815 765 815 816 766 824 775 816 776 825 808 817 825 776 826 817 777 818 778 827 819 769 818 826 777 779 828 779 819 820 821 771 778 821 827 784 829 780 780 830 781 831 782 781 832 783 782 785 833 784 834 785 786 786 787 835 787 788 836 788 789 837 790 838 789 839 790 791 792 840 791 841 792 793 794 842 793 794 795 843 844 795 822 822 796 845 845 796 797 797 823 846 798 847 823 824 847 798 804 799 848 799 800 849 850 800 801 801 802 851 803 852 802 803 807 853 805 804 854 806 805 855 809 806 856 807 808 857 810 809 858 811 810 859 812 811 860 813 812 861 814 813 862 814 863 815 816 815 864 865 824 816 808 825 857 866 825 817 866 817 826 867 818 827 867 819 818 826 779 828 828 819 868 820 869 821 821 870 827 784 833 829 780 829 830 830 831 781 832 782 831 834 833 785 834 786 835 835 787 836 788 837 836 789 838 837 839 838 790 840 839 791 841 840 792 842 841 793 794 843 842 843 795 844 871 844 822 871 822 845 845 797 846 823 872 846 847 872 823 873 847 824 804 848 854 848 799 849 800 850 849 850 801 851 802 852 851 852 803 853 853 807 857 855 805 854 856 806 855 809 856 858 859 810 858 860 811 859 812 860 861 862 813 861 814 862 863 815 863 864 865 816 864 873 824 865 825 874 857 866 874 825 866 826 875 867 827 876 868 819 867 826 828 875 828 868 877 821 869 870 827 870 876 829 833 878 830 829 879 830 880 831 881 832 831 834 882 833 883 834 835 884 835 836 837 885 836 838 886 837 839 887 838 840 888 839 841 889 840 842 890 841 842 843 891 892 843 844 871 893 844 894 871 845 894 845 846 846 872 895 847 896 872 873 896 847 854 848 897 898 848 849 850 899 849 900 850 851 852 901 851 902 852 853 903 853 857 904 855 854 905 856 855 858 856 906 907 859 858 908 860 859 861 860 909 910 862 861 863 862 911 863 912 864 913 865 864 873 865 914 874 903 857 915 874 866 915 866 875 916 867 876 868 867 916 875 828 877 877 868 917 869 918 870 870 919 876 833 882 878 879 829 878 880 830 879 880 881 831 883 882 834 884 883 835 885 884 836 886 885 837 838 887 886 839 888 887 840 889 888 841 890 889 842 891 890 891 843 892 893 892 844 871 920 893 894 920 871 894 846 895 872 921 895 872 896 921 922 896 873 848 898 897 904 854 897 899 898 849 900 899 850 901 900 851 902 901 852 902 853 903 904 905 855 856 905 906 907 858 906 907 908 859 860 908 909 910 861 909 911 862 910 863 911 912 912 913 864 914 865 913 922 873 914 874 923 903 915 923 874 924 915 875 919 916 876 868 916 917 924 875 877 925 877 917 918 919 870 882 926 878 927 879 878 880 879 928 929 881 880 883 930 882 884 931 883 932 884 885 886 933 885 886 887 934 887 888 935 888 889 936 889 890 937 890 891 938 891 892 939 940 892 893 920 941 893 942 920 894 942 894 895 895 921 943 896 944 921 922 944 896 898 945 897 946 904 897 899 947 898 900 948 899 901 949 900 902 950 901 951 902 903 952 905 904 905 953 906 954 907 906 907 955 908 908 956 909 957 910 909 911 910 958 912 911 959 912 960 913 961 914 913 962 922 914 923 951 903 963 923 915 963 915 924 916 919 964 916 965 917 925 924 877 925 917 966 918 967 919 882 930 926 926 927 878 879 927 928 968 880 928 929 880 968 883 931 930 932 931 884 933 932 885 886 934 933 934 887 935 888 936 935 936 889 937 890 938 937 891 939 938 939 892 940 941 940 893 969 941 920 969 920 942 942 895 943 921 970 943 944 970 921 922 971 944 947 945 898 945 946 897 952 904 946 899 948 947 900 949 948 901 950 949 951 950 902 952 953 905 953 954 906 954 955 907 955 956 908 956 957 909 910 957 958 959 911 958 912 959 960 960 961 913 961 962 914 962 971 922 972 951 923 972 923 963 963 924 973 919 967 964 916 964 965 917 965 966 973 924 925 974 925 966 926 930 975 926 976 927 927 977 928 977 968 928 978 929 968 930 931 979 932 980 931 933 981 932 933 934 982 983 934 935 935 936 984 985 936 937 938 986 937 939 987 938 939 940 988 989 940 941 990 941 969 969 942 991 991 942 943 943 970 992 944 993 970 944 971 993 994 945 947 945 995 946 996 952 946 947 948 997 948 949 998 949 950 999 951 1000 950 952 1001 953 1002 954 953 954 1003 955 955 1004 956 956 1005 957 957 1006 958 1007 959 958 960 959 1008 960 1009 961 961 1010 962 962 1011 971 972 1000 951 972 963 1012 963 973 1012 967 1013 964 965 964 1014 965 1015 966 973 925 974 1015 974 966 975 930 979 926 975 976 927 976 977 1016 968 977 1016 978 968 931 980 979 932 981 980 933 982 981 982 934 983 983 935 984 936 985 984 986 985 937 987 986 938 939 988 987 988 940 989 989 941 990 990 969 1017 1017 969 991 991 943 992 970 1018 992 970 993 1018 993 971 1019 994 995 945 994 947 997 995 996 946 996 1001 952 997 948 998 949 999 998 950 1000 999 1001 1002 953 1002 1003 954 955 1003 1004 956 1004 1005 1005 1006 957 1006 1007 958 1008 959 1007 960 1008 1009 961 1009 1010 962 1010 1011 971 1011 1019 1020 1000 972 1020 972 1012 1012 973 1021 964 1013 1014 965 1014 1015 1021 973 974 974 1015 1022 975 979 1023 976 975 1024 976 1025 977 1025 1016 977 1026 978 1016 980 1027 979 980 981 1028 981 982 1029 982 983 1030 1031 983 984 984 985 1032 986 1033 985 987 1034 986 987 988 1035 988 989 1036 989 990 1037 990 1017 1038 1039 1017 991 1039 991 992 992 1018 1040 1018 993 1041 993 1019 1041 994 1042 995 1043 994 997 995 1044 996 996 1045 1001 1046 997 998 999 1047 998 1000 1048 999 1001 1049 1002 1002 1050 1003 1004 1003 1051 1005 1004 1052 1006 1005 1053 1054 1007 1006 1008 1007 1055 1009 1008 1056 1010 1009 1057 1011 1010 1058 1011 1059 1019 1020 1048 1000 1060 1020 1012 1060 1012 1021 1013 1061 1014 1014 1062 1015 1063 1021 974 1015 1064 1022 1063 974 1022 1024 975 1023 979 1027 1023 976 1024 1025 1016 1025 1065 1026 1016 1065 980 1028 1027 1028 981 1029 982 1030 1029 1030 983 1031 1031 984 1032 985 1033 1032 986 1034 1033 987 1035 1034 1035 988 1036 989 1037 1036 990 1038 1037 1038 1017 1066 1066 1017 1039 1039 992 1040 1018 1067 1040 1067 1018 1041 1019 1068 1041 1043 1042 994 995 1042 1044 1043 997 1046 996 1044 1045 1001 1045 1049 1047 1046 998 1048 1047 999 1002 1049 1050 1003 1050 1051 1052 1004 1051 1005 1052 1053 1054 1006 1053 1055 1007 1054 1008 1055 1056 1009 1056 1057 1058 1010 1057 1011 1058 1059 1059 1068 1019 1069 1048 1020 1069 1020 1060 1070 1060 1021 1061 1062 1014 1015 1062 1064 1063 1070 1021 1022 1064 1071 1063 1022 1071 1072 1024 1023 1023 1027 1073 1025 1024 1074 1025 1074 1065 1075 1026 1065 1027 1028 1076 1077 1028 1029 1029 1030 1078 1030 1031 1079 1031 1032 1080 1033 1081 1032 1034 1082 1033 1034 1035 1083 1084 1035 1036 1037 1085 1036 1038 1086 1037 1038 1066 1087 1066 1039 1088 1039 1040 1088 1067 1089 1040 1090 1067 1041 1068 1090 1041 1043 1091 1042 1044 1042 1092 1093 1043 1046 1045 1044 1094 1049 1045 1095 1047 1096 1046 1097 1047 1048 1050 1049 1098 1050 1099 1051 1052 1051 1100 1052 1101 1053 1102 1054 1053 1055 1054 1103 1055 1104 1056 1057 1056 1105 1106 1058 1057 1059 1058 1107 1059 1108 1068 1097 1048 1069 1069 1060 1109 1109 1060 1070 1061 1110 1062 1064 1062 1111 1112 1070 1063 1064 1111 1071 1112 1063 1071 1074 1024 1072 1072 1023 1073 1027 1076 1073 1074 1113 1065 1113 1075 1065 1076 1028 1077 1077 1029 1078 1030 1079 1078 1079 1031 1080 1032 1081 1080 1082 1081 1033 1034 1083 1082 1083 1035 1084 1085 1084 1036 1086 1085 1037 1038 1087 1086 1087 1066 1114 1114 1066 1088 1040 1089 1088 1115 1089 1067 1090 1115 1067 1116 1090 1068 1093 1091 1043 1042 1091 1092 1044 1092 1094 1096 1093 1046 1095 1045 1094 1049 1095 1098 1097 1096 1047 1099 1050 1098 1051 1099 1100 1101 1052 1100 1101 1102 1053 1103 1054 1102 1055 1103 1104 1056 1104 1105 1106 1057 1105 1107 1058 1106 1059 1107 1108 1108 1116 1068 1097 1069 1117 1069 1109 1117 1109 1070 1118 1062 1110 1111 1118 1070 1112 1111 1119 1071 1119 1112 1071 1120 1074 1072 1121 1072 1073 1076 1122 1073 1120 1113 1074 1123 1075 1113 1076 1077 1124 1125 1077 1078 1078 1079 1126 1127 1079 1080 1081 1128 1080 1082 1129 1081 1082 1083 1130 1131 1083 1084 1084 1085 1132 1086 1133 1085 1086 1087 1134 1087 1114 1135 1114 1088 1136 1088 1089 1136 1115 1137 1089 1090 1138 1115 1116 1138 1090 1093 1139 1091 1091 1140 1092 1092 1141 1094 1142 1093 1096 1143 1095 1094 1095 1144 1098 1145 1096 1097 1146 1099 1098 1099 1147 1100 1148 1101 1100 1149 1102 1101 1103 1102 1150 1104 1103 1151 1105 1104 1152 1153 1106 1105 1107 1106 1154 1108 1107 1155 1108 1156 1116 1145 1097 1117 1109 1157 1117 1109 1118 1157 1110 1158 1111 1118 1112 1159 1119 1111 1160 1159 1112 1119 1121 1120 1072 1122 1121 1073 1076 1124 1122 1113 1120 1161 1123 1113 1161 1124 1077 1125 1125 1078 1126 1079 1127 1126 1128 1127 1080 1081 1129 1128 1082 1130 1129 1130 1083 1131 1131 1084 1132 1085 1133 1132 1086 1134 1133 1087 1135 1134 1135 1114 1162 1162 1114 1136 1089 1137 1136 1163 1137 1115 1138 1163 1115 1116 1164 1138 1142 1139 1093 1091 1139 1140 1140 1141 1092 1141 1143 1094 1142 1096 1145 1144 1095 1143 1144 1146 1098 1146 1147 1099 1147 1148 1100 1149 1101 1148 1150 1102 1149 1103 1150 1151 1104 1151 1152 1153 1105 1152 1106 1153 1154 1155 1107 1154 1108 1155 1156 1116 1156 1164 1145 1117 1165 1117 1157 1165 1157 1118 1166 1111 1158 1160 1118 1159 1166 1119 1160 1167 1159 1119 1167 1121 1168 1120 1122 1169 1121 1122 1124 1170 1120 1171 1161 1172 1123 1161 1124 1125 1173 1174 1125 1126 1127 1175 1126 1176 1127 1128 1129 1177 1128 1129 1130 1178 1130 1131 1179 1180 1131 1132 1133 1181 1132 1133 1134 1182 1135 1183 1134 1184 1135 1162 1185 1162 1136 1137 1185 1136 1163 1186 1137 1138 1187 1163 1138 1164 1187 1188 1139 1142 1139 1189 1140 1190 1141 1140 1141 1191 1143 1142 1145 1192 1193 1144 1143 1144 1194 1146 1146 1195 1147 1147 1196 1148 1197 1149 1148 1150 1149 1198 1150 1199 1151 1152 1151 1200 1201 1153 1152 1153 1202 1154 1203 1155 1154 1156 1155 1204 1164 1156 1205 1192 1145 1165 1165 1157 1206 1206 1157 1166 1158 1207 1160 1166 1159 1208 1160 1209 1167 1208 1159 1167 1121 1169 1168 1120 1168 1171 1122 1170 1169 1170 1124 1173 1171 1210 1161 1210 1172 1161 1125 1174 1173 1175 1174 1126 1176 1175 1127 1177 1176 1128 1129 1178 1177 1178 1130 1179 1131 1180 1179 1181 1180 1132 1181 1133 1182 1134 1183 1182 1184 1183 1135 1184 1162 1211 1211 1162 1185 1137 1186 1185 1163 1212 1186 1163 1187 1212 1187 1164 1213 1188 1189 1139 1188 1142 1192 1189 1190 1140 1190 1191 1141 1191 1193 1143 1193 1194 1144 1146 1194 1195 1147 1195 1196 1196 1197 1148 1198 1149 1197 1150 1198 1199 1151 1199 1200 1201 1152 1200 1201 1202 1153 1202 1203 1154 1204 1155 1203 1156 1204 1205 1164 1205 1213 1214 1192 1165 1214 1165 1206 1215 1206 1166 1207 1209 1160 1215 1166 1208 1209 1216 1167 1216 1208 1167 1168 1169 1217 1171 1168 1218 1169 1170 1219 1220 1170 1173 1171 1218 1210 1221 1172 1210 1174 1222 1173 1175 1223 1174 1224 1175 1176 1177 1225 1176 1177 1178 1226 1178 1179 1227 1180 1228 1179 1181 1229 1180 1230 1181 1182 1182 1183 1231 1184 1232 1183 1233 1184 1211 1234 1211 1185 1186 1234 1185 1186 1212 1235 1212 1187 1236 1236 1187 1213 1237 1189 1188 1238 1188 1192 1239 1190 1189 1240 1191 1190 1191 1241 1193 1242 1194 1193 1194 1243 1195 1195 1244 1196 1245 1197 1196 1198 1197 1246 1199 1198 1247 1200 1199 1248 1249 1201 1200 1250 1202 1201 1251 1203 1202 1204 1203 1252 1204 1253 1205 1205 1254 1213 1214 1238 1192 1255 1214 1206 1215 1255 1206 1207 1256 1209 1257 1215 1208 1209 1258 1216 1216 1257 1208 1169 1219 1217 1168 1217 1218 1219 1170 1220 1222 1220 1173 1218 1259 1210 1259 1221 1210 1174 1223 1222 1224 1223 1175 1225 1224 1176 1177 1226 1225 1226 1178 1227 1179 1228 1227 1229 1228 1180 1230 1229 1181 1230 1182 1231 1183 1232 1231 1233 1232 1184 1260 1233 1211 1234 1260 1211 1186 1235 1234 1235 1212 1261 1212 1236 1261 1236 1213 1262 1239 1189 1237 1237 1188 1238 1240 1190 1239 1240 1241 1191 1241 1242 1193 1242 1243 1194 1243 1244 1195 1244 1245 1196 1246 1197 1245 1198 1246 1247 1199 1247 1248 1249 1200 1248 1250 1201 1249 1251 1202 1250 1252 1203 1251 1204 1252 1253 1253 1254 1205 1213 1254 1262 1263 1238 1214 1255 1263 1214 1264 1255 1215 1209 1256 1258 1264 1215 1257 1216 1258 1265 1257 1216 1265 1219 1266 1217 1218 1217 1267 1219 1220 1268 1220 1222 1269 1259 1218 1267 1270 1221 1259 1223 1271 1222 1224 1272 1223 1225 1273 1224 1225 1226 1274 1275 1226 1227 1227 1228 1276 1229 1277 1228 1230 1278 1229 1279 1230 1231 1232 1280 1231 1233 1281 1232 1260 1282 1233 1234 1283 1260 1234 1235 1283 1284 1235 1261 1236 1285 1261 1285 1236 1262 1239 1237 1286 1237 1238 1287 1240 1239 1288 1289 1241 1240 1290 1242 1241 1291 1243 1242 1292 1244 1243 1293 1245 1244 1246 1245 1294 1246 1295 1247 1247 1296 1248 1297 1249 1248 1250 1249 1298 1251 1250 1299 1252 1251 1300 1253 1252 1301 1253 1302 1254 1254 1303 1262 1287 1238 1263 1304 1263 1255 1304 1255 1264 1256 1305 1258 1264 1257 1306 1258 1307 1265 1308 1257 1265 1219 1268 1266 1217 1266 1267 1268 1220 1269 1222 1271 1269 1309 1259 1267 1270 1259 1309 1223 1272 1271 1224 1273 1272 1225 1274 1273 1274 1226 1275 1275 1227 1276 1228 1277 1276 1229 1278 1277 1279 1278 1230 1280 1279 1231 1232 1281 1280 1233 1282 1281 1260 1310 1282 1260 1283 1310 1283 1235 1284 1284 1261 1311 1261 1285 1311 1312 1285 1262 1288 1239 1286 1237 1287 1286 1289 1240 1288 1290 1241 1289 1291 1242 1290 1292 1243 1291 1293 1244 1292 1294 1245 1293 1246 1294 1295 1295 1296 1247 1296 1297 1248 1249 1297 1298 1250 1298 1299 1251 1299 1300 1301 1252 1300 1253 1301 1302 1302 1303 1254 1303 1312 1262 1287 1263 1313 1313 1263 1304 1304 1264 1314 1258 1305 1307 1314 1264 1306 1257 1308 1306 1307 1308 1265 1266 1268 1315 1266 1316 1267 1317 1268 1269 1269 1271 1318 1316 1309 1267 1319 1270 1309 1272 1320 1271 1273 1321 1272 1273 1274 1322 1274 1275 1323 1324 1275 1276 1277 1325 1276 1277 1278 1326 1279 1327 1278 1280 1328 1279 1280 1281 1329 1281 1282 1330 1282 1310 1331 1310 1283 1332 1283 1284 1332 1284 1311 1333 1285 1334 1311 1312 1334 1285 1288 1286 1335 1287 1336 1286 1289 1288 1337 1290 1289 1338 1291 1290 1339 1292 1291 1340 1293 1292 1341 1294 1293 1342 1294 1343 1295 1344 1296 1295 1296 1345 1297 1297 1346 1298 1298 1347 1299 1299 1348 1300 1301 1300 1349 1302 1301 1350 1351 1303 1302 1303 1352 1312 1287 1313 1336 1313 1304 1353 1304 1314 1353 1305 1354 1307 1355 1314 1306 1308 1355 1306 1307 1356 1308 1315 1268 1317 1266 1315 1316 1317 1269 1318 1271 1320 1318 1316 1357 1309 1357 1319 1309 1321 1320 1272 1273 1322 1321 1322 1274 1323 1275 1324 1323 1325 1324 1276 1325 1277 1326 1278 1327 1326 1279 1328 1327 1280 1329 1328 1329 1281 1330 1282 1331 1330 1331 1310 1358 1358 1310 1332 1332 1284 1333 1311 1359 1333 1334 1359 1311 1360 1334 1312 1337 1288 1335 1286 1336 1335 1338 1289 1337 1339 1290 1338 1291 1339 1340 1341 1292 1340 1342 1293 1341 1294 1342 1343 1343 1344 1295 1344 1345 1296 1345 1346 1297 1346 1347 1298 1347 1348 1299 1300 1348 1349 1350 1301 1349 1351 1302 1350 1351 1352 1303 1352 1360 1312 1336 1313 1361 1361 1313 1353 1314 1362 1353 1354 1356 1307 1314 1355 1362 1308 1356 1355 1315 1317 1363 1316 1315 1364 1365 1317 1318 1320 1366 1318 1357 1316 1364 1367 1319 1357 1321 1368 1320 1321 1322 1369 1322 1323 1370 1324 1371 1323 1325 1372 1324 1373 1325 1326 1327 1374 1326 1327 1328 1375 1328 1329 1376 1329 1330 1377 1331 1378 1330 1331 1358 1379 1380 1358 1332 1380 1332 1333 1333 1359 1381 1334 1382 1359 1360 1382 1334 1383 1337 1335 1335 1336 1384 1385 1338 1337 1386 1339 1338 1340 1339 1387 1388 1341 1340 1389 1342 1341 1343 1342 1390 1343 1391 1344 1392 1345 1344 1393 1346 1345 1346 1394 1347 1347 1395 1348 1348 1396 1349 1397 1350 1349 1398 1351 1350 1351 1399 1352 1352 1400 1360 1336 1361 1384 1361 1353 1401 1353 1362 1401 1354 1402 1356 1362 1355 1403 1355 1356 1404 1315 1363 1364 1363 1317 1365 1366 1365 1318 1320 1368 1366 1357 1364 1405 1367 1357 1406 1321 1369 1368 1369 1322 1370 1323 1371 1370 1324 1372 1371 1373 1372 1325 1374 1373 1326 1327 1375 1374 1375 1328 1376 1376 1329 1377 1330 1378 1377 1331 1379 1378 1379 1358 1407 1407 1358 1380 1380 1333 1381 1359 1408 1381 1382 1408 1359 1360 1409 1382 1383 1385 1337 1383 1335 1384 1385 1386 1338 1339 1386 1387 1388 1340 1387 1388 1389 1341 1390 1342 1389 1343 1390 1391 1391 1392 1344 1392 1393 1345 1393 1394 1346 1347 1394 1395 1395 1396 1348 1396 1397 1349 1398 1350 1397 1398 1399 1351 1352 1399 1400 1360 1400 1409 1384 1361 1410 1410 1361 1401 1401 1362 1411 1356 1402 1404 1355 1404 1403 1362 1403 1411 1363 1412 1364 1363 1365 1413 1414 1365 1366 1368 1415 1366 1357 1405 1406 1364 1412 1405 1416 1367 1406 1368 1369 1417 1418 1369 1370 1370 1371 1419 1371 1372 1420 1373 1421 1372 1374 1422 1373 1374 1375 1423 1424 1375 1376 1425 1376 1377 1377 1378 1426 1378 1379 1427 1379 1407 1428 1407 1380 1429 1429 1380 1381 1408 1430 1381 1382 1431 1408 1382 1409 1431 1432 1385 1383 1433 1383 1384 1385 1434 1386 1386 1435 1387 1436 1388 1387 1388 1437 1389 1438 1390 1389 1391 1390 1439 1391 1440 1392 1392 1441 1393 1393 1442 1394 1394 1443 1395 1444 1396 1395 1396 1445 1397 1446 1398 1397 1398 1447 1399 1400 1399 1448 1409 1400 1449 1433 1384 1410 1450 1410 1401 1450 1401 1411 1402 1451 1404 1404 1452 1403 1403 1453 1411 1363 1413 1412 1365 1414 1413 1415 1414 1366 1368 1417 1415 1405 1454 1406 1405 1412 1455 1454 1416 1406 1417 1369 1418 1418 1370 1419 1371 1420 1419 1372 1421 1420 1373 1422 1421 1374 1423 1422 1423 1375 1424 1425 1424 1376 1425 1377 1426 1378 1427 1426 1427 1379 1428 1428 1407 1456 1407 1429 1456 1430 1429 1381 1408 1457 1430 1408 1431 1457 1431 1409 1458 1432 1434 1385 1432 1383 1433 1434 1435 1386 1435 1436 1387 1436 1437 1388 1437 1438 1389 1439 1390 1438 1391 1439 1440 1392 1440 1441 1393 1441 1442 1394 1442 1443 1443 1444 1395 1444 1445 1396 1445 1446 1397 1446 1447 1398 1399 1447 1448 1449 1400 1448 1409 1449 1458 1459 1433 1410 1450 1459 1410 1450 1411 1460 1451 1452 1404 1452 1453 1403 1411 1453 1460 1413 1461 1412 1414 1462 1413 1415 1463 1414 1415 1417 1464 1454 1405 1455 1412 1461 1455 1465 1416 1454 1417 1418 1466 1467 1418 1419 1420 1468 1419 1421 1469 1420 1421 1422 1470 1422 1423 1471 1423 1424 1472 1473 1424 1425 1474 1425 1426 1426 1427 1475 1476 1427 1428 1477 1428 1456 1429 1478 1456 1430 1478 1429 1430 1457 1479 1457 1431 1480 1480 1431 1458 1432 1481 1434 1482 1432 1433 1434 1483 1435 1435 1484 1436 1437 1436 1485 1486 1438 1437 1439 1438 1487 1440 1439 1488 1441 1440 1489 1442 1441 1490 1443 1442 1491 1443 1492 1444 1444 1493 1445 1445 1494 1446 1446 1495 1447 1447 1496 1448 1449 1448 1497 1458 1449 1498 1459 1482 1433 1499 1459 1450 1499 1450 1460 1451 1500 1452 1452 1501 1453 1460 1453 1502 1462 1461 1413 1414 1463 1462 1415 1464 1463 1464 1417 1466 1503 1454 1455 1461 1503 1455 1465 1454 1504 1418 1467 1466 1468 1467 1419 1469 1468 1420 1421 1470 1469 1470 1422 1471 1423 1472 1471 1472 1424 1473 1473 1425 1474 1474 1426 1475 1427 1505 1475 1505 1427 1476 1477 1476 1428 1478 1477 1456 1478 1430 1479 1457 1506 1479 1457 1480 1506 1507 1480 1458 1482 1481 1432 1434 1481 1483 1483 1484 1435 1436 1484 1485 1486 1437 1485 1487 1438 1486 1439 1487 1488 1489 1440 1488 1441 1489 1490 1491 1442 1490 1443 1491 1492 1444 1492 1493 1445 1493 1494 1446 1494 1495 1447 1495 1496 1448 1496 1497 1449 1497 1498 1507 1458 1498 1508 1482 1459 1508 1459 1499 1509 1499 1460 1452 1500 1501 1453 1501 1502 1509 1460 1502 1510 1461 1462 1463 1511 1462 1463 1464 1512 1513 1464 1466 1454 1503 1504 1510 1503 1461 1514 1465 1504 1466 1467 1515 1468 1516 1467 1469 1517 1468 1469 1470 1518 1519 1470 1471 1471 1472 1520 1472 1473 1521 1473 1474 1522 1523 1474 1475 1505 1523 1475 1524 1505 1476 1525 1476 1477 1526 1477 1478 1527 1478 1479 1479 1506 1528 1506 1480 1529 1530 1480 1507 1531 1481 1482 1481 1532 1483 1533 1484 1483 1484 1534 1485 1535 1486 1485 1487 1486 1536 1487 1537 1488 1489 1488 1538 1490 1489 1539 1540 1491 1490 1492 1491 1541 1493 1492 1542 1494 1493 1543 1495 1494 1544 1496 1495 1545 1496 1546 1497 1497 1547 1498 1507 1498 1548 1531 1482 1508 1508 1499 1549 1549 1499 1509 1500 1550 1501 1501 1551 1502 1551 1509 1502 1511 1510 1462 1463 1512 1511 1512 1464 1513 1513 1466 1515 1504 1503 1552 1510 1553 1503 1554 1514 1504 1467 1516 1515 1468 1517 1516 1469 1518 1517 1518 1470 1519 1519 1471 1520 1472 1521 1520 1521 1473 1522 1522 1474 1523 1505 1555 1523 1524 1555 1505 1524 1476 1525 1525 1477 1526 1527 1526 1478 1527 1479 1528 1506 1556 1528 1480 1530 1529 1556 1506 1529 1530 1507 1557 1531 1532 1481 1532 1533 1483 1533 1534 1484 1534 1535 1485 1536 1486 1535 1487 1536 1537 1488 1537 1538 1489 1538 1539 1540 1490 1539 1541 1491 1540 1492 1541 1542 1543 1493 1542 1494 1543 1544 1545 1495 1544 1496 1545 1546 1546 1547 1497 1498 1547 1548 1557 1507 1548 1531 1508 1558 1508 1549 1558 1549 1509 1559 1501 1550 1551 1509 1551 1559 1511 1560 1510 1511 1512 1561 1512 1513 1562 1513 1515 1563 1503 1553 1552 1554 1504 1552 1510 1560 1553 1564 1514 1554 1516 1565 1515 1516 1517 1566 1517 1518 1567 1518 1519 1568 1569 1519 1520 1521 1569 1520 1521 1522 1570 1571 1522 1523 1555 1571 1523 1524 1572 1555 1573 1524 1525 1574 1525 1526 1527 1575 1526 1576 1527 1528 1556 1576 1528 1530 1577 1529 1577 1556 1529 1578 1530 1557 1579 1532 1531 1580 1533 1532 1581 1534 1533 1582 1535 1534 1536 1535 1583 1536 1584 1537 1537 1585 1538 1538 1586 1539 1540 1539 1587 1541 1540 1588 1541 1589 1542 1543 1542 1590 1544 1543 1591 1592 1545 1544 1546 1545 1593 1546 1594 1547 1547 1595 1548 1595 1557 1548 1579 1531 1558 1558 1549 1596 1597 1549 1559 1550 1598 1551 1551 1599 1559 1511 1561 1560 1561 1512 1562 1562 1513 1563 1515 1565 1563 1553 1600 1552 1600 1554 1552 1553 1560 1601 1602 1564 1554 1516 1566 1565 1566 1517 1567 1518 1568 1567 1568 1519 1603 1519 1569 1603 1569 1521 1570 1522 1604 1570 1571 1604 1522 1605 1571 1555 1573 1572 1524 1572 1605 1555 1574 1573 1525 1575 1574 1526 1576 1575 1527 1578 1577 1530 1606 1578 1557 1580 1532 1579 1581 1533 1580 1582 1534 1581 1583 1535 1582 1536 1583 1584 1584 1585 1537 1585 1586 1538 1539 1586 1587 1588 1540 1587 1541 1588 1589 1542 1589 1590 1543 1590 1591 1592 1544 1591 1593 1545 1592 1546 1593 1594 1594 1595 1547 1595 1606 1557 1607 1579 1558 1549 1597 1596 1607 1558 1596 1599 1597 1559 1598 1599 1551 1560 1561 1608 1609 1561 1562 1610 1562 1563 1563 1565 1611 1553 1601 1600 1602 1554 1600 1560 1608 1601 1612 1564 1602 1565 1566 1613 1614 1566 1567 1567 1568 1615 1616 1568 1603 1569 1617 1603 1618 1569 1570 1604 1618 1570 1619 1604 1571 1605 1619 1571 1580 1579 1620 1581 1580 1621 1582 1581 1622 1583 1582 1623 1584 1583 1624 1584 1625 1585 1585 1626 1586 1586 1627 1587 1628 1588 1587 1589 1588 1629 1589 1630 1590 1590 1631 1591 1592 1591 1632 1593 1592 1633 1594 1593 1634 1595 1594 1635 1636 1606 1595 1579 1607 1620 1597 1637 1596 1637 1607 1596 1599 1638 1597 1598 1639 1599 1608 1561 1609 1610 1609 1562 1610 1563 1611 1565 1613 1611 1601 1640 1600 1640 1602 1600 1608 1641 1601 1612 1602 1642 1613 1566 1614 1614 1567 1615 1568 1616 1615 1617 1616 1603 1618 1617 1569 1604 1643 1618 1619 1643 1604 1621 1580 1620 1581 1621 1622 1623 1582 1622 1624 1583 1623 1584 1624 1625 1585 1625 1626 1626 1627 1586 1627 1628 1587 1588 1628 1629 1630 1589 1629 1630 1631 1590 1591 1631 1632 1633 1592 1632 1593 1633 1634 1644 1594 1634 1636 1595 1635 1594 1644 1635 1607 1645 1620 1637 1597 1646 1637 1645 1607 1599 1639 1638 1597 1638 1646 1608 1609 1647 1648 1609 1610 1649 1610 1611 1611 1613 1650 1601 1641 1640 1642 1602 1640 1608 1647 1641 1651 1612 1642 1613 1614 1652 1653 1614 1615 1616 1653 1615 1617 1654 1616 1655 1617 1618 1643 1655 1618 1656 1621 1620 1622 1621 1657 1658 1623 1622 1659 1624 1623 1625 1624 1660 1625 1661 1626 1662 1627 1626 1627 1663 1628 1628 1664 1629 1665 1630 1629 1630 1666 1631 1631 1667 1632 1633 1632 1668 1633 1669 1634 1669 1644 1634 1670 1636 1635 1644 1670 1635 1645 1656 1620 1637 1646 1671 1672 1645 1637 1639 1673 1638 1638 1674 1646 1647 1609 1648 1648 1610 1649 1649 1611 1650 1650 1613 1652 1641 1675 1640 1675 1642 1640 1641 1647 1676 1651 1642 1677 1614 1678 1652 1614 1653 1678 1679 1653 1616 1655 1654 1617 1654 1679 1616 1621 1656 1657 1658 1622 1657 1658 1659 1623 1660 1624 1659 1625 1660 1661 1661 1662 1626 1662 1663 1627 1663 1664 1628 1664 1665 1629 1665 1666 1630 1631 1666 1667 1632 1667 1668 1669 1633 1668 1669 1680 1644 1680 1670 1644 1645 1681 1656 1672 1637 1671 1646 1674 1671 1672 1681 1645 1673 1674 1638 1647 1648 1682 1648 1649 1683 1684 1649 1650 1685 1650 1652 1641 1676 1675 1642 1675 1677 1676 1647 1682 1686 1651 1677 1678 1685 1652 1653 1687 1678 1679 1687 1653 1656 1688 1657 1689 1658 1657 1658 1690 1659 1691 1660 1659 1661 1660 1692 1661 1693 1662 1662 1694 1663 1663 1695 1664 1664 1696 1665 1665 1697 1666 1667 1666 1698 1668 1667 1699 1700 1669 1668 1701 1680 1669 1681 1688 1656 1702 1672 1671 1674 1702 1671 1703 1681 1672 1673 1704 1674 1648 1683 1682 1683 1649 1684 1685 1684 1650 1676 1705 1675 1675 1705 1677 1706 1676 1682 1686 1677 1707 1708 1685 1678 1687 1708 1678 1688 1689 1657 1689 1690 1658 1690 1691 1659 1692 1660 1691 1661 1692 1693 1662 1693 1694 1663 1694 1695 1664 1695 1696 1665 1696 1697 1666 1697 1698 1667 1698 1699 1700 1668 1699 1701 1669 1700 1681 1709 1688 1703 1672 1702 1674 1704 1702 1703 1709 1681 1683 1706 1682 1710 1683 1684 1685 1711 1684 1705 1676 1712 1677 1705 1707 1676 1706 1712 1713 1686 1707 1708 1711 1685 1714 1689 1688 1689 1715 1690 1716 1691 1690 1692 1691 1717 1693 1692 1718 1694 1693 1719 1695 1694 1720 1696 1695 1721 1697 1696 1722 1697 1723 1698 1698 1724 1699 1724 1700 1699 1725 1701 1700 1709 1714 1688 1726 1703 1702 1704 1727 1702 1728 1709 1703 1729 1706 1683 1710 1729 1683 1711 1710 1684 1730 1705 1712 1705 1731 1707 1706 1732 1712 1731 1713 1707 1714 1715 1689 1715 1716 1690 1717 1691 1716 1692 1717 1718 1693 1718 1719 1720 1694 1719 1695 1720 1721 1722 1696 1721 1697 1722 1723 1698 1723 1733 1724 1698 1733 1724 1725 1700 1734 1714 1709 1726 1728 1703 1727 1726 1702 1734 1709 1728 1729 1732 1706 1730 1731 1705 1732 1730 1712 1735 1715 1714 1736 1716 1715 1717 1716 1737 1717 1738 1718 1718 1739 1719 1720 1719 1740 1721 1720 1741 1722 1721 1742 1723 1722 1743 1723 1744 1733 1745 1724 1733 1745 1725 1724 1735 1714 1734 1728 1726 1746 1727 1747 1726 1734 1728 1748 1736 1715 1735 1737 1716 1736 1717 1737 1738 1738 1739 1718 1719 1739 1740 1720 1740 1741 1721 1741 1742 1743 1722 1742 1744 1723 1743 1744 1749 1733 1749 1745 1733 1735 1734 1750 1726 1747 1746 1748 1728 1746 1734 1748 1750 1736 1735 1751 1737 1736 1752 1738 1737 1753 1738 1754 1739 1739 1755 1740 1740 1756 1741 1741 1757 1742 1757 1743 1742 1758 1744 1743 1759 1749 1744 1751 1735 1750 1747 1760 1746 1748 1746 1761 1748 1762 1750 1736 1751 1752 1753 1737 1752 1738 1753 1754 1754 1755 1739 1755 1756 1740 1741 1756 1763 1757 1741 1763 1757 1758 1743 1759 1744 1758 1751 1750 1764 1746 1760 1761 1762 1748 1761 1750 1762 1764 1752 1751 1765 1766 1753 1752 1754 1753 1767 1754 1768 1755 1755 1769 1756 1756 1770 1763 1771 1757 1763 1771 1758 1757 1772 1759 1758 1765 1751 1764 1760 1773 1761 1774 1762 1761 1762 1775 1764 1766 1752 1765 1767 1753 1766 1754 1767 1768 1755 1768 1769 1756 1769 1770 1770 1771 1763 1771 1772 1758 1775 1765 1764 1773 1774 1761 1774 1775 1762 1776 1766 1765 1767 1766 1777 1768 1767 1778 1769 1768 1779 1769 1780 1770 1781 1771 1770 1781 1772 1771 1765 1775 1782 1773 1783 1774 1774 1784 1775 1777 1766 1776 1776 1765 1782 1767 1777 1778 1779 1768 1778 1780 1769 1779 1780 1785 1770 1785 1781 1770 1775 1784 1782 1774 1783 1784 1777 1776 1786 1776 1782 1787 1777 1788 1778 1779 1778 1789 1780 1779 1790 1791 1785 1780 1784 1792 1782 1783 1793 1784 1777 1786 1788 1786 1776 1787 1782 1792 1787 1778 1788 1789 1790 1779 1789 1791 1780 1790 1793 1792 1784 1788 1786 1794 1795 1786 1787 1792 1795 1787 1789 1788 1796 1797 1790 1789 1798 1791 1790 1793 1799 1792 1794 1786 1795 1788 1794 1796 1795 1792 1800 1797 1789 1796 1797 1798 1790 1792 1799 1800 1794 1795 1801 1794 1802 1796 1803 1795 1800 1802 1797 1796 1804 1798 1797 1799 1805 1800 1806 1794 1801 1795 1803 1801 1794 1806 1802 1805 1803 1800 1804 1797 1802 1803 1806 1801 1806 1807 1802 1805 1808 1803 1807 1804 1802 1806 1803 1809 1810 1807 1806 1803 1808 1809 1810 1806 1809 1808 1811 1809 1811 1810 1809 </DataArray>
        <DataArray type="Int32" Name="offsets" format="ascii">3 6 9 12 15 18 21 24 27 30 33 36 39 42 45 48 51 54 57 60 63 66 69 72 75 78 81 84 87 90 93 96 99 102 105 108 111 114 117 120 123 126 129 132 135 138 141 144 147 150 153 156 159 162 165 168 171 174 177 180 183 186 189 192 195 198 201 204 207 210 213 216 219 222 225 228 231 234 237 240 243 246 249 252 255 258 261 264 267 270 273 276 279 282 285 288 291 294 297 300 303 306 309 312 315 318 321 324 327 330 333 336 339 342 345 348 351 354 357 360 363 366 369 372 375 378 381 384 387 390 393 396 399 402 405 408 411 414 417 420 423 426 429 432 435 438 441 444 447 450 453 456 459 462 465 468 471 474 477 480 483 486 489 492 495 498 501 504 507 510 513 516 519 522 525 528 531 534 537 540 543 546 549 552 555 558 561 564 567 570 573 576 579 582 585 588 591 594 597 600 603 606 609 612 615 618 621 624 627 630 633 636 639 642 645 648 651 654 657 660 663 666 669 672 675 678 681 684 687 690 693 696 699 702 705 708 711 714 717 720 723 726 729 732 735 738 741 744 747 750 753 756 759 762 765 768 771 774 777 780 783 786 789 792 795 798 801 804 807 810 813 816 819 822 825 828 831 834 837 840 843 846 849 852 855 858 861 864 867 870 873 876 879 882 885 888 891 894 897 900 903 906 909 912 915 918 921 924 927 930 933 936 939 942 945 948 951 954 957 960 963 966 969 972 975 978 981 984 987 990 993 996 999 1002 1005 1008 1011 1014 1017 1020 1023 1026 1029 1032 1035 1038 1041 1044 1047 1050 1053 1056 1059 1062 1065 1068 1071 1074 1077 1080 1083 1086 1089 1092 1095 1098 1101 1104 1107 1110 1113 1116 1119 1122 1125 1128 1131 1134 1137 1140 1143 1146 1149 1152 1155 1158 1161 1164 1167 1170 1173 1176 1179 1182 1185 1188 1191 1194 1197 1200 1203 1206 1209 1212 1215 1218 1221 1224 1227 1230 1233 1236 1239 1242 1245 1248 1251 1254 1257 1260 1263 1266 1269 1272 1275 1278 1281 1284 1287 1290 1293 1296 1299 1302 1305 1308 1311 1314 1317 1320 1323 1326 1329 1332 1335 1338 1341 1344 1347 1350 1353 1356 1359 1362 1365 1368 1371 1374 1377 1380 1383 1386 1389 1392 1395 1398 1401 1404 1407 1410 1413 1416 1419 1422 1425 1428 1431 1434 1437 1440 1443 1446 1449 1452 1455 1458 1461 1464 1467 1470 1473 1476 1479 1482 1485 1488 1491 1494 1497 1500 1503 1506 1509 1512 1515 1518 1521 1524 1527 1530 1533 1536 1539 1542 1545 1548 1551 1554 1557 1560 1563 1566 1569 1572 1575 1578 1581 1584 1587 1590 1593 1596 1599 1602 1605 1608 1611 1614 1617 1620 1623 1626 1629 1632 1635 1638 1641 1644 1647 1650 1653 1656 1659 1662 1665 1668 1671 1674 1677 1680 1683 1686 1689 1692 1695 1698 1701 1704 1707 1710 1713 1716 1719 1722 1725 1728 1731 1734 1737 1740 1743 1746 1749 1752 1755 1758 1761 1764 1767 1770 1773 1776 1779 1782 1785 1788 1791 1794 1797 1800 1803 1806 1809 1812 1815 1818 1821 1824 1827 1830 1833 1836 1839 1842 1845 1848 1851 1854 1857 1860 1863 1866 1869 1872 1875 1878 1881 1884 1887 1890 1893 1896 1899 1902 1905 1908 1911 1914 1917 1920 1923 1926 1929 1932 1935 1938 1941 1944 1947 1950 1953 1956 1959 1962 1965 1968 1971 1974 1977 1980 1983 1986 1989 1992 1995 1998 2001 2004 2007 2010 2013 2016 2019 2022 2025 2028 2031 2034 2037 2040 2043 2046 2049 2052 2055 2058 2061 2064 2067 2070 2073 2076 2079 2082 2085 2088 2091 2094 2097 2100 2103 2106 2109 2112 2115 2118 2121 2124 2127 2130 2133 2136 2139 2142 2145 2148 2151 2154 2157 2160 2163 2166 2169 2172 2175 2178 2181 2184 2187 2190 2193 2196 2199 2202 2205 2208 2211 2214 2217 2220 2223 2226 2229 2232 2235 2238 2241 2244 2247 2250 2253 2256 2259 2262 2265 2268 2271 2274 2277 2280 2283 2286 2289 2292 2295 2298 2301 2304 2307 2310 2313 2316 2319 2322 2325 2328 2331 2334 2337 2340 2343 2346 2349 2352 2355 2358 2361 2364 2367 2370 2373 2376 2379 2382 2385 2388 2391 2394 2397 2400 2403 2406 2409 2412 2415 2418 2421 2424 2427 2430 2433 2436 2439 2442 2445 2448 2451 2454 2457 2460 2463 2466 2469 2472 2475 2478 2481 2484 2487 2490 2493 2496 2499 2502 2505 2508 2511 2514 2517 2520 2523 2526 2529 2532 2535 2538 2541 2544 2547 2550 2553 2556 2559 2562 2565 2568 2571 2574 2577 2580 2583 2586 2589 2592 2595 2598 2601 2604 2607 2610 2613 2616 2619 2622 2625 2628 2631 2634 2637 2640 2643 2646 2649 2652 2655 2658 2661 2664 2667 2670 2673 2676 2679 2682 2685 2688 2691 2694 2697 2700 2703 2706 2709 2712 2715 2718 2721 2724 2727 2730 2733 2736 2739 2742 2745 2748 2751 2754 2757 2760 2763 2766 2769 2772 2775 2778 2781 2784 2787 2790 2793 2796 2799 2802 2805 2808 2811 2814 2817 2820 2823 2826 2829 2832 2835 2838 2841 2844 2847 2850 2853 2856 2859 2862 2865 2868 2871 2874 2877 2880 2883 2886 2889 2892 2895 2898 2901 2904 2907 2910 2913 2916 2919 2922 2925 2928 2931 2934 2937 2940 2943 2946 2949 2952 2955 2958 2961 2964 2967 2970 2973 2976 2979 2982 2985 2988 2991 2994 2997 3000 3003 3006 3009 3012 3015 3018 3021 3024 3027 3030 3033 3036 3039 3042 3045 3048 3051 3054 3057 3060 3063 3066 3069 3072 3075 3078 3081 3084 3087 3090 3093 3096 3099 3102 3105 3108 3111 3114 3117 3120 3123 3126 3129 3132 3135 3138 3141 3144 3147 3150 3153 3156 3159 3162 3165 3168 3171 3174 3177 3180 3183 3186 3189 3192 3195 3198 3201 3204 3207 3210 3213 3216 3219 3222 3225 3228 3231 3234 3237 3240 3243 3246 3249 3252 3255 3258 3261 3264 3267 3270 3273 3276 3279 3282 3285 3288 3291 3294 3297 3300 3303 3306 3309 3312 3315 3318 3321 3324 3327 3330 3333 3336 3339 3342 3345 3348 3351 3354 3357 3360 3363 3366 3369 3372 3375 3378 3381 3384 3387 3390 3393 3396 3399 3402 3405 3408 3411 3414 3417 3420 3423 3426 3429 3432 3435 3438 3441 3444 3447 3450 3453 3456 3459 3462 3465 3468 3471 3474 3477 3480 3483 3486 3489 3492 3495 3498 3501 3504 3507 3510 3513 3516 3519 3522 3525 3528 3531 3534 3537 3540 3543 3546 3549 3552 3555 3558 3561 3564 3567 3570 3573 3576 3579 3582 3585 3588 3591 3594 3597 3600 3603 3606 3609 3612 3615 3618 3621 3624 3627 3630 3633 3636 3639 3642 3645 3648 3651 3654 3657 3660 3663 3666 3669 3672 3675 3678 3681 3684 3687 3690 3693 3696 3699 3702 3705 3708 3711 3714 3717 3720 3723 3726 3729 3732 3735 3738 3741 3744 3747 3750 3753 3756 3759 3762 3765 3768 3771 3774 3777 3780 3783 3786 3789 3792 3795 3798 3801 3804 3807 3810 3813 3816 3819 3822 3825 3828 3831 3834 3837 3840 3843 3846 3849 3852 3855 3858 3861 3864 3867 3870 3873 3876 3879 3882 3885 3888 3891 3894 3897 3900 3903 3906 3909 3912 3915 3918 3921 3924 3927 3930 3933 3936 3939 3942 3945 3948 3951 3954 3957 3960 3963 3966 3969 3972 3975 3978 3981 3984 3987 3990 3993 3996 3999 4002 4005 4008 4011 4014 4017 4020 4023 4026 4029 4032 4035 4038 4041 4044 4047 4050 4053 4056 4059 4062 4065 4068 4071 4074 4077 4080 4083 4086 4089 4092 4095 4098 4101 4104 4107 4110 4113 4116 4119 4122 4125 4128 4131 4134 4137 4140 4143 4146 4149 4152 4155 4158 4161 4164 4167 4170 4173 4176 4179 4182 4185 4188 4191 4194 4197 4200 4203 4206 4209 4212 4215 4218 4221 4224 4227 4230 4233 4236 4239 4242 4245 4248 4251 4254 4257 4260 4263 4266 4269 4272 4275 4278 4281 4284 4287 4290 4293 4296 4299 4302 4305 4308 4311 4314 4317 4320 4323 4326 4329 4332 4335 4338 4341 4344 4347 4350 4353 4356 4359 4362 4365 4368 4371 4374 4377 4380 4383 4386 4389 4392 4395 4398 4401 4404 4407 4410 4413 4416 4419 4422 4425 4428 4431 4434 4437 4440 4443 4446 4449 4452 4455 4458 4461 4464 4467 4470 4473 4476 4479 4482 4485 4488 4491 4494 4497 4500 4503 4506 4509 4512 4515 4518 4521 4524 4527 4530 4533 4536 4539 4542 4545 4548 4551 4554 4557 4560 4563 4566 4569 4572 4575 4578 4581 4584 4587 4590 4593 4596 4599 4602 4605 4608 4611 4614 4617 4620 4623 4626 4629 4632 4635 4638 4641 4644 4647 4650 4653 4656 4659 4662 4665 4668 4671 4674 4677 4680 4683 4686 4689 4692 4695 4698 4701 4704 4707 4710 4713 4716 4719 4722 4725 4728 4731 4734 4737 4740 4743 4746 4749 4752 4755 4758 4761 4764 4767 4770 4773 4776 4779 4782 4785 4788 4791 4794 4797 4800 4803 4806 4809 4812 4815 4818 4821 4824 4827 4830 4833 4836 4839 4842 4845 4848 4851 4854 4857 4860 4863 4866 4869 4872 4875 4878 4881 4884 4887 4890 4893 4896 4899 4902 4905 4908 4911 4914 4917 4920 4923 4926 4929 4932 4935 4938 4941 4944 4947 4950 4953 4956 4959 4962 4965 4968 4971 4974 4977 4980 4983 4986 4989 4992 4995 4998 5001 5004 5007 5010 5013 5016 5019 5022 5025 5028 5031 5034 5037 5040 5043 5046 5049 5052 5055 5058 5061 5064 5067 5070 5073 5076 5079 5082 5085 5088 5091 5094 5097 5100 5103 5106 5109 5112 5115 5118 5121 5124 5127 5130 5133 5136 5139 5142 5145 5148 5151 5154 5157 5160 5163 5166 5169 5172 5175 5178 5181 5184 5187 5190 5193 5196 5199 5202 5205 5208 5211 5214 5217 5220 5223 5226 5229 5232 5235 5238 5241 5244 5247 5250 5253 5256 5259 5262 5265 5268 5271 5274 5277 5280 5283 5286 5289 5292 5295 5298 5301 5304 5307 5310 5313 5316 5319 5322 5325 5328 5331 5334 5337 5340 5343 5346 5349 5352 5355 5358 5361 5364 5367 5370 5373 5376 5379 5382 5385 5388 5391 5394 5397 5400 5403 5406 5409 5412 5415 5418 5421 5424 5427 5430 5433 5436 5439 5442 5445 5448 5451 5454 5457 5460 5463 5466 5469 5472 5475 5478 5481 5484 5487 5490 5493 5496 5499 5502 5505 5508 5511 5514 5517 5520 5523 5526 5529 5532 5535 5538 5541 5544 5547 5550 5553 5556 5559 5562 5565 5568 5571 5574 5577 5580 5583 5586 5589 5592 5595 5598 5601 5604 5607 5610 5613 5616 5619 5622 5625 5628 5631 5634 5637 5640 5643 5646 5649 5652 5655 5658 5661 5664 5667 5670 5673 5676 5679 5682 5685 5688 5691 5694 5697 5700 5703 5706 5709 5712 5715 5718 5721 5724 5727 5730 5733 5736 5739 5742 5745 5748 5751 5754 5757 5760 5763 5766 5769 5772 5775 5778 5781 5784 5787 5790 5793 5796 5799 5802 5805 5808 5811 5814 5817 5820 5823 5826 5829 5832 5835 5838 5841 5844 5847 5850 5853 5856 5859 5862 5865 5868 5871 5874 5877 5880 5883 5886 5889 5892 5895 5898 5901 5904 5907 5910 5913 5916 5919 5922 5925 5928 5931 5934 5937 5940 5943 5946 5949 5952 5955 5958 5961 5964 5967 5970 5973 5976 5979 5982 5985 5988 5991 5994 5997 6000 6003 6006 6009 6012 6015 6018 6021 6024 6027 6030 6033 6036 6039 6042 6045 6048 6051 6054 6057 6060 6063 6066 6069 6072 6075 6078 6081 6084 6087 6090 6093 6096 6099 6102 6105 6108 6111 6114 6117 6120 6123 6126 6129 6132 6135 6138 6141 6144 6147 6150 6153 6156 6159 6162 6165 6168 6171 6174 6177 6180 6183 6186 6189 6192 6195 6198 6201 6204 6207 6210 6213 6216 6219 6222 6225 6228 6231 6234 6237 6240 6243 6246 6249 6252 6255 6258 6261 6264 6267 6270 6273 6276 6279 6282 6285 6288 6291 6294 6297 6300 6303 6306 6309 6312 6315 6318 6321 6324 6327 6330 6333 6336 6339 6342 6345 6348 6351 6354 6357 6360 6363 6366 6369 6372 6375 6378 6381 6384 6387 6390 6393 6396 6399 6402 6405 6408 6411 6414 6417 6420 6423 6426 6429 6432 6435 6438 6441 6444 6447 6450 6453 6456 6459 6462 6465 6468 6471 6474 6477 6480 6483 6486 6489 6492 6495 6498 6501 6504 6507 6510 6513 6516 6519 6522 6525 6528 6531 6534 6537 6540 6543 6546 6549 6552 6555 6558 6561 6564 6567 6570 6573 6576 6579 6582 6585 6588 6591 6594 6597 6600 6603 6606 6609 6612 6615 6618 6621 6624 6627 6630 6633 6636 6639 6642 6645 6648 6651 6654 6657 6660 6663 6666 6669 6672 6675 6678 6681 6684 6687 6690 6693 6696 6699 6702 6705 6708 6711 6714 6717 6720 6723 6726 6729 6732 6735 6738 6741 6744 6747 6750 6753 6756 6759 6762 6765 6768 6771 6774 6777 6780 6783 6786 6789 6792 6795 6798 6801 6804 6807 6810 6813 6816 6819 6822 6825 6828 6831 6834 6837 6840 6843 6846 6849 6852 6855 6858 6861 6864 6867 6870 6873 6876 6879 6882 6885 6888 6891 6894 6897 6900 6903 6906 6909 6912 6915 6918 6921 6924 6927 6930 6933 6936 6939 6942 6945 6948 6951 6954 6957 6960 6963 6966 6969 6972 6975 6978 6981 6984 6987 6990 6993 6996 6999 7002 7005 7008 7011 7014 7017 7020 7023 7026 7029 7032 7035 7038 7041 7044 7047 7050 7053 7056 7059 7062 7065 7068 7071 7074 7077 7080 7083 7086 7089 7092 7095 7098 7101 7104 7107 7110 7113 7116 7119 7122 7125 7128 7131 7134 7137 7140 7143 7146 7149 7152 7155 7158 7161 7164 7167 7170 7173 7176 7179 7182 7185 7188 7191 7194 7197 7200 7203 7206 7209 7212 7215 7218 7221 7224 7227 7230 7233 7236 7239 7242 7245 7248 7251 7254 7257 7260 7263 7266 7269 7272 7275 7278 7281 7284 7287 7290 7293 7296 7299 7302 7305 7308 7311 7314 7317 7320 7323 7326 7329 7332 7335 7338 7341 7344 7347 7350 7353 7356 7359 7362 7365 7368 7371 7374 7377 7380 7383 7386 7389 7392 7395 7398 7401 7404 7407 7410 7413 7416 7419 7422 7425 7428 7431 7434 7437 7440 7443 7446 7449 7452 7455 7458 7461 7464 7467 7470 7473 7476 7479 7482 7485 7488 7491 7494 7497 7500 7503 7506 7509 7512 7515 7518 7521 7524 7527 7530 7533 7536 7539 7542 7545 7548 7551 7554 7557 7560 7563 7566 7569 7572 7575 7578 7581 7584 7587 7590 7593 7596 7599 7602 7605 7608 7611 7614 7617 7620 7623 7626 7629 7632 7635 7638 7641 7644 7647 7650 7653 7656 7659 7662 7665 7668 7671 7674 7677 7680 7683 7686 7689 7692 7695 7698 7701 7704 7707 7710 7713 7716 7719 7722 7725 7728 7731 7734 7737 7740 7743 7746 7749 7752 7755 7758 7761 7764 7767 7770 7773 7776 7779 7782 7785 7788 7791 7794 7797 7800 7803 7806 7809 7812 7815 7818 7821 7824 7827 7830 7833 7836 7839 7842 7845 7848 7851 7854 7857 7860 7863 7866 7869 7872 7875 7878 7881 7884 7887 7890 7893 7896 7899 7902 7905 7908 7911 7914 7917 7920 7923 7926 7929 7932 7935 7938 7941 7944 7947 7950 7953 7956 7959 7962 7965 7968 7971 7974 7977 7980 7983 7986 7989 7992 7995 7998 8001 8004 8007 8010 8013 8016 8019 8022 8025 8028 8031 8034 8037 8040 8043 8046 8049 8052 8055 8058 8061 8064 8067 8070 8073 8076 8079 8082 8085 8088 8091 8094 8097 8100 8103 8106 8109 8112 8115 8118 8121 8124 8127 8130 8133 8136 8139 8142 8145 8148 8151 8154 8157 8160 8163 8166 8169 8172 8175 8178 8181 8184 8187 8190 8193 8196 8199 8202 8205 8208 8211 8214 8217 8220 8223 8226 8229 8232 8235 8238 8241 8244 8247 8250 8253 8256 8259 8262 8265 8268 8271 8274 8277 8280 8283 8286 8289 8292 8295 8298 8301 8304 8307 8310 8313 8316 8319 8322 8325 8328 8331 8334 8337 8340 8343 8346 8349 8352 8355 8358 8361 8364 8367 8370 8373 8376 8379 8382 8385 8388 8391 8394 8397 8400 8403 8406 8409 8412 8415 8418 8421 8424 8427 8430 8433 8436 8439 8442 8445 8448 8451 8454 8457 8460 8463 8466 8469 8472 8475 8478 8481 8484 8487 8490 8493 8496 8499 8502 8505 8508 8511 8514 8517 8520 8523 8526 8529 8532 8535 8538 8541 8544 8547 8550 8553 8556 8559 8562 8565 8568 8571 8574 8577 8580 8583 8586 8589 8592 8595 8598 8601 8604 8607 8610 8613 8616 8619 8622 8625 8628 8631 8634 8637 8640 8643 8646 8649 8652 8655 8658 8661 8664 8667 8670 8673 8676 8679 8682 8685 8688 8691 8694 8697 8700 8703 8706 8709 8712 8715 8718 8721 8724 8727 8730 8733 8736 8739 8742 8745 8748 8751 8754 8757 8760 8763 8766 8769 8772 8775 8778 8781 8784 8787 8790 8793 8796 8799 8802 8805 8808 8811 8814 8817 8820 8823 8826 8829 8832 8835 8838 8841 8844 8847 8850 8853 8856 8859 8862 8865 8868 8871 8874 8877 8880 8883 8886 8889 8892 8895 8898 8901 8904 8907 8910 8913 8916 8919 8922 8925 8928 8931 8934 8937 8940 8943 8946 8949 8952 8955 8958 8961 8964 8967 8970 8973 8976 8979 8982 8985 8988 8991 8994 8997 9000 9003 9006 9009 9012 9015 9018 9021 9024 9027 9030 9033 9036 9039 9042 9045 9048 9051 9054 9057 9060 9063 9066 9069 9072 9075 9078 9081 9084 9087 9090 9093 9096 9099 9102 9105 9108 9111 9114 9117 9120 9123 9126 9129 9132 9135 9138 9141 9144 9147 9150 9153 9156 9159 9162 9165 9168 9171 9174 9177 9180 9183 9186 9189 9192 9195 9198 9201 9204 9207 9210 9213 9216 9219 9222 9225 9228 9231 9234 9237 9240 9243 9246 9249 9252 9255 9258 9261 9264 9267 9270 9273 9276 9279 9282 9285 9288 9291 9294 9297 9300 9303 9306 9309 9312 9315 9318 9321 9324 9327 9330 9333 9336 9339 9342 9345 9348 9351 9354 9357 9360 9363 9366 9369 9372 9375 9378 9381 9384 9387 9390 9393 9396 9399 9402 9405 9408 9411 9414 9417 9420 9423 9426 9429 9432 9435 9438 9441 9444 9447 9450 9453 9456 9459 9462 9465 9468 9471 9474 9477 9480 9483 9486 9489 9492 9495 9498 9501 9504 9507 9510 9513 9516 9519 9522 9525 9528 9531 9534 9537 9540 9543 9546 9549 9552 9555 9558 9561 9564 9567 9570 9573 9576 9579 9582 9585 9588 9591 9594 9597 9600 9603 9606 9609 9612 9615 9618 9621 9624 9627 9630 9633 9636 9639 9642 9645 9648 9651 9654 9657 9660 9663 9666 9669 9672 9675 9678 9681 9684 9687 9690 9693 9696 9699 9702 9705 9708 9711 9714 9717 9720 9723 9726 9729 9732 9735 9738 9741 9744 9747 9750 9753 9756 9759 9762 9765 9768 9771 9774 9777 9780 9783 9786 9789 9792 9795 9798 9801 9804 9807 9810 9813 9816 9819 9822 9825 9828 9831 9834 9837 9840 9843 9846 9849 9852 9855 9858 9861 9864 9867 9870 9873 9876 9879 9882 9885 9888 9891 9894 9897 9900 9903 9906 9909 9912 9915 9918 9921 9924 9927 9930 9933 9936 9939 9942 9945 9948 9951 9954 9957 9960 9963 9966 9969 9972 9975 9978 9981 9984 9987 9990 9993 9996 9999 10002 10005 10008 10011 10014 10017 10020 10023 10026 10029 10032 10035 10038 10041 10044 10047 10050 10053 10056 10059 10062 10065 10068 10071 10074 10077 10080 10083 10086 10089 10092 10095 10098 10101 10104 10107 10110 10113 10116 10119 10122 10125 10128 10131 10134 10137 10140 10143 10146 10149 10152 10155 10158 10161 10164 10167 10170 10173 10176 10179 10182 10185 10188 10191 10194 10197 10200 10203 10206 10209 10212 10215 10218 10221 10224 10227 10230 10233 10236 10239 10242 10245 10248 10251 10254 10257 10260 10263 10266 10269 10272 10275 10278 10281 10284 10287 10290 10293 10296 10299 10302 10305 10308 10311 10314 10317 10320 10323 10326 10329 10332 10335 10338 10341 10344 10347 10350 10353 10356 10359 10362 10365 10368 10371 10374 10377 10380 10383 10386 10389 10392 10395 10398 10401 </DataArray>
        <DataArray type="Int8" Name="types" format="ascii">69 69 69 69 69 69 69 69 69 69 69 69 69 69 69 69 69 69 69 69 69 69 69 69 69 69 69 69 69 69 69 69 69 69 69 69 69 69 69 69 69 69 69 69 69 69 69 69 69 69 69 69 69 69 69 69 69 69 69 69 69 69 69 69 69 69 69 69 69 69 69 69 69 69 69 69 69 69 69 69 69 69 69 69 69 69 69 69 69 69 69 69 69 69 69 69 69 69 69 69 69 69 69 69 69 69 69 69 69 69 69 69 69 69 69 69 69 69 69 69 69 69 69 69 69 69 69 69 69 69 69 69 69 69 69 69 69 69 69 69 69 69 69 69 69 69 69 69 69 69 69 69 69 69 69 69 69 69 69 69 69 69 69 69 69 69 69 69 69 69 69 69 69 69 69 69 69 69 69 69 69 69 69 69 69 69 69 69 69 69 69 69 69 69 69 69 69 69 69 69 69 69 69 69 69 69 69 69 69 69 69 69 69 69 69 69 69 69 69 69 69 69 69 69 69 69 69 69 69 69 69 69 69 69 69 69 69 69 69 69 69 69 69 69 69 69 69 69 69 69 69 69 69 69 69 69 69 69 69 69 69 69 69 69 69 69 69 69 69 69 69 69 69 69 69 69 69 69 69 69 69 69 69 69 69 69 69 69 69 69 69 69 69 69 69 69 69 69 69 69 69 69 69 69 69 69 69 69 69 69 69 69 69 69 69 69 69 69 69 69 69 69 69 69 69 69 69 69 69 69 69 69 69 69 69 69 69 69 69 69 69 69 69 69 69 69 69 69 69 69 69 69 69 69 69 69 69 69 69 69 69 69 69 69 69 69 69 69 69 69 69 69 69 69 69 69 69 69 69 69 69 69 69 69 69 69 69 69 69 69 69 69 69 69 69 69 69 69 69 69 69 69 69 69 69 69 69 69 69 69 69 69 69 69 69 69 69 69 69 69 69 69 69 69 69 69 69 69 69 69 69 69 69 69 69 69 69 69 69 69 69 69 69 69 69 69 69 69 69 69 69 69 69 69 69 69 69 69 69 69 69 69 69 69 69 69 69 69 69 69 69 69 69 69 69 69 69 69 69 69 69 69 69 69 69 69 69 69 69 69 69 69 69 69 69 69 69 69 69 69 69 69 69 69 69 69 69 69 69 69 69 69 69 69 69 69 69 69 69 69 69 69 69 69 69 69 69 69 69 69 69 69 69 69 69 69 69 69 69 69 69 69 69 69 69 69 69 69 69 69 69 69 69 69 69 69 69 69 69 69 69 69 69 69 69 69 69 69 69 69 69 69 69 69 69 69 69 69 69 69 69 69 69 69 69 69 69 69 69 69 69 69 69 69 69 69 69 69 69 69 69 69 69 69 69 69 69 69 69 69 69 69 69 69 69 69 69 69 69 69 69 69 69 69 69 69 69 69 69 69 69 69 69 69 69 69 69 69 69 69 69 69 69 69 69 69 69 69 69 69 69 69 69 69 69 69 69 69 69 69 69 69 69 69 69 69 69 69 69 69 69 69 69 69 69 69 69 69 69 69 69 69 69 69 69 69 69 69 69 69 69 69 69 69 69 69 69 69 69 69 69 69 69 69 69 69 69 69 69 69 69 69 69 69 69 69 69 69 69 69 69 69 69 69 69 69 69 69 69 69 69 69 69 69 69 69 69 69 69 69 69 69 69 69 69 69 69 69 69 69 69 69 69 69 69 69 69 69 69 69 69 69 69 69 69 69 69 69 69 69 69 69 69 69 69 69 69 69 69 69 69 69 69 69 69 69 69 69 69 69 69 69 69 69 69 69 69 69 69 69 69 69 69 69 69 69 69 69 69 69 69 69 69 69 69 69 69 69 69 69 69 69 69 69 69 69 69 69 69 69 69 69 69 69 69 69 69 69 69 69 69 69 69 69 69 69 69 69 69 69 69 69 69 69 69 69 69 69 69 69 69 69 69 69 69 69 69 69 69 69 69 69 69 69 69 69 69 69 69 69 69 69 69 69 69 69 69 69 69 69 69 69 69 69 69 69 69 69 69 69 69 69 69 69 69 69 69 69 69 69 69 69 69 69 69 69 69 69 69 69 69 69 69 69 69 69 69 69 69 69 69 69 69 69 69 69 69 69 69 69 69 69 69 69 69 69 69 69 69 69 69 69 69 69 69 69 69 69 69 69 69 69 69 69 69 69 69 69 69 69 69 69 69 69 69 69 69 69 69 69 69 69 69 69 69 69 69 69 69 69 69 69 69 69 69 69 69 69 69 69 69 69 69 69 69 69 69 69 69 69 69 69 69 69 69 69 69 69 69 69 69 69 69 69 69 69 69 69 69 69 69 69 69 69 69 69 69 69 69 69 69 69 69 69 69 69 69 69 69 69 69 69 69 69 69 69 69 69 69 69 69 69 69 69 69 69 69 69 69 69 69 69 69 69 69 69 69 69 69 69 69 69 69 69 69 69 69 69 69 69 69 69 69 69 69 69 69 69 69 69 69 69 69 69 69 69 69 69 69 69 69 69 69 69 69 69 69 69 69 69 69 69 69 69 69 69 69 69 69 69 69 69 69 69 69 69 69 69 69 69 69 69 69 69 69 69 69 69 69 69 69 69 69 69 69 69 69 69 69 69 69 69 69 69 69 69 69 69 69 69 69 69 69 69 69 69 69 69 69 69 69 69 69 69 69 69 69 69 69 69 69 69 69 69 69 69 69 69 69 69 69 69 69 69 69 69 69 69 69 69 69 69 69 69 69 69 69 69 69 69 69 69 69 69 69 69 69 69 69 69 69 69 69 69 69 69 69 69 69 69 69 69 69 69 69 69 69 69 69 69 69 69 69 69 69 69 69 69 69 69 69 69 69 69 69 69 69 69 69 69 69 69 69 69 69 69 69 69 69 69 69 69 69 69 69 69 69 69 69 69 69 69 69 69 69 69 69 69 69 69 69 69 69 69 69 69 69 69 69 69 69 69 69 69 69 69 69 69 69 69 69 69 69 69 69 69 69 69 69 69 69 69 69 69 69 69 69 69 69 69 69 69 69 69 69 69 69 69 69 69 69 69 69 69 69 69 69 69 69 69 69 69 69 69 69 69 69 69 69 69 69 69 69 69 69 69 69 69 69 69 69 69 69 69 69 69 69 69 69 69 69 69 69 69 69 69 69 69 69 69 69 69 69 69 69 69 69 69 69 69 69 69 69 69 69 69 69 69 69 69 69 69 69 69 69 69 69 69 69 69 69 69 69 69 69 69 69 69 69 69 69 69 69 69 69 69 69 69 69 69 69 69 69 69 69 69 69 69 69 69 69 69 69 69 69 69 69 69 69 69 69 69 69 69 69 69 69 69 69 69 69 69 69 69 69 69 69 69 69 69 69 69 69 69 69 69 69 69 69 69 69 69 69 69 69 69 69 69 69 69 69 69 69 69 69 69 69 69 69 69 69 69 69 69 69 69 69 69 69 69 69 69 69 69 69 69 69 69 69 69 69 69 69 69 69 69 69 69 69 69 69 69 69 69 69 69 69 69 69 69 69 69 69 69 69 69 69 69 69 69 69 69 69 69 69 69 69 69 69 69 69 69 69 69 69 69 69 69 69 69 69 69 69 69 69 69 69 69 69 69 69 69 69 69 69 69 69 69 69 69 69 69 69 69 69 69 69 69 69 69 69 69 69 69 69 69 69 69 69 69 69 69 69 69 69 69 69 69 69 69 69 69 69 69 69 69 69 69 69 69 69 69 69 69 69 69 69 69 69 69 69 69 69 69 69 69 69 69 69 69 69 69 69 69 69 69 69 69 69 69 69 69 69 69 69 69 69 69 69 69 69 69 69 69 69 69 69 69 69 69 69 69 69 69 69 69 69 69 69 69 69 69 69 69 69 69 69 69 69 69 69 69 69 69 69 69 69 69 69 69 69 69 69 69 69 69 69 69 69 69 69 69 69 69 69 69 69 69 69 69 69 69 69 69 69 69 69 69 69 69 69 69 69 69 69 69 69 69 69 69 69 69 69 69 69 69 69 69 69 69 69 69 69 69 69 69 69 69 69 69 69 69 69 69 69 69 69 69 69 69 69 69 69 69 69 69 69 69 69 69 69 69 69 69 69 69 69 69 69 69 69 69 69 69 69 69 69 69 69 69 69 69 69 69 69 69 69 69 69 69 69 69 69 69 69 69 69 69 69 69 69 69 69 69 69 69 69 69 69 69 69 69 69 69 69 69 69 69 69 69 69 69 69 69 69 69 69 69 69 69 69 69 69 69 69 69 69 69 69 69 69 69 69 69 69 69 69 69 69 69 69 69 69 69 69 69 69 69 69 69 69 69 69 69 69 69 69 69 69 69 69 69 69 69 69 69 69 69 69 69 69 69 69 69 69 69 69 69 69 69 69 69 69 69 69 69 69 69 69 69 69 69 69 69 69 69 69 69 69 69 69 69 69 69 69 69 69 69 69 69 69 69 69 69 69 69 69 69 69 69 69 69 69 69 69 69 69 69 69 69 69 69 69 69 69 69 69 69 69 69 69 69 69 69 69 69 69 69 69 69 69 69 69 69 69 69 69 69 69 69 69 69 69 69 69 69 69 69 69 69 69 69 69 69 69 69 69 69 69 69 69 69 69 69 69 69 69 69 69 69 69 69 69 69 69 69 69 69 69 69 69 69 69 69 69 69 69 69 69 69 69 69 69 69 69 69 69 69 69 69 69 69 69 69 69 69 69 69 69 69 69 69 69 69 69 69 69 69 69 69 69 69 69 69 69 69 69 69 69 69 69 69 69 69 69 69 69 69 69 69 69 69 69 69 69 69 69 69 69 69 69 69 69 69 69 69 69 69 69 69 69 69 69 69 69 69 69 69 69 69 69 69 69 69 69 69 69 69 69 69 69 69 69 69 69 69 69 69 69 69 69 69 69 69 69 69 69 69 69 69 69 69 69 69 69 69 69 69 69 69 69 69 69 69 69 69 69 69 69 69 69 69 69 69 69 69 69 69 69 69 69 69 69 69 69 69 69 69 69 69 69 69 69 69 69 69 69 69 69 69 69 69 69 69 69 69 69 69 69 69 69 69 69 69 69 69 69 69 69 69 69 69 69 69 69 69 69 69 69 69 69 69 69 69 69 69 69 69 69 69 69 69 69 69 69 69 69 69 69 69 69 69 69 69 69 69 69 69 69 69 69 69 69 69 69 69 69 69 69 69 69 69 69 69 69 69 69 69 69 69 69 69 69 69 69 69 69 69 69 69 69 69 69 69 69 69 69 69 69 69 69 69 69 69 69 69 69 69 69 69 69 69 69 69 69 69 69 69 69 69 69 69 69 69 69 69 69 69 69 69 69 69 69 69 69 69 69 69 69 69 69 69 69 69 69 69 69 69 69 69 69 69 69 69 69 69 69 69 69 69 69 69 69 69 69 69 69 69 69 69 69 69 69 69 69 69 69 69 69 69 69 69 69 69 69 69 69 69 69 69 69 69 69 69 69 69 69 69 69 69 69 69 69 69 69 69 69 69 69 69 69 69 69 69 69 69 69 69 69 69 69 69 69 69 69 69 69 69 69 69 69 69 69 69 69 69 69 69 69 69 69 69 69 69 69 69 69 69 69 69 69 69 69 69 69 69 69 69 69 69 69 69 69 69 69 69 69 69 69 69 69 69 69 69 69 69 69 69 69 69 69 69 69 69 69 69 69 69 69 69 69 69 69 69 69 69 69 69 69 69 69 69 69 69 69 69 69 69 69 69 69 69 69 69 69 69 69 69 69 69 69 69 69 69 69 69 69 69 69 69 69 69 69 69 69 69 69 69 69 69 69 69 69 69 69 69 69 69 69 69 69 69 69 69 69 69 69 69 69 69 69 69 69 69 69 69 69 69 69 69 69 69 69 69 69 69 69 69 69 69 69 69 69 69 69 69 69 69 69 69 69 69 69 69 69 69 69 69 69 69 69 69 69 69 69 69 69 69 69 69 69 69 69 69 69 69 69 69 69 69 69 69 69 69 69 69 69 69 69 69 69 69 69 69 69 69 69 69 69 69 69 69 69 69 69 69 69 69 69 69 69 69 69 69 69 69 69 69 69 69 69 69 69 69 69 69 69 69 69 69 69 69 69 69 69 69 69 69 69 69 69 69 69 69 69 69 69 69 69 69 69 69 69 69 69 69 69 69 69 69 69 69 69 69 69 69 69 69 69 69 69 69 69 69 69 69 69 69 69 69 69 69 69 69 69 69 69 69 69 69 69 69 69 69 69 69 69 69 69 69 69 69 69 69 69 69 69 69 69 69 69 69 69 69 69 69 69 69 69 69 69 69 69 69 69 69 69 69 69 69 69 69 69 69 69 69 69 69 69 69 69 69 69 69 69 69 69 69 69 69 69 69 69 69 69 69 69 69 69 69 69 69 69 69 69 69 69 69 69 69 69 69 69 69 69 69 69 69 69 69 69 69 69 69 69 69 69 69 69 69 69 69 69 69 69 69 69 69 69 69 69 69 69 69 69 69 69 69 69 69 69 69 69 69 69 69 69 69 69 69 69 69 69 69 69 69 69 69 69 69 69 69 69 69 69 69 69 69 69 69 69 69 69 69 69 69 69 69 69 69 69 69 69 69 69 69 69 69 69 69 69 69 69 69 69 69 69 69 69 69 69 69 69 69 69 69 69 69 69 69 69 69 69 69 69 69 69 69 69 69 69 69 69 69 69 69 69 69 69 69 69 69 69 69 69 69 69 69 69 69 69 69 69 69 69 69 69 69 69 69 69 69 69 69 69 69 69 69 69 69 69 69 69 69 69 69 69 69 69 69 69 69 69 69 69 69 69 69 69 69 69 69 69 69 69 69 69 69 69 69 69 69 69 69 69 69 69 69 69 69 69 69 69 69 69 69 69 69 69 69 69 69 69 69 69 69 69 69 69 69 69 69 69 69 69 69 69 69 69 69 69 69 69 69 69 69 69 69 69 69 69 69 69 69 69 69 69 69 69 69 69 69 69 69 69 69 69 69 69 69 69 69 69 69 69 69 69 69 69 69 69 69 69 69 69 69 69 69 69 69 69 69 69 69 69 69 69 69 69 69 69 69 69 69 69 69 69 69 69 69 69 69 69 69 69 69 69 69 69 69 69 69 69 69 69 69 69 69 69 69 69 69 69 69 69 69 69 69 69 69 69 69 69 69 69 69 69 69 69 69 69 69 69 69 69 69 69 69 69 69 69 69 69 69 69 69 69 69 69 69 69 69 69 69 69 69 69 69 69 69 69 69 69 69 69 69 69 69 69 69 69 69 69 69 69 69 69 69 69 69 69 69 69 69 69 69 69 69 69 69 69 69 69 69 69 69 69 69 69 69 69 69 69 69 69 69 69 69 69 69 69 69 69 69 69 69 69 69 69 69 69 69 69 69 69 69 69 69 69 69 69 69 69 69 69 69 69 69 69 69 69 69 69 69 69 69 69 69 69 69 69 69 69 69 69 69 69 69 69 69 69 69 69 69 69 69 69 69 69 69 69 69 69 69 69 69 69 69 69 69 69 69 69 69 69 69 69 69 69 69 69 69 69 69 69 69 69 69 69 69 69 69 69 69 69 69 69 69 69 69 69 69 69 69 69 69 69 69 69 69 69 69 69 69 69 69 69 69 69 69 69 69 69 69 69 69 69 69 69 69 69 69 69 69 69 69 69 69 69 69 69 69 69 69 69 69 69 69 69 69 69 69 69 69 69 69 69 69 69 69 69 69 69 69 69 69 69 69 69 69 69 69 69 69 69 69 69 69 69 69 69 69 69 69 69 69 69 69 69 69 69 69 69 69 69 69 69 69 69 69 69 69 69 69 69 69 69 </DataArray>
      </Cells>
      <CellData Tensors="stress" Vectors="von_mises_stress">
        <DataArray type="UInt8" Name="vtkGhostType" format="ascii" RangeMin="0" RangeMax="1">0 0 0 0 0 0 0 0 0 0 0 0 0 0 0 0 0 0 0 0 0 0 0 0 0 0 0 0 0 0 0 0 0 0 0 0 0 0 0 0 0 0 0 0 0 0 0 0 0 0 0 0 0 0 0 0 0 0 0 0 0 0 0 0 0 0 0 0 0 0 0 0 0 0 0 0 0 0 0 0 0 0 0 0 0 0 0 0 0 0 0 0 0 0 0 0 0 0 0 0 0 0 0 0 0 0 0 0 0 0 0 0 0 0 0 0 0 0 0 0 0 0 0 0 0 0 0 0 0 0 0 0 0 0 0 0 0 0 0 0 0 0 0 0 0 0 0 0 0 0 0 0 0 0 0 0 0 0 0 0 0 0 0 0 0 0 0 0 0 0 0 0 0 0 0 0 0 0 0 0 0 0 0 0 0 0 0 0 0 0 0 0 0 0 0 0 0 0 0 0 0 0 0 0 0 0 0 0 0 0 0 0 0 0 0 0 0 0 0 0 0 0 0 0 0 0 0 0 0 0 0 0 0 0 0 0 0 0 0 0 0 0 0 0 0 0 0 0 0 0 0 0 0 0 0 0 0 0 0 0 0 0 0 0 0 0 0 0 0 0 0 0 0 0 0 0 0 0 0 0 0 0 0 0 0 0 0 0 0 0 0 0 0 0 0 0 0 0 0 0 0 0 0 0 0 0 0 0 0 0 0 0 0 0 0 0 0 0 0 0 0 0 0 0 0 0 0 0 0 0 0 0 0 0 0 0 0 0 0 0 0 0 0 0 0 0 0 0 0 0 0 0 0 0 0 0 0 0 0 0 0 0 0 0 0 0 0 0 0 0 0 0 0 0 0 0 0 0 0 0 0 0 0 0 0 0 0 0 0 0 0 0 0 0 0 0 0 0 0 0 0 0 0 0 0 0 0 0 0 0 0 0 0 0 0 0 0 0 0 0 0 0 0 0 0 0 0 0 0 0 0 0 0 0 0 0 0 0 0 0 0 0 0 0 0 0 0 0 0 0 0 0 0 0 0 0 0 0 0 0 0 0 0 0 0 0 0 0 0 0 0 0 0 0 0 0 0 0 0 0 0 0 0 0 0 0 0 0 0 0 0 0 0 0 0 0 0 0 0 0 0 0 0 0 0 0 0 0 0 0 0 0 0 0 0 0 0 0 0 0 0 0 0 0 0 0 0 0 0 0 0 0 0 0 0 0 0 0 0 0 0 0 0 0 0 0 0 0 0 0 0 0 0 0 0 0 0 0 0 0 0 0 0 0 0 0 0 0 0 0 0 0 0 0 0 0 0 0 0 0 0 0 0 0 0 0 0 0 0 0 0 0 0 0 0 0 0 0 0 0 0 0 0 0 0 0 0 0 0 0 0 0 0 0 0 0 0 0 0 0 0 0 0 0 0 0 0 0 0 0 0 0 0 0 0 0 0 0 0 0 0 0 0 0 0 0 0 0 0 0 0 0 0 0 0 0 0 0 0 0 0 0 0 0 0 0 0 0 0 0 0 0 0 0 0 0 0 0 0 0 0 0 0 0 0 0 0 0 0 0 0 0 0 0 0 0 0 0 0 0 0 0 0 0 0 0 0 0 0 0 0 0 0 0 0 0 0 0 0 0 0 0 0 0 0 0 0 0 0 0 0 0 0 0 0 0 0 0 0 0 0 0 0 0 0 0 0 0 0 0 0 0 0 0 0 0 0 0 0 0 0 0 0 0 0 0 0 0 0 0 0 0 0 0 0 0 0 0 0 0 0 0 0 0 0 0 0 0 0 0 0 0 0 0 0 0 0 0 0 0 0 0 0 0 0 0 0 0 0 0 0 0 0 0 0 0 0 0 0 0 0 0 0 0 0 0 0 0 0 0 0 0 0 0 0 0 0 0 0 0 0 0 0 0 0 0 0 0 0 0 0 0 0 0 0 0 0 0 0 0 0 0 0 0 0 0 0 0 0 0 0 0 0 0 0 0 0 0 0 0 0 0 0 0 0 0 0 0 0 0 0 0 0 0 0 0 0 0 0 0 0 0 0 0 0 0 0 0 0 0 0 0 0 0 0 0 0 0 0 0 0 0 0 0 0 0 0 0 0 0 0 0 0 0 0 0 0 0 0 0 0 0 0 0 0 0 0 0 0 0 0 0 0 0 0 0 0 0 0 0 0 0 0 0 0 0 0 0 0 0 0 0 0 0 0 0 0 0 0 0 0 0 0 0 0 0 0 0 0 0 0 0 0 0 0 0 0 0 0 0 0 0 0 0 0 0 0 0 0 0 0 0 0 0 0 0 0 0 0 0 0 0 0 0 0 0 0 0 0 0 0 0 0 0 0 0 0 0 0 0 0 0 0 0 0 0 0 0 0 0 0 0 0 0 0 0 0 0 0 0 0 0 0 0 0 0 0 0 0 0 0 0 0 0 0 0 0 0 0 0 0 0 0 0 0 0 0 0 0 0 0 0 0 0 0 0 0 0 0 0 0 0 0 0 0 0 0 0 0 0 0 0 0 0 0 0 0 0 0 0 0 0 0 0 0 0 0 0 0 0 0 0 0 0 0 0 0 0 0 0 0 0 0 0 0 0 0 0 0 0 0 0 0 0 0 0 0 0 0 0 0 0 0 0 0 0 0 0 0 0 0 0 0 0 0 0 0 0 0 0 0 0 0 0 0 0 0 0 0 0 0 0 0 0 0 0 0 0 0 0 0 0 0 0 0 0 0 0 0 0 0 0 0 0 0 0 0 0 0 0 0 0 0 0 0 0 0 0 0 0 0 0 0 0 0 0 0 0 0 0 0 0 0 0 0 0 0 0 0 0 0 0 0 0 0 0 0 0 0 0 0 0 0 0 0 0 0 0 0 0 0 0 0 0 0 0 0 0 0 0 0 0 0 0 0 0 0 0 0 0 0 0 0 0 0 0 0 0 0 0 0 0 0 0 0 0 0 0 0 0 0 0 0 0 0 0 0 0 0 0 0 0 0 0 0 0 0 0 0 0 0 0 0 0 0 0 0 0 0 0 0 0 0 0 0 0 0 0 0 0 0 0 0 0 0 0 0 0 0 0 0 0 0 0 0 0 0 0 0 0 0 0 0 0 0 0 0 0 0 0 0 0 0 0 0 0 0 0 0 0 0 0 0 0 0 0 0 0 0 0 0 0 0 0 0 0 0 0 0 0 0 0 0 0 0 0 0 0 0 0 0 0 0 0 0 0 0 0 0 0 0 0 0 0 0 0 0 0 0 0 0 0 0 0 0 0 0 0 0 0 0 0 0 0 0 0 0 0 0 0 0 0 0 0 0 0 0 0 0 0 0 0 0 0 0 0 0 0 0 0 0 0 0 0 0 0 0 0 0 0 0 0 0 0 0 0 0 0 0 0 0 0 0 0 0 0 0 0 0 0 0 0 0 0 0 0 0 0 0 0 0 0 0 0 0 0 0 0 0 0 0 0 0 0 0 0 0 0 0 0 0 0 0 0 0 0 0 0 0 0 0 0 0 0 0 0 0 0 0 0 0 0 0 0 0 0 0 0 0 0 0 0 0 0 0 0 0 0 0 0 0 0 0 0 0 0 0 0 0 0 0 0 0 0 0 0 0 0 0 0 0 0 0 0 0 0 0 0 0 0 0 0 0 0 0 0 0 0 0 0 0 0 0 0 0 0 0 0 0 0 0 0 0 0 0 0 0 0 0 0 0 0 0 0 0 0 0 0 0 0 0 0 0 0 0 0 0 0 0 0 0 0 0 0 0 0 0 0 0 0 0 0 0 0 0 0 0 0 0 0 0 0 0 0 0 0 0 0 0 0 0 0 0 0 0 0 0 0 0 0 0 0 0 0 0 0 0 0 0 0 0 0 0 0 0 0 0 0 0 0 0 0 0 0 0 0 0 0 0 0 0 0 0 0 0 0 0 0 0 0 0 0 0 0 0 0 0 0 0 0 0 0 0 0 0 0 0 0 0 0 0 0 0 0 0 0 0 0 0 0 0 0 0 0 0 0 0 0 0 0 0 0 0 0 0 0 0 0 0 0 0 0 0 0 0 0 0 0 0 0 0 0 0 0 0 0 0 0 0 0 0 0 0 0 0 0 0 0 0 0 0 0 0 0 0 0 0 0 0 0 0 0 0 0 0 0 0 0 0 0 0 0 0 0 0 0 0 0 0 0 0 0 0 0 0 0 0 0 0 0 0 0 0 0 0 0 0 0 0 0 0 0 0 0 0 0 0 0 0 0 0 0 0 0 0 0 0 0 0 0 0 0 0 0 0 0 0 0 0 0 0 0 0 0 0 0 0 0 0 0 0 0 0 0 0 0 0 0 0 0 0 0 0 0 0 0 0 0 0 0 0 0 0 0 0 0 0 0 0 0 0 0 0 0 0 0 0 0 0 0 0 0 0 0 0 0 0 0 0 0 0 0 0 0 0 0 0 0 0 0 0 0 0 0 0 0 0 0 0 0 0 0 0 0 0 0 0 0 0 0 0 0 0 0 0 0 0 0 0 0 0 0 0 0 0 0 0 0 0 0 0 0 0 0 0 0 0 0 0 0 0 0 0 0 0 0 0 0 0 0 0 0 0 0 0 0 0 0 0 0 0 0 0 0 0 0 0 0 0 0 0 0 0 0 0 0 0 0 0 0 0 0 0 0 0 0 0 0 0 0 0 0 0 0 0 0 0 0 0 0 0 0 0 0 0 0 0 0 0 0 0 0 0 0 0 0 0 0 0 0 0 0 0 0 0 0 0 0 0 0 0 0 0 0 0 0 0 0 0 0 0 0 0 0 0 0 0 0 0 0 0 0 0 0 0 0 0 0 0 0 0 0 0 0 0 0 0 0 0 0 0 0 0 0 0 0 0 0 0 0 0 0 0 0 0 0 0 0 0 0 0 0 0 0 0 0 0 0 0 0 0 0 0 0 0 0 0 0 0 0 0 0 0 0 0 0 0 0 0 0 0 0 0 0 0 0 0 0 0 0 0 0 0 0 0 0 0 0 0 0 0 0 0 0 0 0 0 0 0 0 0 0 0 0 0 0 0 0 0 0 0 0 0 0 0 0 0 0 0 0 0 0 0 0 0 0 0 0 0 0 0 0 0 0 0 0 0 0 0 0 0 0 0 0 0 0 0 0 0 0 0 0 0 0 0 0 0 0 0 0 0 0 0 0 0 0 0 0 0 0 0 0 0 0 0 0 0 0 0 0 0 0 0 0 0 0 0 0 0 0 0 0 0 0 0 0 0 0 0 0 0 0 0 0 0 0 0 0 0 0 0 0 0 0 0 0 0 0 0 0 0 0 0 0 0 0 0 0 0 0 0 0 0 0 0 0 0 0 0 0 0 0 0 0 0 0 0 0 0 0 0 0 0 0 0 0 0 0 0 0 0 0 0 0 0 0 0 0 0 0 0 0 0 0 0 0 0 0 0 0 0 0 0 0 0 0 0 0 0 0 0 0 0 0 0 0 0 0 0 0 0 0 0 0 0 0 0 0 0 0 0 0 0 0 0 0 0 0 0 0 0 0 0 0 0 0 0 0 0 0 0 0 0 0 0 0 0 0 0 0 0 0 0 0 0 0 0 0 0 0 0 0 0 0 0 0 0 0 0 0 0 0 0 0 0 0 0 0 0 0 0 0 0 0 0 0 0 0 0 0 0 0 0 0 0 0 0 0 0 0 0 0 0 0 0 0 0 0 0 0 0 0 0 0 0 0 0 0 0 0 0 0 0 0 0 0 0 0 0 0 0 0 0 0 0 0 0 0 0 0 0 0 0 0 0 0 0 0 0 0 0 0 0 0 0 0 0 0 0 0 0 0 0 0 0 0 0 0 0 0 0 0 0 0 0 0 0 0 0 0 0 0 0 0 0 0 0 0 0 0 0 0 0 0 0 0 0 0 0 0 0 0 0 0 0 0 0 0 0 0 0 0 0 0 0 0 0 0 0 0 0 0 0 0 0 0 0 0 0 0 0 0 0 0 0 0 0 0 0 0 0 0 0 0 0 0 0 0 0 0 0 0 0 0 0 0 0 0 0 0 0 0 0 0 0 0 0 0 0 0 0 0 0 0 0 0 0 0 0 0 0 0 0 0 0 0 0 0 0 0 0 0 0 0 0 0 0 0 0 0 0 0 0 0 0 0 0 0 0 0 0 0 0 0 0 0 0 0 0 0 0 0 0 0 0 0 0 0 0 0 0 0 0 0 0 0 0 0 0 0 0 0 0 0 0 0 0 0 0 0 0 0 0 0 0 0 0 0 0 0 0 0 0 0 0 0 0 0 0 0 0 0 0 0 0 0 0 0 0 0 0 0 0 0 0 0 0 0 0 0 0 0 0 0 0 0 0 0 0 0 0 0 0 0 0 0 0 0 0 0 0 0 0 0 0 0 0 0 0 0 0 0 0 0 0 0 0 0 0 0 0 0 0 0 0 0 0 0 0 0 0 0 0 0 0 0 0 0 0 0 0 0 0 0 0 0 0 0 0 0 0 0 0 0 0 0 0 0 0 0 0 0 0 0 0 0 0 0 0 0 0 0 0 0 0 0 0 0 0 0 0 0 0 0 0 0 0 0 0 0 0 0 0 0 0 0 0 0 0 0 0 0 0 0 0 0 0 0 0 0 0 0 0 0 0 0 0 0 0 0 0 0 0 0 0 0 0 0 0 0 0 0 0 0 0 0 0 0 0 0 0 0 0 0 0 0 0 0 0 0 0 0 0 0 0 0 0 0 0 0 0 0 0 0 0 0 0 0 0 0 0 0 0 0 0 0 0 0 0 0 0 0 0 0 0 0 0 0 0 0 0 0 0 0 0 0 0 0 0 0 0 0 0 0 0 0 0 0 0 0 0 0 0 0 0 0 0 0 0 0 0 0 0 0 0 0 0 0 0 0 0 0 0 0 0 0 0 0 0 0 0 0 0 0 0 0 0 0 0 0 0 0 0 0 0 0 0 0 0 0 0 0 0 0 0 0 0 0 0 0 0 0 0 0 0 0 0 0 0 0 0 0 0 0 0 0 0 0 0 0 0 0 0 0 0 0 0 0 0 0 0 0 0 0 0 0 0 0 0 0 0 0 0 0 0 0 0 0 0 0 0 0 0 0 0 0 0 0 0 0 0 0 0 0 0 0 0 0 0 0 0 0 0 0 0 0 0 0 0 0 0 0 0 0 0 0 0 0 0 0 0 0 0 0 0 0 0 0 0 0 0 0 0 0 0 0 0 0 0 0 0 0 0 0 0 0 0 0 0 0 0 0 0 0 0 0 0 0 0 0 0 0 0 0 0 0 0 0 0 0 0 0 0 0 0 0 0 0 0 0 0 0 0 0 0 0 0 0 0 0 0 0 0 0 0 0 0 0 0 0 0 0 0 0 0 0 0 0 0 0 0 0 0 0 0 0 0 0 0 0 0 0 0 0 0 0 0 0 0 0 0 0 0 0 0 0 0 0 0 0 0 0 0 0 0 0 0 0 0 0 0 0 0 0 0 0 0 0 0 0 0 0 0 0 0 0 0 0 0 0 0 0 0 0 0 0 0 0 0 0 0 0 0 0 0 0 0 0 0 0 0 0 0 0 0 0 0 0 0 0 0 0 0 0 0 0 0 0 0 0 0 0 0 0 0 0 0 0 0 0 0 0 0 0 0 0 0 0 0 0 0 0 0 0 0 0 0 0 0 0 0 0 0 0 0 0 0 0 0 0 0 0 0 0 0 0 0 0 0 0 0 0 0 0 0 0 0 0 0 0 0 0 0 0 0 0 0 0 0 0 0 0 0 0 0 0 0 0 0 0 0 0 0 0 0 0 0 </DataArray>
        <DataArray type="Int64" IdType="1" Name="vtkOriginalCellIds" format="ascii" RangeMin="0" RangeMax="3466">0 1 2 3 4 5 6 7 8 9 10 11 12 13 14 15 16 17 18 19 20 21 22 23 24 25 26 27 28 29 30 31 32 33 34 35 36 37 38 39 40 41 42 43 44 45 46 47 48 49 50 51 52 53 54 55 56 57 58 59 60 61 62 63 64 65 66 67 68 69 70 71 72 73 74 75 76 77 78 79 80 81 82 83 84 85 86 87 88 89 90 91 92 93 94 95 96 97 98 99 100 101 102 103 104 105 106 107 108 109 110 111 112 113 114 115 116 117 118 119 120 121 122 123 124 125 126 127 128 129 130 131 132 133 134 135 136 137 138 139 140 141 142 143 144 145 146 147 148 149 150 151 152 153 154 155 156 157 158 159 160 161 162 163 164 165 166 167 168 169 170 171 172 173 174 175 176 177 178 179 180 181 182 183 184 185 186 187 188 189 190 191 192 193 194 195 196 197 198 199 200 201 202 203 204 205 206 207 208 209 210 211 212 213 214 215 216 217 218 219 220 221 222 223 224 225 226 227 228 229 230 231 232 233 234 235 236 237 238 239 240 241 242 243 244 245 246 247 248 249 250 251 252 253 254 255 256 257 258 259 260 261 262 263 264 265 266 267 268 269 270 271 272 273 274 275 276 277 278 279 280 281 282 283 284 285 286 287 288 289 290 291 292 293 294 295 296 297 298 299 300 301 302 303 304 305 306 307 308 309 310 311 312 313 314 315 316 317 318 319 320 321 322 323 324 325 326 327 328 329 330 331 332 333 334 335 336 337 338 339 340 341 342 343 344 345 346 347 348 349 350 351 352 353 354 355 356 357 358 359 360 361 362 363 364 365 366 367 368 369 370 371 372 373 374 375 376 377 378 379 380 381 382 383 384 385 386 387 388 389 390 391 392 393 394 395 396 397 398 399 400 401 402 403 404 405 406 407 408 409 410 411 412 413 414 415 416 417 418 419 420 421 422 423 424 425 426 427 428 429 430 431 432 433 434 435 436 437 438 439 440 441 442 443 444 445 446 447 448 449 450 451 452 453 454 455 456 457 458 459 460 461 462 463 464 465 466 467 468 469 470 471 472 473 474 475 476 477 478 479 480 481 482 483 484 485 486 487 488 489 490 491 492 493 494 495 496 497 498 499 500 501 502 503 504 505 506 507 508 509 510 511 512 513 514 515 516 517 518 519 520 521 522 523 524 525 526 527 528 529 530 531 532 533 534 535 536 537 538 539 540 541 542 543 544 545 546 547 548 549 550 551 552 553 554 555 556 557 558 559 560 561 562 563 564 565 566 567 568 569 570 571 572 573 574 575 576 577 578 579 580 581 582 583 584 585 586 587 588 589 590 591 592 593 594 595 596 597 598 599 600 601 602 603 604 605 606 607 608 609 610 611 612 613 614 615 616 617 618 619 620 621 622 623 624 625 626 627 628 629 630 631 632 633 634 635 636 637 638 639 640 641 642 643 644 645 646 647 648 649 650 651 652 653 654 655 656 657 658 659 660 661 662 663 664 665 666 667 668 669 670 671 672 673 674 675 676 677 678 679 680 681 682 683 684 685 686 687 688 689 690 691 692 693 694 695 696 697 698 699 700 701 702 703 704 705 706 707 708 709 710 711 712 713 714 715 716 717 718 719 720 721 722 723 724 725 726 727 728 729 730 731 732 733 734 735 736 737 738 739 740 741 742 743 744 745 746 747 748 749 750 751 752 753 754 755 756 757 758 759 760 761 762 763 764 765 766 767 768 769 770 771 772 773 774 775 776 777 778 779 780 781 782 783 784 785 786 787 788 789 790 791 792 793 794 795 796 797 798 799 800 801 802 803 804 805 806 807 808 809 810 811 812 813 814 815 816 817 818 819 820 821 822 823 824 825 826 827 828 829 830 831 832 833 834 835 836 837 838 839 840 841 842 843 844 845 846 847 848 849 850 851 852 853 854 855 856 857 858 859 860 861 862 863 864 865 866 867 868 869 870 871 872 873 874 875 876 877 878 879 880 881 882 883 884 885 886 887 888 889 890 891 892 893 894 895 896 897 898 899 900 901 902 903 904 905 906 907 908 909 910 911 912 913 914 915 916 917 918 919 920 921 922 923 924 925 926 927 928 929 930 931 932 933 934 935 936 937 938 939 940 941 942 943 944 945 946 947 948 949 950 951 952 953 954 955 956 957 958 959 960 961 962 963 964 965 966 967 968 969 970 971 972 973 974 975 976 977 978 979 980 981 982 983 984 985 986 987 988 989 990 991 992 993 994 995 996 997 998 999 1000 1001 1002 1003 1004 1005 1006 1007 1008 1009 1010 1011 1012 1013 1014 1015 1016 1017 1018 1019 1020 1021 1022 1023 1024 1025 1026 1027 1028 1029 1030 1031 1032 1033 1034 1035 1036 1037 1038 1039 1040 1041 1042 1043 1044 1045 1046 1047 1048 1049 1050 1051 1052 1053 1054 1055 1056 1057 1058 1059 1060 1061 1062 1063 1064 1065 1066 1067 1068 1069 1070 1071 1072 1073 1074 1075 1076 1077 1078 1079 1080 1081 1082 1083 1084 1085 1086 1087 1088 1089 1090 1091 1092 1093 1094 1095 1096 1097 1098 1099 1100 1101 1102 1103 1104 1105 1106 1107 1108 1109 1110 1111 1112 1113 1114 1115 1116 1117 1118 1119 1120 1121 1122 1123 1124 1125 1126 1127 1128 1129 1130 1131 1132 1133 1134 1135 1136 1137 1138 1139 1140 1141 1142 1143 1144 1145 1146 1147 1148 1149 1150 1151 1152 1153 1154 1155 1156 1157 1158 1159 1160 1161 1162 1163 1164 1165 1166 1167 1168 1169 1170 1171 1172 1173 1174 1175 1176 1177 1178 1179 1180 1181 1182 1183 1184 1185 1186 1187 1188 1189 1190 1191 1192 1193 1194 1195 1196 1197 1198 1199 1200 1201 1202 1203 1204 1205 1206 1207 1208 1209 1210 1211 1212 1213 1214 1215 1216 1217 1218 1219 1220 1221 1222 1223 1224 1225 1226 1227 1228 1229 1230 1231 1232 1233 1234 1235 1236 1237 1238 1239 1240 1241 1242 1243 1244 1245 1246 1247 1248 1249 1250 1251 1252 1253 1254 1255 1256 1257 1258 1259 1260 1261 1262 1263 1264 1265 1266 1267 1268 1269 1270 1271 1272 1273 1274 1275 1276 1277 1278 1279 1280 1281 1282 1283 1284 1285 1286 1287 1288 1289 1290 1291 1292 1293 1294 1295 1296 1297 1298 1299 1300 1301 1302 1303 1304 1305 1306 1307 1308 1309 1310 1311 1312 1313 1314 1315 1316 1317 1318 1319 1320 1321 1322 1323 1324 1325 1326 1327 1328 1329 1330 1331 1332 1333 1334 1335 1336 1337 1338 1339 1340 1341 1342 1343 1344 1345 1346 1347 1348 1349 1350 1351 1352 1353 1354 1355 1356 1357 1358 1359 1360 1361 1362 1363 1364 1365 1366 1367 1368 1369 1370 1371 1372 1373 1374 1375 1376 1377 1378 1379 1380 1381 1382 1383 1384 1385 1386 1387 1388 1389 1390 1391 1392 1393 1394 1395 1396 1397 1398 1399 1400 1401 1402 1403 1404 1405 1406 1407 1408 1409 1410 1411 1412 1413 1414 1415 1416 1417 1418 1419 1420 1421 1422 1423 1424 1425 1426 1427 1428 1429 1430 1431 1432 1433 1434 1435 1436 1437 1438 1439 1440 1441 1442 1443 1444 1445 1446 1447 1448 1449 1450 1451 1452 1453 1454 1455 1456 1457 1458 1459 1460 1461 1462 1463 1464 1465 1466 1467 1468 1469 1470 1471 1472 1473 1474 1475 1476 1477 1478 1479 1480 1481 1482 1483 1484 1485 1486 1487 1488 1489 1490 1491 1492 1493 1494 1495 1496 1497 1498 1499 1500 1501 1502 1503 1504 1505 1506 1507 1508 1509 1510 1511 1512 1513 1514 1515 1516 1517 1518 1519 1520 1521 1522 1523 1524 1525 1526 1527 1528 1529 1530 1531 1532 1533 1534 1535 1536 1537 1538 1539 1540 1541 1542 1543 1544 1545 1546 1547 1548 1549 1550 1551 1552 1553 1554 1555 1556 1557 1558 1559 1560 1561 1562 1563 1564 1565 1566 1567 1568 1569 1570 1571 1572 1573 1574 1575 1576 1577 1578 1579 1580 1581 1582 1583 1584 1585 1586 1587 1588 1589 1590 1591 1592 1593 1594 1595 1596 1597 1598 1599 1600 1601 1602 1603 1604 1605 1606 1607 1608 1609 1610 1611 1612 1613 1614 1615 1616 1617 1618 1619 1620 1621 1622 1623 1624 1625 1626 1627 1628 1629 1630 1631 1632 1633 1634 1635 1636 1637 1638 1639 1640 1641 1642 1643 1644 1645 1646 1647 1648 1649 1650 1651 1652 1653 1654 1655 1656 1657 1658 1659 1660 1661 1662 1663 1664 1665 1666 1667 1668 1669 1670 1671 1672 1673 1674 1675 1676 1677 1678 1679 1680 1681 1682 1683 1684 1685 1686 1687 1688 1689 1690 1691 1692 1693 1694 1695 1696 1697 1698 1699 1700 1701 1702 1703 1704 1705 1706 1707 1708 1709 1710 1711 1712 1713 1714 1715 1716 1717 1718 1719 1720 1721 1722 1723 1724 1725 1726 1727 1728 1729 1730 1731 1732 1733 1734 1735 1736 1737 1738 1739 1740 1741 1742 1743 1744 1745 1746 1747 1748 1749 1750 1751 1752 1753 1754 1755 1756 1757 1758 1759 1760 1761 1762 1763 1764 1765 1766 1767 1768 1769 1770 1771 1772 1773 1774 1775 1776 1777 1778 1779 1780 1781 1782 1783 1784 1785 1786 1787 1788 1789 1790 1791 1792 1793 1794 1795 1796 1797 1798 1799 1800 1801 1802 1803 1804 1805 1806 1807 1808 1809 1810 1811 1812 1813 1814 1815 1816 1817 1818 1819 1820 1821 1822 1823 1824 1825 1826 1827 1828 1829 1830 1831 1832 1833 1834 1835 1836 1837 1838 1839 1840 1841 1842 1843 1844 1845 1846 1847 1848 1849 1850 1851 1852 1853 1854 1855 1856 1857 1858 1859 1860 1861 1862 1863 1864 1865 1866 1867 1868 1869 1870 1871 1872 1873 1874 1875 1876 1877 1878 1879 1880 1881 1882 1883 1884 1885 1886 1887 1888 1889 1890 1891 1892 1893 1894 1895 1896 1897 1898 1899 1900 1901 1902 1903 1904 1905 1906 1907 1908 1909 1910 1911 1912 1913 1914 1915 1916 1917 1918 1919 1920 1921 1922 1923 1924 1925 1926 1927 1928 1929 1930 1931 1932 1933 1934 1935 1936 1937 1938 1939 1940 1941 1942 1943 1944 1945 1946 1947 1948 1949 1950 1951 1952 1953 1954 1955 1956 1957 1958 1959 1960 1961 1962 1963 1964 1965 1966 1967 1968 1969 1970 1971 1972 1973 1974 1975 1976 1977 1978 1979 1980 1981 1982 1983 1984 1985 1986 1987 1988 1989 1990 1991 1992 1993 1994 1995 1996 1997 1998 1999 2000 2001 2002 2003 2004 2005 2006 2007 2008 2009 2010 2011 2012 2013 2014 2015 2016 2017 2018 2019 2020 2021 2022 2023 2024 2025 2026 2027 2028 2029 2030 2031 2032 2033 2034 2035 2036 2037 2038 2039 2040 2041 2042 2043 2044 2045 2046 2047 2048 2049 2050 2051 2052 2053 2054 2055 2056 2057 2058 2059 2060 2061 2062 2063 2064 2065 2066 2067 2068 2069 2070 2071 2072 2073 2074 2075 2076 2077 2078 2079 2080 2081 2082 2083 2084 2085 2086 2087 2088 2089 2090 2091 2092 2093 2094 2095 2096 2097 2098 2099 2100 2101 2102 2103 2104 2105 2106 2107 2108 2109 2110 2111 2112 2113 2114 2115 2116 2117 2118 2119 2120 2121 2122 2123 2124 2125 2126 2127 2128 2129 2130 2131 2132 2133 2134 2135 2136 2137 2138 2139 2140 2141 2142 2143 2144 2145 2146 2147 2148 2149 2150 2151 2152 2153 2154 2155 2156 2157 2158 2159 2160 2161 2162 2163 2164 2165 2166 2167 2168 2169 2170 2171 2172 2173 2174 2175 2176 2177 2178 2179 2180 2181 2182 2183 2184 2185 2186 2187 2188 2189 2190 2191 2192 2193 2194 2195 2196 2197 2198 2199 2200 2201 2202 2203 2204 2205 2206 2207 2208 2209 2210 2211 2212 2213 2214 2215 2216 2217 2218 2219 2220 2221 2222 2223 2224 2225 2226 2227 2228 2229 2230 2231 2232 2233 2234 2235 2236 2237 2238 2239 2240 2241 2242 2243 2244 2245 2246 2247 2248 2249 2250 2251 2252 2253 2254 2255 2256 2257 2258 2259 2260 2261 2262 2263 2264 2265 2266 2267 2268 2269 2270 2271 2272 2273 2274 2275 2276 2277 2278 2279 2280 2281 2282 2283 2284 2285 2286 2287 2288 2289 2290 2291 2292 2293 2294 2295 2296 2297 2298 2299 2300 2301 2302 2303 2304 2305 2306 2307 2308 2309 2310 2311 2312 2313 2314 2315 2316 2317 2318 2319 2320 2321 2322 2323 2324 2325 2326 2327 2328 2329 2330 2331 2332 2333 2334 2335 2336 2337 2338 2339 2340 2341 2342 2343 2344 2345 2346 2347 2348 2349 2350 2351 2352 2353 2354 2355 2356 2357 2358 2359 2360 2361 2362 2363 2364 2365 2366 2367 2368 2369 2370 2371 2372 2373 2374 2375 2376 2377 2378 2379 2380 2381 2382 2383 2384 2385 2386 2387 2388 2389 2390 2391 2392 2393 2394 2395 2396 2397 2398 2399 2400 2401 2402 2403 2404 2405 2406 2407 2408 2409 2410 2411 2412 2413 2414 2415 2416 2417 2418 2419 2420 2421 2422 2423 2424 2425 2426 2427 2428 2429 2430 2431 2432 2433 2434 2435 2436 2437 2438 2439 2440 2441 2442 2443 2444 2445 2446 2447 2448 2449 2450 2451 2452 2453 2454 2455 2456 2457 2458 2459 2460 2461 2462 2463 2464 2465 2466 2467 2468 2469 2470 2471 2472 2473 2474 2475 2476 2477 2478 2479 2480 2481 2482 2483 2484 2485 2486 2487 2488 2489 2490 2491 2492 2493 2494 2495 2496 2497 2498 2499 2500 2501 2502 2503 2504 2505 2506 2507 2508 2509 2510 2511 2512 2513 2514 2515 2516 2517 2518 2519 2520 2521 2522 2523 2524 2525 2526 2527 2528 2529 2530 2531 2532 2533 2534 2535 2536 2537 2538 2539 2540 2541 2542 2543 2544 2545 2546 2547 2548 2549 2550 2551 2552 2553 2554 2555 2556 2557 2558 2559 2560 2561 2562 2563 2564 2565 2566 2567 2568 2569 2570 2571 2572 2573 2574 2575 2576 2577 2578 2579 2580 2581 2582 2583 2584 2585 2586 2587 2588 2589 2590 2591 2592 2593 2594 2595 2596 2597 2598 2599 2600 2601 2602 2603 2604 2605 2606 2607 2608 2609 2610 2611 2612 2613 2614 2615 2616 2617 2618 2619 2620 2621 2622 2623 2624 2625 2626 2627 2628 2629 2630 2631 2632 2633 2634 2635 2636 2637 2638 2639 2640 2641 2642 2643 2644 2645 2646 2647 2648 2649 2650 2651 2652 2653 2654 2655 2656 2657 2658 2659 2660 2661 2662 2663 2664 2665 2666 2667 2668 2669 2670 2671 2672 2673 2674 2675 2676 2677 2678 2679 2680 2681 2682 2683 2684 2685 2686 2687 2688 2689 2690 2691 2692 2693 2694 2695 2696 2697 2698 2699 2700 2701 2702 2703 2704 2705 2706 2707 2708 2709 2710 2711 2712 2713 2714 2715 2716 2717 2718 2719 2720 2721 2722 2723 2724 2725 2726 2727 2728 2729 2730 2731 2732 2733 2734 2735 2736 2737 2738 2739 2740 2741 2742 2743 2744 2745 2746 2747 2748 2749 2750 2751 2752 2753 2754 2755 2756 2757 2758 2759 2760 2761 2762 2763 2764 2765 2766 2767 2768 2769 2770 2771 2772 2773 2774 2775 2776 2777 2778 2779 2780 2781 2782 2783 2784 2785 2786 2787 2788 2789 2790 2791 2792 2793 2794 2795 2796 2797 2798 2799 2800 2801 2802 2803 2804 2805 2806 2807 2808 2809 2810 2811 2812 2813 2814 2815 2816 2817 2818 2819 2820 2821 2822 2823 2824 2825 2826 2827 2828 2829 2830 2831 2832 2833 2834 2835 2836 2837 2838 2839 2840 2841 2842 2843 2844 2845 2846 2847 2848 2849 2850 2851 2852 2853 2854 2855 2856 2857 2858 2859 2860 2861 2862 2863 2864 2865 2866 2867 2868 2869 2870 2871 2872 2873 2874 2875 2876 2877 2878 2879 2880 2881 2882 2883 2884 2885 2886 2887 2888 2889 2890 2891 2892 2893 2894 2895 2896 2897 2898 2899 2900 2901 2902 2903 2904 2905 2906 2907 2908 2909 2910 2911 2912 2913 2914 2915 2916 2917 2918 2919 2920 2921 2922 2923 2924 2925 2926 2927 2928 2929 2930 2931 2932 2933 2934 2935 2936 2937 2938 2939 2940 2941 2942 2943 2944 2945 2946 2947 2948 2949 2950 2951 2952 2953 2954 2955 2956 2957 2958 2959 2960 2961 2962 2963 2964 2965 2966 2967 2968 2969 2970 2971 2972 2973 2974 2975 2976 2977 2978 2979 2980 2981 2982 2983 2984 2985 2986 2987 2988 2989 2990 2991 2992 2993 2994 2995 2996 2997 2998 2999 3000 3001 3002 3003 3004 3005 3006 3007 3008 3009 3010 3011 3012 3013 3014 3015 3016 3017 3018 3019 3020 3021 3022 3023 3024 3025 3026 3027 3028 3029 3030 3031 3032 3033 3034 3035 3036 3037 3038 3039 3040 3041 3042 3043 3044 3045 3046 3047 3048 3049 3050 3051 3052 3053 3054 3055 3056 3057 3058 3059 3060 3061 3062 3063 3064 3065 3066 3067 3068 3069 3070 3071 3072 3073 3074 3075 3076 3077 3078 3079 3080 3081 3082 3083 3084 3085 3086 3087 3088 3089 3090 3091 3092 3093 3094 3095 3096 3097 3098 3099 3100 3101 3102 3103 3104 3105 3106 3107 3108 3109 3110 3111 3112 3113 3114 3115 3116 3117 3118 3119 3120 3121 3122 3123 3124 3125 3126 3127 3128 3129 3130 3131 3132 3133 3134 3135 3136 3137 3138 3139 3140 3141 3142 3143 3144 3145 3146 3147 3148 3149 3150 3151 3152 3153 3154 3155 3156 3157 3158 3159 3160 3161 3162 3163 3164 3165 3166 3167 3168 3169 3170 3171 3172 3173 3174 3175 3176 3177 3178 3179 3180 3181 3182 3183 3184 3185 3186 3187 3188 3189 3190 3191 3192 3193 3194 3195 3196 3197 3198 3199 3200 3201 3202 3203 3204 3205 3206 3207 3208 3209 3210 3211 3212 3213 3214 3215 3216 3217 3218 3219 3220 3221 3222 3223 3224 3225 3226 3227 3228 3229 3230 3231 3232 3233 3234 3235 3236 3237 3238 3239 3240 3241 3242 3243 3244 3245 3246 3247 3248 3249 3250 3251 3252 3253 3254 3255 3256 3257 3258 3259 3260 3261 3262 3263 3264 3265 3266 3267 3268 3269 3270 3271 3272 3273 3274 3275 3276 3277 3278 3279 3280 3281 3282 3283 3284 3285 3286 3287 3288 3289 3290 3291 3292 3293 3294 3295 3296 3297 3298 3299 3300 3301 3302 3303 3304 3305 3306 3307 3308 3309 3310 3311 3312 3313 3314 3315 3316 3317 3318 3319 3320 3321 3322 3323 3324 3325 3326 3327 3328 3329 3330 3331 3332 3333 3334 3335 3336 3337 3338 3339 3340 3341 3342 3343 3344 3345 3346 3347 3348 3349 3350 3351 3352 3353 3354 3355 3356 3357 3358 3359 3360 3361 3362 3363 3364 3365 3366 3367 3368 3369 3370 3371 3372 3373 3374 3375 3376 3377 3378 3379 3380 3381 3382 3383 3384 3385 3386 3387 3388 3389 3390 3391 3392 3393 3394 3395 3396 3397 3398 3399 3400 3401 3402 3403 3404 3405 3406 3407 3408 3409 3410 3411 3412 3413 3414 3415 3416 3417 3418 3419 3420 3421 3422 3423 3424 3425 3426 3427 3428 3429 3430 3431 3432 3433 3434 3435 3436 3437 3438 3439 3440 3441 3442 3443 3444 3445 3446 3447 3448 3449 3450 3451 3452 3453 3454 3455 3456 3457 3458 3459 3460 3461 3462 3463 3464 3465 3466 </DataArray>
        <DataArray type="Float64" Name="stress" format="ascii" NumberOfComponents="9">-4195826.886426851 5171137.85378484 5171137.85378484 -100954928.4905657 0 0 0 0 0 -2783748.90082544 -2710352.462895497 -2710352.462895497 -74736992.33249594 0 0 0 0 0 618892.5861100577 3844700.174627244 3844700.174627244 -70001504.33496581 0 0 0 0 0 -4890953.510034297 4101833.816700287 4101833.816700287 -67969815.56811999 0 0 0 0 0 -3042917.339218151 7970658.829901478 7970658.829901478 -92186453.88669127 0 0 0 0 0 -2256413.168221813 -2556325.039912608 -2556325.039912608 -68473419.94652747 0 0 0 0 0 -2832470.79353857 -2994519.044532348 -2994519.044532348 -56213631.45278681 0 0 0 0 0 -1153195.350179566 5056232.064398748 5056232.064398748 -63333670.24635171 0 0 0 0 0 -3646007.51934123 1338776.488256515 1338776.488256515 -55867206.83430325 0 0 0 0 0 -3173890.213793304 1851444.731358711 1851444.731358711 -48118399.53875275 0 0 0 0 0 -1231750.478256263 -3460264.016487299 -3460264.016487299 -39388721.12905397 0 0 0 0 0 -4130293.90196792 10827676.75974474 10827676.75974474 -84754693.49602929 0 0 0 0 0 -1362739.071436561 1965191.659687015 1965191.659687015 -65258570.03025758 0 0 0 0 0 -591628.3693444526 -4771599.250530698 -4771599.250530698 -50357968.24939295 0 0 0 0 0 -2257106.298449868 -5996065.877161154 -5996065.877161154 -45133309.43652575 0 0 0 0 0 858060.0294913757 281918.8313529211 281918.8313529211 -33203292.54353811 0 0 0 0 0 2488908.407281423 -3361025.128624764 -3361025.128624764 -27073489.03962129 0 0 0 0 0 -1124430.140623153 6898119.334522432 6898119.334522432 -53851866.74391912 0 0 0 0 0 -861377.9425569294 -1998037.219345217 -1998037.219345217 -46116302.7062439 0 0 0 0 0 -1048297.686676148 -2563785.120386139 -2563785.120386139 -44902240.29566173 0 0 0 0 0 240566.9064528825 -2515728.09759231 -2515728.09759231 -38628703.74924858 0 0 0 0 0 783465.6259934026 -7209296.708625514 -7209296.708625514 -30960711.70550522 0 0 0 0 0 5135241.812508454 -875992.1915393213 -875992.1915393213 -22809668.82254345 0 0 0 0 0 -3236491.544135702 11821030.76566896 11821030.76566896 -71265438.03402542 0 0 0 0 0 1204539.928882547 -318463.9477538665 -318463.9477538665 -57801677.65179995 0 0 0 0 0 4073369.002666105 -9124969.389355201 -9124969.389355201 -44717241.24640709 0 0 0 0 0 3069513.343229112 -9861517.992528083 -9861517.992528083 -37049083.95958794 0 0 0 0 0 6361963.489902675 -4982550.934413759 -4982550.934413759 -27664823.83448898 0 0 0 0 0 7639082.691986914 -3321121.211717561 -3321121.211717561 -19002546.76499411 0 0 0 0 0 5365021.479927561 -7368256.230841066 -7368256.230841066 -22559509.75564039 0 0 0 0 0 -1484084.523669117 6666372.984732928 6666372.984732928 -43669968.45539762 0 0 0 0 0 2412640.514419852 -5150893.058774924 -5150893.058774924 -39652890.76649363 0 0 0 0 0 3659067.671652821 -7819629.889938472 -7819629.889938472 -36455580.56869657 0 0 0 0 0 2913728.166533163 -8030880.086557555 -8030880.086557555 -30429251.03417372 0 0 0 0 0 3661650.807817496 -8870125.548451344 -8870125.548451344 -23008682.66174327 0 0 0 0 0 10633596.00012244 -1255496.072905864 -1255496.072905864 -15428776.94311127 0 0 0 0 0 7943164.29668883 -5360292.391374244 -5360292.391374244 -18886069.81746415 0 0 0 0 0 -2057632.157379319 10572429.68672843 10572429.68672843 -54548138.66820092 0 0 0 0 0 5551001.804699307 -3026660.883628324 -3026660.883628324 -49888157.75487272 0 0 0 0 0 6018718.577847387 -6640199.160884873 -6640199.160884873 -41980157.53509031 0 0 0 0 0 9057305.193132328 -14970489.38852271 -14970489.38852271 -31388002.50268951 0 0 0 0 0 9576181.24141746 -14779569.4847496 -14779569.4847496 -34069630.30307117 0 0 0 0 0 9746447.261412242 -12605586.66640526 -12605586.66640526 -26798351.39516445 0 0 0 0 0 10899258.9102244 -10738550.87753486 -10738550.87753486 -20868952.59350061 0 0 0 0 0 12711198.74050117 -3103369.275158161 -3103369.275158161 -12407101.90602871 0 0 0 0 0 11226255.81634242 -7849840.404487616 -7849840.404487616 -15997934.07364515 0 0 0 0 0 598879.4337580381 2510787.557072964 2510787.557072964 -29471849.77522587 0 0 0 0 0 3992268.986691399 -4476981.821852946 -4476981.821852946 -37776658.27211516 0 0 0 0 0 11811990.29551176 -14443146.14825353 -14443146.14825353 -33192682.07335989 0 0 0 0 0 10260955.70921327 -13449703.35201194 -13449703.35201194 -26627755.1304096 0 0 0 0 0 11144859.08161503 -13517328.62713649 -13517328.62713649 -30608694.15056644 0 0 0 0 0 9069098.203619167 -12084842.68451512 -12084842.68451512 -22288662.79743198 0 0 0 0 0 10785606.75068505 -10199246.27557939 -10199246.27557939 -17333421.93321441 0 0 0 0 0 17055416.39103981 -1544392.672640462 -1544392.672640462 -9967408.102256289 0 0 0 0 0 12107147.64310235 -6739284.437890145 -6739284.437890145 -13160546.00245524 0 0 0 0 0 17876135.21676508 -2412779.884640078 -2412779.884640078 -7947386.359987048 0 0 0 0 0 914715.1716628057 7843920.497811164 7843920.497811164 -37660681.78125133 0 0 0 0 0 6098417.968937024 -1767726.61097387 -1767726.61097387 -38084595.71273889 0 0 0 0 0 12763988.49565913 -11576575.90711113 -11576575.90711113 -29693957.87989417 0 0 0 0 0 14088801.43960263 -13482910.76158519 -13482910.76158519 -31969084.29340897 0 0 0 0 0 15356905.03727009 -18149198.36653118 -18149198.36653118 -22827693.76354332 0 0 0 0 0 16343141.47722795 -19900862.11327004 -19900862.11327004 -25805017.02680832 0 0 0 0 0 18158883.28914879 -20580669.72003017 -20580669.72003017 -27059053.26986963 0 0 0 0 0 15402113.37453411 -15619316.50058548 -15619316.50058548 -18716089.78102163 0 0 0 0 0 16373737.6730145 -12660985.28779847 -12660985.28779847 -14668543.29556737 0 0 0 0 0 14348034.20371358 -5063479.839460882 -5063479.839460882 -9190825.497180341 0 0 0 0 0 18971766.40208551 -8217060.441243099 -8217060.441243099 -10673788.77292847 0 0 0 0 0 19421470.62547209 -1559162.945498663 -1559162.945498663 -6369835.717364654 0 0 0 0 0 1654636.59384478 447320.710581994 447320.710581994 -17282602.06457053 0 0 0 0 0 14218617.34995174 -10991698.69146556 -10991698.69146556 -21288046.69062164 0 0 0 0 0 14136307.69254728 -11732660.95693161 -11732660.95693161 -31845609.14019984 0 0 0 0 0 21087507.14672194 -20323427.12849091 -20323427.12849091 -26019353.56453988 0 0 0 0 0 17140658.20067404 -16944643.37679199 -16944643.37679199 -19926212.36555206 0 0 0 0 0 18887733.46875756 -18511577.37363635 -18511577.37363635 -23215204.33120102 0 0 0 0 0 21541313.79297045 -19203937.01449901 -19203937.01449901 -25793312.52707145 0 0 0 0 0 16360793.04308188 -14757517.48437988 -14757517.48437988 -16058298.39058789 0 0 0 0 0 16778445.92799344 -12005794.41559718 -12005794.41559718 -12336389.77532626 0 0 0 0 0 22605718.95258296 -5437686.248118292 -5437686.248118292 -6699998.052829695 0 0 0 0 0 17324537.69735925 -8821162.74969306 -8821162.74969306 -9178349.265189437 0 0 0 0 0 23059084.36176829 -2697892.862386869 -2697892.862386869 -4582122.71709706 0 0 0 0 0 6713851.616983029 -18788.65125456768 -18788.65125456768 -16504580.26542556 0 0 0 0 0 16866523.47708159 -8266479.32857703 -8266479.32857703 -24350211.67310981 0 0 0 0 0 18168241.88089825 -12904667.42316569 -12904667.42316569 -27214049.52356863 0 0 0 0 0 23802181.18083151 -20107310.60899999 -20107310.60899999 -22074514.32517198 0 0 0 0 0 24424167.92806581 -19350606.53773619 -19350606.53773619 -26533670.56346126 0 0 0 0 0 21195778.45527305 -20388295.84063397 -20388295.84063397 -16998132.2764037 0 0 0 0 0 22405038.00106615 -22853327.99237169 -22853327.99237169 -19937004.7617037 0 0 0 0 0 24603253.1937176 -24655265.32519831 -24655265.32519831 -22024219.83580711 0 0 0 0 0 27834848.40183572 -25541239.14560207 -25541239.14560207 -22286757.4461957 0 0 0 0 0 21162538.22346003 -17250771.38892575 -17250771.38892575 -13501387.51064916 0 0 0 0 0 22103340.44650145 -13697747.57627995 -13697747.57627995 -10075510.35052422 0 0 0 0 0 20237603.97884417 -6993756.662124878 -6993756.662124878 -6126821.679607532 0 0 0 0 0 24696189.33217608 -9829304.369078932 -9829304.369078932 -6775164.720311634 0 0 0 0 0 26275549.27933663 -1740269.602450135 -1740269.602450135 -3113400.238875013 0 0 0 0 0 27871735.57152709 -2359101.161727218 -2359101.161727218 -2140359.857646161 0 0 0 0 0 8332228.17291563 -7547626.889136558 -7547626.889136558 -2810024.168743482 0 0 0 0 0 16057110.52320682 -12594656.8614686 -12594656.8614686 -16558868.94207756 0 0 0 0 0 29450376.1263683 -21030108.98076816 -21030108.98076816 -15574513.1392008 0 0 0 0 0 28560085.66520758 -19719692.72483891 -19719692.72483891 -25249112.51025504 0 0 0 0 0 31527751.18843454 -26326170.22441909 -26326170.22441909 -21002673.6964438 0 0 0 0 0 23723980.78180403 -19128028.80585082 -19128028.80585082 -14990158.24565683 0 0 0 0 0 25810203.94729857 -21343197.44569484 -21343197.44569484 -18116939.58320415 0 0 0 0 0 28883383.03886709 -22970733.83802329 -22970733.83802329 -20725334.45010313 0 0 0 0 0 32688821.98627321 -23980346.48930505 -23980346.48930505 -22435911.01619106 0 0 0 0 0 22653958.19966943 -16390241.89945285 -16390241.89945285 -11765399.6825626 0 0 0 0 0 22564359.29925186 -13291908.81701322 -13291908.81701322 -8853745.823072208 0 0 0 0 0 26867154.83029513 -6574714.192523771 -6574714.192523771 -4183037.638672616 0 0 0 0 0 23565980.28167279 -10215378.52164802 -10215378.52164802 -6248703.65308477 0 0 0 0 0 25873704.82642717 -6718295.529021544 -6718295.529021544 -3431880.286306701 0 0 0 0 0 30854506.90482016 -1692387.430245732 -1692387.430245732 -1138762.471081123 0 0 0 0 0 17679182.22806687 -10385691.49909794 -10385691.49909794 1564473.425402498 0 0 0 0 0 27314310.63727057 -16153846.35388721 -16153846.35388721 -11838584.3208367 0 0 0 0 0 33163829.796148 -20341571.9126614 -20341571.9126614 -20118322.31037917 0 0 0 0 0 36997348.20257829 -26800448.67788995 -26800448.67788995 -17008210.50478246 0 0 0 0 0 37799608.09110418 -24705464.43820725 -24705464.43820725 -22666659.19319715 0 0 0 0 0 28319143.49701626 -24450223.79310368 -24450223.79310368 -15775572.27183762 0 0 0 0 0 27012645.16465897 -21514130.88427193 -21514130.88427193 -12837504.9357164 0 0 0 0 0 30674311.4669527 -26796777.61311253 -26796777.61311253 -18181347.61916621 0 0 0 0 0 34041218.75467297 -28498837.45372542 -28498837.45372542 -19639702.4384084 0 0 0 0 0 38271381.37581629 -29702595.25613546 -29702595.25613546 -19881953.96674892 0 0 0 0 0 26701901.32673509 -18133799.04727589 -18133799.04727589 -9763284.294811966 0 0 0 0 0 27109980.73591968 -14611551.71973827 -14611551.71973827 -6935452.872458169 0 0 0 0 0 27061444.87671307 -11358174.48028523 -11358174.48028523 -4534866.029406394 0 0 0 0 0 31765271.50094648 -6197478.193430805 -6197478.193430805 -1697024.820121289 0 0 0 0 0 32493070.52760405 -2105737.823150421 -2105737.823150421 -534271.4363072178 0 0 0 0 0 30163445.80702588 -5917172.653098381 -5917172.653098381 -1719425.970809521 0 0 0 0 0 19258799.02166898 -17733158.02523882 -17733158.02523882 9440067.341150118 0 0 0 0 0 27560240.85843487 -21061089.43060405 -21061089.43060405 -5867390.566462149 0 0 0 0 0 42271950.23474382 -27825605.76149768 -27825605.76149768 -11166136.06157296 0 0 0 0 0 44004769.8638165 -25538519.76909085 -25538519.76909085 -20979125.23295924 0 0 0 0 0 43505482.53072172 -30495655.34435814 -30495655.34435814 -18529018.84322086 0 0 0 0 0 32083967.81126674 -22899597.92241756 -22899597.92241756 -14320298.00025727 0 0 0 0 0 29821119.38899592 -20305780.33958558 -20305780.33958558 -11510524.7036044 0 0 0 0 0 35346339.59741788 -24995530.0053288 -24995530.0053288 -16950835.37937127 0 0 0 0 0 39529174.28178506 -26566496.5110421 -26566496.5110421 -19061160.23325087 0 0 0 0 0 44811413.33735967 -27671225.40099964 -27671225.40099964 -20319031.53183964 0 0 0 0 0 28564506.92038633 -17322226.50517063 -17322226.50517063 -8835639.291743403 0 0 0 0 0 28273971.17574175 -14124252.72236249 -14124252.72236249 -6429029.992252714 0 0 0 0 0 28909077.60874598 -10805313.52420936 -10805313.52420936 -3987470.741661153 0 0 0 0 0 29376144.45454172 -8157209.94235331 -8157209.94235331 -2182438.047812068 0 0 0 0 0 34921663.24592736 -1533624.433207367 -1533624.433207367 289224.0474564532 0 0 0 0 0 33209891.01686444 -5050608.945593111 -5050608.945593111 -542461.8541881316 0 0 0 0 0 36767671.90269026 -1964973.651377931 -1964973.651377931 933897.7601968191 0 0 0 0 0 29572872.45804184 -22452351.04860561 -22452351.04860561 16767669.79228296 0 0 0 0 0 42100850.70379766 -25760639.83991859 -25760639.83991859 960089.6404736364 0 0 0 0 0 42290788.72018179 -23225154.64586632 -23225154.64586632 -13365580.2954572 0 0 0 0 0 50940841.34287351 -26292717.16320951 -26292717.16320951 -17688583.22883914 0 0 0 0 0 50028638.37564256 -31131574.76449412 -31131574.76449412 -15406711.00924016 0 0 0 0 0 51396325.65439615 -28465391.57714391 -28465391.57714391 -20334986.27978053 0 0 0 0 0 36218953.18914133 -27737587.08045169 -27737587.08045169 -15234837.76087937 0 0 0 0 0 33867546.13025951 -25099017.75443271 -25099017.75443271 -12659702.95079908 0 0 0 0 0 32540433.6289267 -22011622.57316024 -22011622.57316024 -9874210.934406219 0 0 0 0 0 39588542.8919334 -29820943.57450696 -29820943.57450696 -17282804.43705816 0 0 0 0 0 43907136.80972783 -31357973.29229621 -31357973.29229621 -18559187.41785548 0 0 0 0 0 49172075.30841681 -32358091.17661976 -32358091.17661976 -18839571.15136765 0 0 0 0 0 32166697.22372615 -18661931.10423678 -18661931.10423678 -7169297.697450405 0 0 0 0 0 32589848.27208167 -15231896.58468176 -15231896.58468176 -4693654.124537534 0 0 0 0 0 33697597.28348602 -11475198.36234527 -11475198.36234527 -2386304.37827481 0 0 0 0 0 34795363.49294457 -8764089.603180641 -8764089.603180641 -496434.0408746249 0 0 0 0 0 35306000.77775648 -5552899.474795505 -5552899.474795505 278025.0536997929 0 0 0 0 0 39288803.11700733 -1479786.097627975 -1479786.097627975 1639742.939792309 0 0 0 0 0 40695346.89017237 -1730378.012813169 -1730378.012813169 2012394.8112326 0 0 0 0 0 35234198.43375233 -31193790.59337005 -31193790.59337005 24043030.35938671 0 0 0 0 0 42649601.38680527 -24115726.79142298 -24115726.79142298 -5080783.975545974 0 0 0 0 0 49722113.06119478 -29586722.27850493 -29586722.27850493 -2628893.360511297 0 0 0 0 0 57168734.69198547 -31686710.11662225 -31686710.11662225 -10307418.5055282 0 0 0 0 0 58586508.9161339 -29041376.59488621 -29041376.59488621 -19033898.88941529 0 0 0 0 0 55464893.1672596 -32871359.10234413 -32871359.10234413 -17760475.59276859 0 0 0 0 0 40999561.56319661 -25908831.7008245 -25908831.7008245 -14047528.11410422 0 0 0 0 0 37718397.61750133 -23584003.62854984 -23584003.62854984 -11509726.45420184 0 0 0 0 0 35420531.6717222 -20867888.77525611 -20867888.77525611 -8962199.740318511 0 0 0 0 0 45235390.30971533 -27758262.77252011 -27758262.77252011 -16342344.78311654 0 0 0 0 0 50429291.17313875 -29115435.96035619 -29115435.96035619 -18138887.37370407 0 0 0 0 0 56727727.0785322 -29997955.05730142 -29997955.05730142 -19169544.80413977 0 0 0 0 0 34096360.49967994 -17890967.47374503 -17890967.47374503 -6537536.531796711 0 0 0 0 0 33671965.9676509 -14780666.22153088 -14780666.22153088 -4238117.939372331 0 0 0 0 0 33800127.4508974 -11471284.05679081 -11471284.05679081 -2561785.457285574 0 0 0 0 0 35642172.82821082 -8588049.152317429 -8588049.152317429 -671902.2297599927 0 0 0 0 0 37700225.5909448 -5019329.013642222 -5019329.013642222 807680.8149263245 0 0 0 0 0 38947903.01964717 -5259122.612906866 -5259122.612906866 1180629.957126214 0 0 0 0 0 42865118.67041127 -1381453.97802215 -1381453.97802215 2429173.026633128 0 0 0 0 0 45525204.80250636 -35268335.613822 -35268335.613822 29737960.0474909 0 0 0 0 0 56090781.77525736 -30171836.58354214 -30171836.58354214 5931233.305224678 0 0 0 0 0 55385754.97792565 -32520816.40357336 -32520816.40357336 6609004.489016009 0 0 0 0 0 58935899.33516396 -28310147.75282418 -28310147.75282418 -11497037.01515814 0 0 0 0 0 66331643.69247775 -29491336.25016893 -29491336.25016893 -16374974.96946089 0 0 0 0 0 62813786.12918646 -33014963.41650715 -33014963.41650715 -15347398.31456812 0 0 0 0 0 64007360.43887826 -30497707.58144278 -30497707.58144278 -19171483.71307572 0 0 0 0 0 44535297.55541668 -30134806.45850642 -30134806.45850642 -15236705.86963136 0 0 0 0 0 41271955.65115688 -27878946.26394643 -27878946.26394643 -12906269.02861247 0 0 0 0 0 38978110.69376443 -25157822.89997908 -25157822.89997908 -10325443.21146968 0 0 0 0 0 37594142.71018083 -22104682.64222633 -22104682.64222633 -7722746.119171195 0 0 0 0 0 48744257.65536752 -31855048.31568117 -31855048.31568117 -17094550.17425956 0 0 0 0 0 53872291.87448639 -33002633.345314 -33002633.345314 -18287058.97864565 0 0 0 0 0 59868965.35705025 -33563322.56930774 -33563322.56930774 -18608982.17544815 0 0 0 0 0 37024356.15514052 -18854804.16687278 -18854804.16687278 -5249006.434459331 0 0 0 0 0 37254588.86267012 -15437607.57591041 -15437607.57591041 -2947360.668377688 0 0 0 0 0 38162405.64939594 -12144925.92905764 -12144925.92905764 -1057022.026134669 0 0 0 0 0 39073896.80864304 -9032988.983380035 -9032988.983380035 409685.7102626209 0 0 0 0 0 42867259.36783364 -4804253.135858049 -4804253.135858049 2124951.488004494 0 0 0 0 0 44391063.01721092 -1555790.339932862 -1555790.339932862 2674131.096700511 0 0 0 0 0 42324912.33386585 -4613602.92183353 -4613602.92183353 1831779.686979854 0 0 0 0 0 49207128.3788617 -40915610.17667905 -40915610.17667905 32162014.97379696 0 0 0 0 0 63229520.97116665 -36141544.29901557 -36141544.29901557 13637705.02635405 0 0 0 0 0 67017408.28265419 -29479692.79133836 -29479692.79133836 -6360324.583839946 0 0 0 0 0 64486908.30997943 -32860380.30858998 -32860380.30858998 -5593061.414135653 0 0 0 0 0 70552101.63919638 -33086446.0157027 -33086446.0157027 -11939472.59793282 0 0 0 0 0 71896854.16109978 -30666978.97628456 -30666978.97628456 -18169070.67805144 0 0 0 0 0 66809061.52910729 -33595812.95604039 -33595812.95604039 -17896387.99878991 0 0 0 0 0 50078367.38853472 -28068554.97267523 -28068554.97267523 -14125017.94986155 0 0 0 0 0 45967205.73869414 -26094100.02284786 -26094100.02284786 -11796388.47131796 0 0 0 0 0 42777248.78560454 -23704849.56457539 -23704849.56457539 -9388838.081398064 0 0 0 0 0 40512034.22210144 -20997847.95645665 -20997847.95645665 -7039333.276099667 0 0 0 0 0 55097684.31895126 -29563309.8172561 -29563309.8172561 -16184485.20043435 0 0 0 0 0 61005348.00229763 -30536951.61202309 -30536951.61202309 -17768006.77092774 0 0 0 0 0 67852519.72219345 -31011527.50148573 -31011527.50148573 -18640308.93124256 0 0 0 0 0 39122535.91660764 -18078007.50997596 -18078007.50997596 -4834889.260064602 0 0 0 0 0 38530823.26716144 -15017649.95120824 -15017649.95120824 -2948592.416044197 0 0 0 0 0 38731915.19439302 -11993084.67664439 -11993084.67664439 -1238137.253931432 0 0 0 0 0 39602560.4788144 -8952407.384112241 -8952407.384112241 131162.94905405 0 0 0 0 0 40738957.61732503 -6843413.18194865 -6843413.18194865 1170682.906904421 0 0 0 0 0 45794451.51518621 -1352260.004863503 -1352260.004863503 2811154.629364661 0 0 0 0 0 44078245.22271734 -4205091.720340683 -4205091.720340683 2187985.214714326 0 0 0 0 0 66430933.60765237 -47822696.88809999 -47822696.88809999 40832127.85432959 0 0 0 0 0 74604919.5952968 -38723752.00715161 -38723752.00715161 17998137.29947623 0 0 0 0 0 81769825.39138742 -34188637.84575229 -34188637.84575229 2516272.691065901 0 0 0 0 0 73134971.56860314 -34276199.18916177 -34276199.18916177 331532.6209248941 0 0 0 0 0 75695643.60405535 -30762474.80897573 -30762474.80897573 -12004063.97457081 0 0 0 0 0 80491300.35508618 -30678977.12835171 -30678977.12835171 -16062963.77363118 0 0 0 0 0 74518674.94216993 -33239930.74532984 -33239930.74532984 -16232921.97617068 0 0 0 0 0 75432560.59453769 -31036218.48577119 -31036218.48577119 -18693978.01052543 0 0 0 0 0 48953324.64407762 -29812288.61815257 -29812288.61815257 -13473171.74415002 0 0 0 0 0 52952013.17300564 -31614068.04917179 -31614068.04917179 -15631898.62429856 0 0 0 0 0 45850046.49050381 -27520980.16113451 -27520980.16113451 -11051151.67818847 0 0 0 0 0 43631698.95007356 -24842079.26262929 -24842079.26262929 -8546054.785326095 0 0 0 0 0 42256476.0617609 -21885807.25074766 -21885807.25074766 -6102569.494572989 0 0 0 0 0 57815159.76831572 -32856970.47328619 -32856970.47328619 -17344574.84605118 0 0 0 0 0 63509709.35537311 -33494355.24444345 -33494355.24444345 -18475122.45961206 0 0 0 0 0 70015887.18177749 -33537233.375884 -33537233.375884 -18837415.82782281 0 0 0 0 0 41678567.0953289 -18738917.0014787 -18738917.0014787 -3810691.325405925 0 0 0 0 0 41803964.94584723 -15562392.11424434 -15562392.11424434 -1799324.198637107 0 0 0 0 0 42682617.63129544 -12349962.63144052 -12349962.63144052 -8348.703494541733 0 0 0 0 0 44101866.07324208 -9112153.789658921 -9112153.789658921 1472998.539827468 0 0 0 0 0 45649947.22597235 -6876274.80185066 -6876274.80185066 2639872.48536927 0 0 0 0 0 47684526.82902411 -1557125.852333766 -1557125.852333766 3160665.493136263 0 0 0 0 0 47005999.24384563 -4431548.610544735 -4431548.610544735 2998155.828070505 0 0 0 0 0 68393387.04300778 -51396177.52286857 -51396177.52286857 37632330.15215452 0 0 0 0 0 77196102.65862064 -41535345.67482713 -41535345.67482713 19056301.45485524 0 0 0 0 0 84155255.25539677 -36163549.49285033 -36163549.49285033 5427658.929189406 0 0 0 0 0 86888157.09146161 -31785507.75403821 -31785507.75403821 -7531287.17341614 0 0 0 0 0 78984867.33037424 -33540496.26280941 -33540496.26280941 -8666938.454931777 0 0 0 0 0 82665768.93385598 -32630535.72607315 -32630535.72607315 -13863582.66895116 0 0 0 0 0 83541962.06632784 -30672010.6899399 -30672010.6899399 -17951083.63686725 0 0 0 0 0 77237578.18640614 -33023413.93399231 -33023413.93399231 -18353570.3504026 0 0 0 0 0 54256677.96540452 -27813743.85198564 -27813743.85198564 -12304255.12483773 0 0 0 0 0 58999605.57325472 -29367171.65377109 -29367171.65377109 -14461136.81077343 0 0 0 0 0 50352677.89986329 -25816186.41004982 -25816186.41004982 -10020500.2035592 0 0 0 0 0 47310138.66132835 -23457741.5092914 -23457741.5092914 -7741519.000670572 0 0 0 0 0 45113778.35895086 -20829971.98227889 -20829971.98227889 -5566997.784904692 0 0 0 0 0 64534107.56566351 -30417749.58700088 -30417749.58700088 -16330677.31925249 0 0 0 0 0 70899642.21800639 -30934786.75756049 -30934786.75756049 -17737140.76196472 0 0 0 0 0 77973061.9379866 -30927188.19963394 -30927188.19963394 -18519662.4150763 0 0 0 0 0 43722792.61448904 -18021237.84878665 -18021237.84878665 -3596286.817941945 0 0 0 0 0 43077653.15588453 -15150166.51528183 -15150166.51528183 -1833330.10321286 0 0 0 0 0 43122287.4528144 -12284391.79911927 -12284391.79911927 -382556.242787674 0 0 0 0 0 43609137.60896293 -9435564.443312259 -9435564.443312259 666929.8024041352 0 0 0 0 0 45344291.1799353 -7127486.946907336 -7127486.946907336 1824040.595890488 0 0 0 0 0 49947010.11906515 -1353247.396137562 -1353247.396137562 3514605.567133938 0 0 0 0 0 46754263.19145556 -4636533.613566571 -4636533.613566571 2444497.114138577 0 0 0 0 0 91352232.60313442 -59752923.33607712 -59752923.33607712 47756045.06546889 0 0 0 0 0 93938515.26756705 -45803981.67933144 -45803981.67933144 25674592.12560007 0 0 0 0 0 96644678.90137066 -37596505.39931282 -37596505.39931282 9463104.313370088 0 0 0 0 0 98682899.59768058 -32868345.16948767 -32868345.16948767 -1915026.213660455 0 0 0 0 0 88780227.53552817 -33196397.12601311 -33196397.12601311 -4331637.752844262 0 0 0 0 0 90183958.8101397 -30728670.00097461 -30728670.00097461 -12923773.80146394 0 0 0 0 0 92183237.65982543 -29994758.78604557 -29994758.78604557 -16296985.61504604 0 0 0 0 0 84947518.8993635 -32054775.75726489 -32054775.75726489 -17083126.50822142 0 0 0 0 0 85529714.52451791 -30425077.34470629 -30425077.34470629 -18618779.30597097 0 0 0 0 0 52901854.93772196 -29100378.21158372 -29100378.21158372 -11959471.30827453 0 0 0 0 0 56641771.5016837 -30912517.3929503 -30912517.3929503 -14236883.65108129 0 0 0 0 0 61187947.19522868 -32204534.22550944 -32204534.22550944 -16237820.36399435 0 0 0 0 0 49980187.59426568 -26853822.85053028 -26853822.85053028 -9553963.638056591 0 0 0 0 0 47862508.02041602 -24271028.26017424 -24271028.26017424 -7154793.02996903 0 0 0 0 0 46512003.88037618 -21447906.33080097 -21447906.33080097 -4867138.184822987 0 0 0 0 0 66493314.2422486 -32924061.10381497 -32924061.10381497 -17822266.59878293 0 0 0 0 0 72504588.5077018 -33028680.39980568 -33028680.39980568 -18845831.43599936 0 0 0 0 0 79173239.78385539 -32514771.29090308 -32514771.29090308 -19165534.12370112 0 0 0 0 0 45867835.20614185 -18493659.90074458 -18493659.90074458 -2780751.26759135 0 0 0 0 0 45868749.54994127 -15482457.8277738 -15482457.8277738 -924823.1126603937 0 0 0 0 0 46373739.31430779 -12548211.67025396 -12548211.67025396 608798.1014440653 0 0 0 0 0 47597530.01401713 -9730532.065671263 -9730532.065671263 1884974.782388661 0 0 0 0 0 49149654.13108338 -7162547.732646465 -7162547.732646465 2896258.95056603 0 0 0 0 0 50781358.73800431 -1352772.56356609 -1352772.56356609 3341974.02494714 0 0 0 0 0 48945179.7574927 -3867477.531958848 -3867477.531958848 3052857.635679555 0 0 0 0 0 50846063.90061375 -4710323.740406824 -4710323.740406824 3656188.955203088 0 0 0 0 0 89758720.469201 -59800486.18572356 -59800486.18572356 39333009.11324124 0 0 0 0 0 93199256.42932937 -45705504.62455702 -45705504.62455702 22497445.96960514 0 0 0 0 0 96543421.92926587 -37486773.77624849 -37486773.77624849 9409331.504448304 0 0 0 0 0 99092420.22536972 -32974809.44785304 -32974809.44785304 -310392.1573403649 0 0 0 0 0 100377372.7555219 -30374372.88003605 -30374372.88003605 -9289895.767479973 0 0 0 0 0 91399914.21387368 -31660882.5471651 -31660882.5471651 -10976399.65168481 0 0 0 0 0 92914851.88561092 -30564878.3190773 -30564878.3190773 -15152471.49506968 0 0 0 0 0 93363950.71686944 -29430852.03580562 -29430852.03580562 -18002669.97318155 0 0 0 0 0 86327648.17128691 -31415776.46122121 -31415776.46122121 -18782299.05263903 0 0 0 0 0 57895375.53276303 -27204754.9730239 -27204754.9730239 -10793605.19530146 0 0 0 0 0 62317436.57748942 -28764867.67845913 -28764867.67845913 -12951797.59009366 0 0 0 0 0 67471625.18678741 -29854035.71978214 -29854035.71978214 -14947096.51834947 0 0 0 0 0 54241625.24396589 -25243769.71924713 -25243769.71924713 -8593363.683541492 0 0 0 0 0 51372650.50945672 -22964086.71949237 -22964086.71949237 -6452925.561637197 0 0 0 0 0 49273093.40771047 -20450675.83075851 -20450675.83075851 -4455095.494370407 0 0 0 0 0 73308519.74942777 -30426597.58804678 -30426597.58804678 -16645911.46720743 0 0 0 0 0 79779979.3978695 -30453803.50170364 -30453803.50170364 -17899798.16810669 0 0 0 0 0 86698512.2325684 -29934678.12405761 -29934678.12405761 -18601042.18460228 0 0 0 0 0 47901180.36440837 -17796013.4577313 -17796013.4577313 -2649871.97531422 0 0 0 0 0 47206767.8021242 -15078094.12272699 -15078094.12272699 -1097925.147622919 0 0 0 0 0 47123604.07287823 -12388493.01974038 -12388493.01974038 196583.1070395535 0 0 0 0 0 47589524.19318379 -9838477.114293149 -9838477.114293149 1349163.640353816 0 0 0 0 0 48681733.30150431 -7469518.236355142 -7469518.236355142 2149513.367486046 0 0 0 0 0 53002681.6340736 -1028444.331457716 -1028444.331457716 3841574.061735413 0 0 0 0 0 52032389.25756408 -3528631.02624085 -3528631.02624085 3848975.191864824 0 0 0 0 0 49763723.19758246 -5336004.272688271 -5336004.272688271 2718478.701851504 0 0 0 0 0 53692138.54314641 -1101031.511852262 -1101031.511852262 3834410.317804939 0 0 0 0 0 56300055.09297937 -1129809.73008486 -1129809.73008486 4077155.720951837 0 0 0 0 0 120535199.8709732 -68979013.47817121 -68979013.47817121 51217709.12663033 0 0 0 0 0 114967532.6462302 -51580220.68717448 -51580220.68717448 31358482.54935735 0 0 0 0 0 112934647.9793799 -40483234.84805199 -40483234.84805199 15327883.35721836 0 0 0 0 0 111703857.6439511 -33885352.49691977 -33885352.49691977 3472025.282917011 0 0 0 0 0 110992931.6617284 -29822072.47649431 -29822072.47649431 -5058781.370579844 0 0 0 0 0 100608216.4869932 -30260768.44681667 -30260768.44681667 -7573522.984292518 0 0 0 0 0 101244698.8889716 -28977592.4595304 -28977592.4595304 -13838580.4590878 0 0 0 0 0 101507452.9527475 -28063632.29146389 -28063632.29146389 -16597160.79597913 0 0 0 0 0 93722242.93371524 -29769290.12479045 -29769290.12479045 -17684467.38549194 0 0 0 0 0 93923606.13794482 -28906970.01633807 -28906970.01633807 -18681460.78760245 0 0 0 0 0 59910058.77799375 -29932857.79437315 -29932857.79437315 -12946827.99247514 0 0 0 0 0 56435449.03002074 -28156778.87681268 -28156778.87681268 -10657958.93478302 0 0 0 0 0 64117198.17133447 -31239629.03187603 -31239629.03187603 -15072463.84251997 0 0 0 0 0 69015629.4851108 -32009048.03112452 -32009048.03112452 -16908127.60556556 0 0 0 0 0 53705478.33877627 -25994907.19110692 -25994907.19110692 -8325661.702333927 0 0 0 0 0 51701535.47743215 -23537916.08217859 -23537916.08217859 -6055142.663289701 0 0 0 0 0 50389818.58110489 -20880297.75189002 -20880297.75189002 -3930882.171261938 0 0 0 0 0 74546041.18682781 -32189690.02222915 -32189690.02222915 -18315824.05462599 0 0 0 0 0 80630457.4995719 -31753471.60548386 -31753471.60548386 -19170320.62408456 0 0 0 0 0 87181439.99200921 -30713861.46345612 -30713861.46345612 -19402713.88341089 0 0 0 0 0 49721380.28683519 -18106052.42803578 -18106052.42803578 -2006858.927018577 0 0 0 0 0 49625796.09886067 -15313287.34911788 -15313287.34911788 -339301.2271865613 0 0 0 0 0 50012760.50317875 -12583602.93372685 -12583602.93372685 1055938.21475036 0 0 0 0 0 50827449.46710353 -9926119.522630833 -9926119.522630833 2242324.596615107 0 0 0 0 0 51770934.95013816 -7603589.811026599 -7603589.811026599 3014722.309732043 0 0 0 0 0 52263372.26915228 -3368478.916233088 -3368478.916233088 3509730.601679422 0 0 0 0 0 52514779.34786497 -5653444.121407995 -5653444.121407995 3476305.216952436 0 0 0 0 0 54780330.73156114 -967906.647542112 -967906.647542112 3863403.531133347 0 0 0 0 0 57867186.40410178 -1053751.948525253 -1053751.948525253 4145970.653550174 0 0 0 0 0 58811200.08908597 -1018778.618052539 -1018778.618052539 4003553.735026106 0 0 0 0 0 113546250.720772 -64396176.87082791 -64396176.87082791 37694544.79979008 0 0 0 0 0 110618787.718485 -48377940.47941964 -48377940.47941964 23540283.17678477 0 0 0 0 0 110182705.4823489 -37992085.61211786 -37992085.61211786 12252116.03761548 0 0 0 0 0 110109476.042692 -31980307.18604926 -31980307.18604926 3111803.723453266 0 0 0 0 0 109976601.5205309 -28544276.22389865 -28544276.22389865 -4091640.289090198 0 0 0 0 0 110483541.7968727 -27590992.6280922 -27590992.6280922 -10764385.93417512 0 0 0 0 0 101245198.72689 -28705105.62562209 -28705105.62562209 -12613926.04236165 0 0 0 0 0 101304058.6195534 -27680890.72141978 -27680890.72141978 -15919224.27042856 0 0 0 0 0 101356909.5252852 -27406109.31519319 -27406109.31519319 -18060257.80007438 0 0 0 0 0 94013816.261602 -29096138.14328517 -29096138.14328517 -19005888.66799552 0 0 0 0 0 65191203.63576171 -27910369.755064 -27910369.755064 -11632399.98449032 0 0 0 0 0 61098756.61893867 -26378609.87304417 -26378609.87304417 -9527129.299324736 0 0 0 0 0 69947555.76990104 -29012068.86971841 -29012068.86971841 -13655536.34495249 0 0 0 0 0 75314390.28213224 -29624533.29937158 -29624533.29937158 -15483081.93115715 0 0 0 0 0 57704553.19897398 -24486115.9208543 -24486115.9208543 -7435715.687721283 0 0 0 0 0 55021255.53100837 -22312289.93983437 -22312289.93983437 -5438515.202145514 0 0 0 0 0 53030137.67852875 -19938652.32215836 -19938652.32215836 -3596256.769970757 0 0 0 0 0 81203327.39940706 -29715786.19168167 -29715786.19168167 -17002338.90532146 0 0 0 0 0 87506621.10274073 -29258224.50272909 -29258224.50272909 -18084057.51341067 0 0 0 0 0 94095405.56823286 -28277262.57026842 -28277262.57026842 -18665039.41119506 0 0 0 0 0 51697890.52874549 -17444043.90407746 -17444043.90407746 -1957747.215898135 0 0 0 0 0 50975783.65444568 -14911084.36593045 -14911084.36593045 -543453.7726890706 0 0 0 0 0 50805950.24260306 -12401738.70150805 -12401738.70150805 659869.5271001427 0 0 0 0 0 51140922.5597141 -9959722.358911639 -9959722.358911639 1593191.764480959 0 0 0 0 0 51912815.76787941 -7688456.625011878 -7688456.625011878 2299821.150008129 0 0 0 0 0 54545116.0622298 -3307005.643226213 -3307005.643226213 3831071.68530207 0 0 0 0 0 53215623.74395294 -5630828.728334093 -5630828.728334093 3125020.897574667 0 0 0 0 0 55715575.72184244 -3309542.504050888 -3309542.504050888 3672902.664843941 0 0 0 0 0 57474483.62633814 -3049652.782221921 -3049652.782221921 3689353.51285997 0 0 0 0 0 59990863.22987415 -912064.6226860397 -912064.6226860397 4095395.912124103 0 0 0 0 0 61089065.41810083 -985832.5293912243 -985832.5293912243 4177759.305964103 0 0 0 0 0 66857704.16580793 -824458.0071810019 -824458.0071810019 4108621.754763743 0 0 0 0 0 65709421.56843632 -713196.4618182495 -713196.4618182495 3975093.483438716 0 0 0 0 0 65002418.77038046 -777998.4195161437 -777998.4195161437 4026414.080543229 0 0 0 0 0 63190166.76392237 -1008579.180794258 -1008579.180794258 4099799.220631264 0 0 0 0 0 148112952.8557644 -74582766.99645464 -74582766.99645464 49400005.73137249 0 0 0 0 0 138573573.7960856 -55786564.57986754 -55786564.57986754 35016515.54458089 0 0 0 0 0 130450871.4949026 -42187388.00538378 -42187388.00538378 19890201.24678327 0 0 0 0 0 125397709.0791488 -33897340.21776655 -33897340.21776655 8142420.858850497 0 0 0 0 0 122012687.339351 -28986715.58680918 -28986715.58680918 -667159.7348814198 0 0 0 0 0 119769302.1378578 -25882964.44277302 -25882964.44277302 -7184928.629843268 0 0 0 0 0 109632561.5587856 -26408709.68150925 -26408709.68150925 -9612047.493566882 0 0 0 0 0 109668747.0449907 -26260004.74515517 -26260004.74515517 -14498181.6691212 0 0 0 0 0 108715477.1378786 -25421125.77446491 -25421125.77446491 -16758719.76898829 0 0 0 0 0 100993795.1472925 -26949138.31882156 -26949138.31882156 -17927030.01358498 0 0 0 0 0 100896275.9935853 -26798109.10901804 -26798109.10901804 -18639931.62611186 0 0 0 0 0 62814845.71219503 -28795945.35078111 -28795945.35078111 -11772066.80862943 0 0 0 0 0 66688848.30305689 -30088404.36361984 -30088404.36361984 -13922971.40781052 0 0 0 0 0 59605531.05271924 -27081604.87961954 -27081604.87961954 -9534202.212000726 0 0 0 0 0 71194165.75588715 -30888838.83956036 -30888838.83956036 -15873944.26580552 0 0 0 0 0 76276991.19348396 -31140992.20977757 -31140992.20977757 -17516469.8893392 0 0 0 0 0 57066297.95044514 -25025279.91049229 -25025279.91049229 -7308849.349775989 0 0 0 0 0 55183289.11039585 -22712168.96682589 -22712168.96682589 -5178659.691060686 0 0 0 0 0 53923494.99764197 -20225051.12175415 -20225051.12175415 -3207798.655183021 0 0 0 0 0 81847546.01436721 -30810467.22420189 -30810467.22420189 -18721180.36055496 0 0 0 0 0 87802234.67364135 -29893839.92587243 -29893839.92587243 -19397108.94062955 0 0 0 0 0 94037383.74281162 -28409169.52132206 -28409169.52132206 -19506354.30809094 0 0 0 0 0 53240007.05121799 -17647632.91234416 -17647632.91234416 -1444984.990713914 0 0 0 0 0 53057755.05616174 -15058760.7978027 -15058760.7978027 79737.61913220072 0 0 0 0 0 53343081.09309282 -12498705.76345702 -12498705.76345702 1373705.661393032 0 0 0 0 0 53972932.1278616 -10057306.18726166 -10057306.18726166 2381733.839071801 0 0 0 0 0 54814720.88381984 -7853189.463078467 -7853189.463078467 3122782.324342281 0 0 0 0 0 55503209.0268722 -5823653.282137706 -5823653.282137706 3585992.703775683 0 0 0 0 0 58046563.95802938 -3324688.433096596 -3324688.433096596 4156067.128718893 0 0 0 0 0 58749462.30808891 -2747258.234676919 -2747258.234676919 3929425.279503624 0 0 0 0 0 60258392.26037247 -2827894.960639128 -2827894.960639128 4166236.887573299 0 0 0 0 0 62098405.63104694 -991814.6772784522 -991814.6772784522 4130398.706000679 0 0 0 0 0 68314141.35151429 -728849.3669832106 -728849.3669832106 4293645.828748559 0 0 0 0 0 66667920.15214114 -2100066.477557589 -2100066.477557589 4496346.967458926 0 0 0 0 0 65025054.34620938 -955538.7942388655 -955538.7942388655 4440174.871389795 0 0 0 0 0 68542775.72017021 -638057.7342288627 -638057.7342288627 3990027.748399785 0 0 0 0 0 70099038.67553464 -664532.2836223618 -664532.2836223618 3972737.62884975 0 0 0 0 0 143447026.9395496 -71378827.58250715 -71378827.58250715 37427096.4740102 0 0 0 0 0 130104828.1555663 -46857400.07624628 -46857400.07624628 23861181.68447827 0 0 0 0 0 124774834.2479846 -36615120.57001937 -36615120.57001937 14867752.56607417 0 0 0 0 0 121788565.7964819 -30061682.04251793 -30061682.04251793 6477092.688853042 0 0 0 0 0 119542740.8680543 -26080287.405912 -26080287.405912 -579140.7361359166 0 0 0 0 0 117886550.6552115 -23648825.11625268 -23648825.11625268 -6238755.47548377 0 0 0 0 0 117739076.5019812 -24121474.9961651 -24121474.9961651 -11780320.80824235 0 0 0 0 0 108880538.5987938 -25141863.50506618 -25141863.50506618 -13524806.87722443 0 0 0 0 0 107910011.5790292 -24360582.50142182 -24360582.50142182 -16177581.14471064 0 0 0 0 0 107649886.5144387 -24811456.55428177 -24811456.55428177 -17969640.11756389 0 0 0 0 0 100447921.746696 -26351955.21013897 -26351955.21013897 -18991042.13469132 0 0 0 0 0 67702454.87796268 -26908061.63606682 -26908061.63606682 -10477726.32576434 0 0 0 0 0 72073508.85411666 -28001322.36205686 -28001322.36205686 -12468905.47211951 0 0 0 0 0 63934485.03172488 -25424592.97517059 -25424592.97517059 -8457829.192706009 0 0 0 0 0 76992467.30589885 -28647347.70098137 -28647347.70098137 -14339891.10529559 0 0 0 0 0 82394339.66729613 -28796261.2987823 -28796261.2987823 -15985526.6321852 0 0 0 0 0 60799020.41130043 -23619680.64974067 -23619680.64974067 -6487237.482672597 0 0 0 0 0 58300557.40489921 -21567320.56576101 -21567320.56576101 -4630393.120432026 0 0 0 0 0 56425985.4111911 -19342016.4563815 -19342016.4563815 -2935905.861140408 0 0 0 0 0 88147976.30017519 -28429540.25624324 -28429540.25624324 -17307080.07841828 0 0 0 0 0 94143423.17598686 -27546538.87606188 -27546538.87606188 -18205346.60547017 0 0 0 0 0 100303980.6909109 -26161753.25886782 -26161753.25886782 -18609304.53604651 0 0 0 0 0 55142577.32207101 -17017671.27758059 -17017671.27758059 -1435101.597001099 0 0 0 0 0 54411299.44628473 -14658108.94891802 -14658108.94891802 -136018.7848609467 0 0 0 0 0 54175767.05437788 -12315523.74926696 -12315523.74926696 934217.2876162021 0 0 0 0 0 54389557.36605696 -10045811.76422156 -10045811.76422156 1795626.119517174 0 0 0 0 0 54986271.76399329 -7921170.686397659 -7921170.686397659 2536406.16179638 0 0 0 0 0 55853540.40333752 -5869480.070619068 -5869480.070619068 3088767.886391238 0 0 0 0 0 56754556.56977984 -4277902.652517506 -4277902.652517506 3407252.254814355 0 0 0 0 0 59680657.57274798 -4424824.058772014 -4424824.058772014 4197582.596042319 0 0 0 0 0 60896950.54650627 -2828414.189690554 -2828414.189690554 3827772.407022385 0 0 0 0 0 62827522.71282914 -2915123.417617544 -2915123.417617544 4229785.749858093 0 0 0 0 0 67477531.70891716 -1704761.695092537 -1704761.695092537 3624120.586044532 0 0 0 0 0 63688490.40788599 -2112597.673116173 -2112597.673116173 3628575.183128999 0 0 0 0 0 66121659.03124728 -2449398.839561141 -2449398.839561141 3625399.414862218 0 0 0 0 0 69119847.52010329 -596762.6896183195 -596762.6896183195 3883770.672416102 0 0 0 0 0 71188907.9373672 -582953.6959642207 -582953.6959642207 4092254.484460175 0 0 0 0 0 71508018.80455214 -539243.9929192988 -539243.9929192988 3925248.524357224 0 0 0 0 0 72825751.67915678 -586665.6395214916 -586665.6395214916 3892660.928459831 0 0 0 0 0 181660343.423556 -79148529.15982173 -79148529.15982173 46281698.44638032 0 0 0 0 0 160320696.3483999 -54829227.01566387 -54829227.01566387 30972686.42035052 0 0 0 0 0 152110186.0654135 -52259874.83721931 -52259874.83721931 32955437.91782231 0 0 0 0 0 146037469.8965718 -41897746.83883402 -41897746.83883402 23495831.0225354 0 0 0 0 0 137791130.5018607 -32640256.85126667 -32640256.85126667 12035088.16521291 0 0 0 0 0 132399512.854724 -27232361.23185657 -27232361.23185657 3411726.333639979 0 0 0 0 0 128511433.1709545 -23735916.97418111 -23735916.97418111 -3361108.292728738 0 0 0 0 0 125367789.0963872 -21629587.69032126 -21629587.69032126 -8540242.979613194 0 0 0 0 0 116286167.1155982 -22191023.22252589 -22191023.22252589 -10597000.68641274 0 0 0 0 0 115874796.7582124 -23067586.39676617 -23067586.39676617 -14814132.16960349 0 0 0 0 0 114158408.0408822 -22417334.40021368 -22417334.40021368 -16657882.94084771 0 0 0 0 0 106831777.5340776 -23835662.05310051 -23835662.05310051 -17817703.43332524 0 0 0 0 0 106496432.3936023 -24292501.89531536 -24292501.89531536 -18445014.71551424 0 0 0 0 0 65414008.11477872 -27579051.75223352 -27579051.75223352 -10710948.22730452 0 0 0 0 0 68967713.29184987 -28840015.73667256 -28840015.73667256 -12825035.66049052 0 0 0 0 0 73095000.66209406 -29656389.77715514 -29656389.77715514 -14811428.17190252 0 0 0 0 0 62458838.36354694 -25941329.14851364 -25941329.14851364 -8561829.566849072 0 0 0 0 0 77748415.7426752 -29973479.98223031 -29973479.98223031 -16561468.50573692 0 0 0 0 0 82853099.36708528 -29746281.02296094 -29746281.02296094 -17989746.34257926 0 0 0 0 0 60107132.59682253 -24001758.75450649 -24001758.75450649 -6459774.670980833 0 0 0 0 0 58345015.84282929 -21837921.85985378 -21837921.85985378 -4471613.197947704 0 0 0 0 0 57142899.52127551 -19525836.4312314 -19525836.4312314 -2649159.24681747 0 0 0 0 0 88315350.73301451 -28965086.29275722 -28965086.29275722 -18967113.86689452 0 0 0 0 0 93987457.25514817 -27642976.56866283 -27642976.56866283 -19455511.59411265 0 0 0 0 0 99816195.50168744 -25781321.55300388 -25781321.55300388 -19382382.00272209 0 0 0 0 0 56450111.89685135 -17139773.72489109 -17139773.72489109 -1027752.252706785 0 0 0 0 0 56224644.54144621 -14734636.69760451 -14734636.69760451 378602.3122595 0 0 0 0 0 56404364.48671214 -12378881.19230037 -12378881.19230037 1549340.009952545 0 0 0 0 0 56934821.87347211 -10114570.12132433 -10114570.12132433 2496855.395400009 0 0 0 0 0 57759904.11345626 -7953452.335199666 -7953452.335199666 3277215.880754799 0 0 0 0 0 58748386.73001371 -5905412.414449144 -5905412.414449144 3842225.154240488 0 0 0 0 0 59789527.34280483 -4546146.87312529 -4546146.87312529 3563875.124726503 0 0 0 0 0 61826768.50033437 -4596786.415972871 -4596786.415972871 4020349.573939654 0 0 0 0 0 62724344.72362994 -3112243.855688287 -3112243.855688287 3636269.281908195 0 0 0 0 0 68646630.1197824 -2468326.001632364 -2468326.001632364 4372532.297096447 0 0 0 0 0 69936178.00935513 -1688539.192964895 -1688539.192964895 4351210.897933652 0 0 0 0 0 65413780.26095749 -3158860.95345909 -3158860.95345909 4378228.301646131 0 0 0 0 0 67172253.38278659 -3695719.940703442 -3695719.940703442 4191081.387855556 0 0 0 0 0 70415343.87396874 -1591626.712622219 -1591626.712622219 3543597.810136944 0 0 0 0 0 71826813.94259363 -555210.1727403642 -555210.1727403642 3744956.171540522 0 0 0 0 0 73547396.39220828 -568954.6712814899 -568954.6712814899 3822628.074009464 0 0 0 0 0 74124901.59146355 -481266.9300114946 -481266.9300114946 3834646.991176209 0 0 0 0 0 165252805.5831758 -69426990.07393362 -69426990.07393362 29986352.18611758 0 0 0 0 0 156566858.8378353 -52739572.21280318 -52739572.21280318 27932986.3176108 0 0 0 0 0 146527850.0619265 -41040423.85597268 -41040423.85597268 22405115.71981183 0 0 0 0 0 137522485.4822426 -34314850.26536094 -34314850.26536094 15532136.58127934 0 0 0 0 0 132577964.0903438 -27454795.21399946 -27454795.21399946 9398858.779581565 0 0 0 0 0 128820224.0597878 -23073442.80572821 -23073442.80572821 2988228.279342703 0 0 0 0 0 125715019.0168232 -20482002.98552872 -20482002.98552872 -2663282.931852466 0 0 0 0 0 123249569.3672163 -18921250.19035281 -18921250.19035281 -7248755.922773209 0 0 0 0 0 122624644.2221108 -20405086.60961102 -20405086.60961102 -12270484.62345974 0 0 0 0 0 114610959.9175695 -21397848.23936285 -21397848.23936285 -13808479.7437411 0 0 0 0 0 112984016.277851 -20959751.74572168 -20959751.74572168 -16006803.60828581 0 0 0 0 0 112490488.578421 -21973299.68328909 -21973299.68328909 -17681160.85500247 0 0 0 0 0 105700620.0900415 -23412968.53991676 -23412968.53991676 -18690520.2514363 0 0 0 0 0 69920760.33206034 -25827282.55561189 -25827282.55561189 -9466462.788343186 0 0 0 0 0 73923625.40679584 -26898934.43451904 -26898934.43451904 -11390009.38033742 0 0 0 0 0 78429953.32396142 -27562578.75636313 -27562578.75636313 -13244110.42569224 0 0 0 0 0 66462219.01714748 -24405383.17796303 -24405383.17796303 -7549651.296987879 0 0 0 0 0 83360665.56839685 -27774099.0001809 -27774099.0001809 -14945556.39661087 0 0 0 0 0 88678547.80826655 -27491622.33841107 -27491622.33841107 -16387183.19214311 0 0 0 0 0 63572471.67293701 -22698134.06484228 -22698134.06484228 -5704428.75700423 0 0 0 0 0 61255467.97474935 -20773628.70146912 -20773628.70146912 -3981938.382451707 0 0 0 0 0 59499048.91955382 -18699503.85055086 -18699503.85055086 -2419326.970665115 0 0 0 0 0 94198530.67937525 -26699895.0608904 -26699895.0608904 -17490453.63944435 0 0 0 0 0 99822784.750513 -25437162.11189646 -25437162.11189646 -18173162.39915005 0 0 0 0 0 105438596.0513592 -23731971.91985893 -23731971.91985893 -18381078.8082623 0 0 0 0 0 58274845.7155878 -16539334.71555191 -16539334.71555191 -1035657.850671987 0 0 0 0 0 57542551.21012059 -14347997.03257114 -14347997.03257114 152035.2147902591 0 0 0 0 0 57258638.76217018 -12181898.65805874 -12181898.65805874 1150032.67204784 0 0 0 0 0 57365722.89888744 -10081584.49344424 -10081584.49344424 1983082.76418374 0 0 0 0 0 57814762.76060299 -8072792.596885329 -8072792.596885329 2637848.727005778 0 0 0 0 0 58467471.96887285 -6147905.320007133 -6147905.320007133 3017384.904917146 0 0 0 0 0 61120781.97669962 -6236879.430510445 -6236879.430510445 3755729.195365562 0 0 0 0 0 61962061.43622102 -4716296.737010611 -4716296.737010611 3469369.916622845 0 0 0 0 0 64312554.24211875 -4735172.462745346 -4735172.462745346 4053594.722242531 0 0 0 0 0 67757799.79964939 -3095890.028388006 -3095890.028388006 3414762.008034378 0 0 0 0 0 69127455.37005593 -2190601.081799698 -2190601.081799698 3564031.598788385 0 0 0 0 0 64685047.17562778 -3593950.347656386 -3593950.347656386 3507477.544554041 0 0 0 0 0 66839093.96813174 -3951223.298226641 -3951223.298226641 3391341.554269804 0 0 0 0 0 71512401.86644751 -2198502.50277791 -2198502.50277791 4279396.859021202 0 0 0 0 0 72624436.25217776 -1531995.484525755 -1531995.484525755 4208861.295122017 0 0 0 0 0 72974048.45375444 -1465894.534581791 -1465894.534581791 3497095.079445877 0 0 0 0 0 73952393.07721585 -627692.369071548 -627692.369071548 3464306.811781845 0 0 0 0 0 211882850.6139703 -75709182.42649353 -75709182.42649353 42210496.99647754 0 0 0 0 0 185817563.8841604 -56961341.14858612 -56961341.14858612 35017822.64863209 0 0 0 0 0 170197412.687869 -45621056.38178135 -45621056.38178135 29825786.92036423 0 0 0 0 0 157563415.6987441 -37744941.76310623 -37744941.76310623 22619308.35738548 0 0 0 0 0 148888000.8578564 -30545188.12095261 -30545188.12095261 15332240.03574816 0 0 0 0 0 141704704.3115346 -24786896.02954328 -24786896.02954328 7279389.382092724 0 0 0 0 0 136345664.5651197 -21109328.36780422 -21109328.36780422 468437.2092267111 0 0 0 0 0 132232398.5178822 -18813981.05874797 -18813981.05874797 -4959516.60099867 0 0 0 0 0 128757474.6548433 -17467193.39368033 -17467193.39368033 -9181178.741148649 0 0 0 0 0 120912886.2094746 -18123003.21985953 -18123003.21985953 -10884473.7296649 0 0 0 0 0 120254078.5780434 -19707845.35978585 -19707845.35978585 -14731124.41314963 0 0 0 0 0 118075228.531718 -19318321.98576808 -19318321.98576808 -16322718.01204922 0 0 0 0 0 111407751.0198547 -20657425.213371 -20657425.213371 -17362521.83135691 0 0 0 0 0 110907842.6894821 -21609637.26777097 -21609637.26777097 -18069507.56953294 0 0 0 0 0 67750076.77099943 -26334437.23254256 -26334437.23254256 -9757759.693916874 0 0 0 0 0 71003609.2611468 -27552412.74883216 -27552412.74883216 -11797867.56504443 0 0 0 0 0 74776352.12379949 -28371470.13537392 -28371470.13537392 -13760769.95216727 0 0 0 0 0 79029032.63731413 -28736132.53380027 -28736132.53380027 -15559636.44480162 0 0 0 0 0 65036133.96552155 -24781525.85822719 -24781525.85822719 -7717625.025114461 0 0 0 0 0 83696620.85353988 -28607366.86625349 -28607366.86625349 -17098269.40869613 0 0 0 0 0 88715405.73310694 -27943993.43199489 -27943993.43199489 -18295212.10177719 0 0 0 0 0 62863421.29883392 -22962873.85190494 -22962873.85190494 -5745881.949961686 0 0 0 0 0 61216822.49762551 -20948733.27843855 -20948733.27843855 -3897076.453189522 0 0 0 0 0 60067555.46962513 -18807346.43528163 -18807346.43528163 -2212505.896731793 0 0 0 0 0 93986142.07293773 -26773922.35359947 -26773922.35359947 -19052871.78587459 0 0 0 0 0 99318595.3695914 -25128056.24553004 -25128056.24553004 -19315777.03327047 0 0 0 0 0 104623940.8129303 -23009013.43928691 -23009013.43928691 -19015139.05452704 0 0 0 0 0 59379518.63335343 -16598038.87705627 -16598038.87705627 -715651.1101742279 0 0 0 0 0 59106755.07007132 -14379480.66872641 -14379480.66872641 577188.0569480056 0 0 0 0 0 59192124.49322261 -12199362.74717156 -12199362.74717156 1663874.787914139 0 0 0 0 0 59591434.2229935 -10081813.59100935 -10081813.59100935 2563664.595736956 0 0 0 0 0 60217149.59122137 -8070738.633922303 -8070738.633922303 3258943.520861038 0 0 0 0 0 61051832.597404 -6391250.958774401 -6391250.958774401 3088946.861203454 0 0 0 0 0 63433342.99226723 -6394679.211761553 -6394679.211761553 3716660.683087694 0 0 0 0 0 64074406.6085968 -4963702.5194555 -4963702.5194555 3413925.320368611 0 0 0 0 0 70714330.6863652 -3142236.291171924 -3142236.291171924 4265999.381588292 0 0 0 0 0 69237290.4804292 -3979116.006619294 -3979116.006619294 4055795.89406434 0 0 0 0 0 66175051.6913887 -4985809.235454177 -4985809.235454177 3934298.150185923 0 0 0 0 0 68240916.62430511 -5220898.311599704 -5220898.311599704 3827460.986851069 0 0 0 0 0 70529836.2020705 -2815699.662971864 -2815699.662971864 3341966.80560448 0 0 0 0 0 71863748.32928461 -1993525.204396597 -1993525.204396597 3463800.861773921 0 0 0 0 0 73910403.25602832 -1918674.314332447 -1918674.314332447 4077714.507787442 0 0 0 0 0 74818359.01215488 -1380553.286354983 -1380553.286354983 4053554.171286053 0 0 0 0 0 188268526.7800811 -62992899.83183075 -62992899.83183075 24355489.79308046 0 0 0 0 0 170616347.945507 -47781789.95610146 -47781789.95610146 23872041.90530544 0 0 0 0 0 160852550.9448722 -36700630.65191452 -36700630.65191452 22241023.07639732 0 0 0 0 0 149522814.4573804 -29425079.16634875 -29425079.16634875 17627056.92148044 0 0 0 0 0 142203895.549711 -23960378.49088821 -23960378.49088821 11769881.36338983 0 0 0 0 0 136999464.6661617 -19702833.26395426 -19702833.26395426 6375557.225404546 0 0 0 0 0 132857829.3313733 -17006261.23837867 -17006261.23837867 1055027.635155402 0 0 0 0 0 129496338.5173618 -15447825.18308854 -15447825.18308854 -3641681.016377807 0 0 0 0 0 126604396.2689762 -14649542.46323619 -14649542.46323619 -7528917.717718669 0 0 0 0 0 125806185.3119897 -16735592.59757667 -16735592.59757667 -12209280.88213732 0 0 0 0 0 118743367.5185058 -17775223.90419509 -17775223.90419509 -13599705.6518844 0 0 0 0 0 116741003.3188157 -17612766.34323769 -17612766.34323769 -15441219.90463372 0 0 0 0 0 116064709.1420042 -19087433.31878472 -19087433.31878472 -17196270.54992466 0 0 0 0 0 109846368.7000043 -20434413.98004878 -20434413.98004878 -18114246.95993291 0 0 0 0 0 71896834.3361019 -24715460.78416535 -24715460.78416535 -8578266.616692375 0 0 0 0 0 75555508.36586337 -25756127.48711421 -25756127.48711421 -10414336.64496411 0 0 0 0 0 79669254.23132385 -26428927.90407858 -26428927.90407858 -12217224.29498488 0 0 0 0 0 84180641.7908151 -26687722.9180397 -26687722.9180397 -13914512.52944988 0 0 0 0 0 68728737.92911385 -23362555.17127189 -23362555.17127189 -6773269.798770412 0 0 0 0 0 89008836.84078975 -26503655.51278726 -26503655.51278726 -15429059.08645996 0 0 0 0 0 94107255.16342905 -25844871.74508623 -25844871.74508623 -16663203.43628577 0 0 0 0 0 66071728.94554294 -21756665.51236968 -21756665.51236968 -5051942.579798476 0 0 0 0 0 63928132.85853448 -19960071.90720621 -19960071.90720621 -3455184.374160728 0 0 0 0 0 62286005.62689208 -18032199.10348019 -18032199.10348019 -2009880.343932254 0 0 0 0 0 99314125.23813184 -24715143.54103703 -24715143.54103703 -17566686.6184199 0 0 0 0 0 104480391.3117729 -23155481.32635375 -23155481.32635375 -18050910.04987484 0 0 0 0 0 109481600.6870909 -21194615.63995149 -21194615.63995149 -18061406.56419718 0 0 0 0 0 61119884.79643007 -16027762.05236265 -16027762.05236265 -734335.9311164869 0 0 0 0 0 60394415.79547677 -13999666.91203514 -13999666.91203514 364978.0080773605 0 0 0 0 0 60069761.83563094 -11988630.85317421 -11988630.85317421 1293068.462441547 0 0 0 0 0 60096339.42374707 -10026041.3248875 -10026041.3248875 2042081.414598951 0 0 0 0 0 60429217.46773881 -8138606.934588755 -8138606.934588755 2610162.012854862 0 0 0 0 0 62642084.17973302 -8151977.410893727 -8151977.410893727 3194482.64871314 0 0 0 0 0 63379789.23791925 -6542985.895295087 -6542985.895295087 3098139.837687476 0 0 0 0 0 65454271.50696196 -6509893.489022305 -6509893.489022305 3620581.068543337 0 0 0 0 0 69635277.45104867 -3790190.866717995 -3790190.866717995 3266744.443214955 0 0 0 0 0 68561544.21722873 -4488387.956753009 -4488387.956753009 3173372.239121068 0 0 0 0 0 66072919.77350085 -5147800.529891745 -5147800.529891745 3236231.9457404 0 0 0 0 0 67965008.9244595 -5416168.587548238 -5416168.587548238 3222899.219415808 0 0 0 0 0 72054199.15304291 -3744970.508301244 -3744970.508301244 3993770.12061936 0 0 0 0 0 73026508.15915859 -2708924.194174013 -2708924.194174013 4097398.912990933 0 0 0 0 0 73010975.03386071 -2509709.164860225 -2509709.164860225 3307266.781276152 0 0 0 0 0 74114137.1858144 -1793534.126791783 -1793534.126791783 3385143.752065236 0 0 0 0 0 234459018.7480073 -68515978.6209695 -68515978.6209695 34178600.73971264 0 0 0 0 0 205343355.0223718 -52069773.63820661 -52069773.63820661 33296861.88547043 0 0 0 0 0 184181946.4224143 -40577220.02174157 -40577220.02174157 29576031.70872968 0 0 0 0 0 168823739.9600119 -33517263.86696794 -33517263.86696794 24803034.08715843 0 0 0 0 0 157902113.4917259 -26706673.45661281 -26706673.45661281 17354239.13493922 0 0 0 0 0 149521576.1920698 -21732476.75799443 -21732476.75799443 10745320.15182967 0 0 0 0 0 143097998.698813 -18098319.50570909 -18098319.50570909 4316349.603487994 0 0 0 0 0 138090452.8087388 -15759022.13132372 -15759022.13132372 -1231938.261735513 0 0 0 0 0 134044105.1746171 -14391360.32060251 -14391360.32060251 -5732442.718043285 0 0 0 0 0 130611541.520186 -13670702.78705637 -13670702.78705637 -9249884.037119888 0 0 0 0 0 123970298.7079174 -14350596.44346483 -14350596.44346483 -10638963.16699903 0 0 0 0 0 123173711.9439378 -16422841.59050978 -16422841.59050978 -14361290.93665596 0 0 0 0 0 120788703.0364627 -16311158.02548882 -16311158.02548882 -15739450.74470303 0 0 0 0 0 114824777.0832745 -17572889.36271844 -17572889.36271844 -16651387.28217019 0 0 0 0 0 114213720.0352115 -18885311.74182409 -18885311.74182409 -17564734.76022131 0 0 0 0 0 72834234.40921625 -26264827.33600703 -26264827.33600703 -10848736.09198033 0 0 0 0 0 69857949.0810995 -25096586.1765567 -25096586.1765567 -8903279.653289793 0 0 0 0 0 76278399.03750174 -27077796.21945129 -27077796.21945129 -12751289.72911284 0 0 0 0 0 80158320.3666873 -27482972.01612132 -27482972.01612132 -14536112.14291196 0 0 0 0 0 84421098.89134684 -27440421.81093939 -27440421.81093939 -16131678.93706762 0 0 0 0 0 67367119.98454364 -23632410.26381719 -23632410.26381719 -6982033.597259933 0 0 0 0 0 88997770.48226248 -26922788.25448072 -26922788.25448072 -17434540.10689864 0 0 0 0 0 93816006.84079403 -25904051.37119192 -25904051.37119192 -18374178.63598884 0 0 0 0 0 65360089.20445724 -21934421.29065199 -21934421.29065199 -5141178.040218768 0 0 0 0 0 63821919.88881736 -20064835.07512066 -20064835.07512066 -3426046.642750476 0 0 0 0 0 62728074.04979934 -18082138.32248208 -18082138.32248208 -1867464.563773251 0 0 0 0 0 98789576.50370164 -24413144.20042206 -24413144.20042206 -18866020.81942545 0 0 0 0 0 103719952.5759683 -22487632.68906722 -22487632.68906722 -18874422.93461481 0 0 0 0 0 108501652.3771562 -20182421.78233973 -20182421.78233973 -18370636.94208049 0 0 0 0 0 62049810.90789781 -16042257.73711531 -16042257.73711531 -483873.8086506883 0 0 0 0 0 61740383.52672721 -13992701.35811252 -13992701.35811252 712367.6631304107 0 0 0 0 0 61768631.25449758 -11970044.50085343 -11970044.50085343 1726242.142281353 0 0 0 0 0 62086448.42576995 -10010180.35579685 -10010180.35579685 2552470.992645278 0 0 0 0 0 62865427.6421721 -8195013.676973043 -8195013.676973043 2645220.46450697 0 0 0 0 0 64813727.01230019 -8164997.032780896 -8164997.032780896 3136493.877658241 0 0 0 0 0 65513219.58453444 -6619402.972668969 -6619402.972668969 3011770.709969328 0 0 0 0 0 71031623.96698917 -4413440.71169791 -4413440.71169791 3916420.162884425 0 0 0 0 0 69914917.83654465 -5414635.47407317 -5414635.47407317 3739954.588166646 0 0 0 0 0 67411832.81882215 -6596902.256697835 -6596902.256697835 3494639.153790783 0 0 0 0 0 69235145.45951253 -6651147.298701774 -6651147.298701774 3385126.831846558 0 0 0 0 0 71353883.59768239 -4148378.375601598 -4148378.375601598 3206034.016475359 0 0 0 0 0 72142424.83819723 -3261954.379140118 -3261954.379140118 3270842.337865476 0 0 0 0 0 74245454.28551468 -3219445.717827709 -3219445.717827709 3903039.275511601 0 0 0 0 0 75169298.62231193 -2441962.658329352 -2441962.658329352 3958710.110450336 0 0 0 0 0 212618192.3268841 -58507483.95711864 -58507483.95711864 17815145.63825143 0 0 0 0 0 186324034.0099158 -37616919.31661741 -37616919.31661741 23615718.3628213 0 0 0 0 0 171211125.0116321 -30099963.07982442 -30099963.07982442 23300566.83977489 0 0 0 0 0 159597375.6236102 -23752824.2553289 -23752824.2553289 19882581.064183 0 0 0 0 0 150660311.7018721 -19149295.29684978 -19149295.29684978 14987377.38112041 0 0 0 0 0 144024065.4596419 -15771425.92404318 -15771425.92404318 9809784.639173498 0 0 0 0 0 138950546.514534 -13343396.65766114 -13343396.65766114 4852745.971470911 0 0 0 0 0 134894516.6366051 -11870335.58332593 -11870335.58332593 199164.0868455121 0 0 0 0 0 131496289.7746073 -11127399.94790831 -11127399.94790831 -3882041.019572048 0 0 0 0 0 128519588.9087368 -10890464.69597342 -10890464.69597342 -7289427.968379469 0 0 0 0 0 127641875.7691319 -13399601.63916983 -13399601.63916983 -11871913.94616298 0 0 0 0 0 121613969.6094859 -14330024.90565729 -14330024.90565729 -12940881.07861002 0 0 0 0 0 119383163.4580611 -14474470.71399947 -14474470.71399947 -14624909.06379097 0 0 0 0 0 118605969.9101268 -16282208.40520485 -16282208.40520485 -16545930.10824742 0 0 0 0 0 113065577.8107995 -17549155.8892758 -17549155.8892758 -17328277.4095128 0 0 0 0 0 77011291.19960397 -24607276.7538776 -24607276.7538776 -9534560.808796726 0 0 0 0 0 73669552.03538404 -23604157.05786851 -23604157.05786851 -7796555.320094881 0 0 0 0 0 80763824.39651705 -25282449.42270292 -25282449.42270292 -11265526.09592755 0 0 0 0 0 84881460.57863896 -25583443.3378656 -25583443.3378656 -12926217.03743673 0 0 0 0 0 89315456.96520889 -25472939.60465481 -25472939.60465481 -14445764.44171237 0 0 0 0 0 70769581.75285071 -22323159.64850746 -22323159.64850746 -6105363.534015168 0 0 0 0 0 93947660.80161056 -24939978.94249663 -24939978.94249663 -15761043.30533656 0 0 0 0 0 98714143.76155561 -23969102.4839382 -23969102.4839382 -16785202.88111231 0 0 0 0 0 68327856.43624653 -20818844.92767665 -20818844.92767665 -4502912.787373623 0 0 0 0 0 66347739.84644824 -19145127.01324232 -19145127.01324232 -3020519.146479708 0 0 0 0 0 64816468.64503527 -17354737.89766709 -17354737.89766709 -1681906.024174314 0 0 0 0 0 103462747.4468341 -22577366.62822282 -22577366.62822282 -17477955.42629496 0 0 0 0 0 108092030.4612231 -20804708.85490603 -20804708.85490603 -17749651.63176633 0 0 0 0 0 112510014.4351079 -18692325.84750113 -18692325.84750113 -17562114.28688497 0 0 0 0 0 63705154.38841332 -15499236.62743546 -15499236.62743546 -501880.8410204376 0 0 0 0 0 62996491.21655446 -13620223.30432879 -13620223.30432879 518196.5286144583 0 0 0 0 0 62641403.27931617 -11756237.33546169 -11756237.33546169 1372728.2591857 0 0 0 0 0 62611911.66121184 -9939291.059249287 -9939291.059249287 2070394.582797365 0 0 0 0 0 64357010.8311378 -9907646.015999779 -9907646.015999779 2508257.909577897 0 0 0 0 0 65101589.56350216 -8179827.94202751 -8179827.94202751 2618435.54110512 0 0 0 0 0 66840304.86468876 -8133582.205503897 -8133582.205503897 3046315.127671069 0 0 0 0 0 70496545.77935888 -5453444.34013057 -5453444.34013057 3314194.260275126 0 0 0 0 0 69833870.21638198 -5499190.873875809 -5499190.873875809 3254086.449025332 0 0 0 0 0 67494222.87335373 -6683187.476271311 -6683187.476271311 2950831.488844923 0 0 0 0 0 69303364.50013091 -6719588.329223892 -6719588.329223892 2901966.401953373 0 0 0 0 0 73432179.99458086 -4093740.17554968 -4093740.17554968 3784585.282031512 0 0 0 0 0 72590185.74726598 -5349527.194114527 -5349527.194114527 3381982.677830548 0 0 0 0 0 73513907.77631269 -3686907.343057578 -3686907.343057578 3144577.643814954 0 0 0 0 0 74330960.02085961 -2954728.870376599 -2954728.870376599 3197322.922448538 0 0 0 0 0 263370254.5490288 -59942653.89975601 -59942653.89975601 28630035.62117658 0 0 0 0 0 221997763.6988441 -38769154.53025559 -38769154.53025559 27313475.50463045 0 0 0 0 0 191626359.0187427 -34461911.55716386 -34461911.55716386 30314394.25402946 0 0 0 0 0 204956859.1100204 -40086258.56118084 -40086258.56118084 29785298.91878843 0 0 0 0 0 176007870.3301786 -27813078.36833971 -27813078.36833971 26270521.53068013 0 0 0 0 0 164235439.0172704 -22158779.0576754 -22158779.0576754 20159248.22175401 0 0 0 0 0 155293470.3779981 -17849205.60163976 -17849205.60163976 13876621.59512208 0 0 0 0 0 148326244.8322822 -14721589.72089111 -14721589.72089111 8046287.234537781 0 0 0 0 0 142788677.200791 -12545948.28139598 -12545948.28139598 2625399.45954108 0 0 0 0 0 138306493.8652883 -11221931.98056568 -11221931.98056568 -2055396.171912774 0 0 0 0 0 134556830.3790614 -10545523.68565742 -10545523.68565742 -5903741.849659111 0 0 0 0 0 131325224.9989762 -10316677.23755152 -10316677.23755152 -8953739.603574598 0 0 0 0 0 125850796.8732989 -10983539.59797312 -10983539.59797312 -10019666.73654351 0 0 0 0 0 124959175.9759125 -13374266.03203791 -13374266.03203791 -13741579.87677742 0 0 0 0 0 122536640.3037809 -13489436.0688604 -13489436.0688604 -14986351.2450545 0 0 0 0 0 117333627.4111685 -14667487.95222352 -14667487.95222352 -15740597.08350798 0 0 0 0 0 116607692.2766994 -16280823.94001315 -16280823.94001315 -16894844.33720046 0 0 0 0 0 77632255.60775067 -25801387.10649071 -25801387.10649071 -11801686.64277296 0 0 0 0 0 74489114.48762485 -25002368.94977435 -25002368.94977435 -9978291.167371213 0 0 0 0 0 71767172.50376315 -23888288.24055004 -23888288.24055004 -8138366.821129075 0 0 0 0 0 81168177.85180148 -26236029.05655032 -26236029.05655032 -13542028.06618185 0 0 0 0 0 85055548.63416238 -26266925.69625426 -26266925.69625426 -15135232.85263495 0 0 0 0 0 89256450.20187344 -25863560.75721741 -25863560.75721741 -16514664.36379426 0 0 0 0 0 69482763.46191961 -22512592.61489597 -22512592.61489597 -6338130.704255553 0 0 0 0 0 93666486.77582531 -25009019.60877462 -25009019.60877462 -17566688.42212052 0 0 0 0 0 98199338.3251408 -23713766.8998652 -23713766.8998652 -18245972.57823658 0 0 0 0 0 67626189.28315076 -20930720.27280266 -20930720.27280266 -4625372.064187183 0 0 0 0 0 66184644.17209398 -19196956.14373839 -19196956.14373839 -3034962.346903072 0 0 0 0 0 65145881.67042676 -17362998.18100451 -17362998.18100451 -1591580.828061562 0 0 0 0 0 102748213.5491652 -21998377.24732206 -21998377.24732206 -18494840.01630214 0 0 0 0 0 107195944.959017 -19910671.83356153 -19910671.83356153 -18285350.25726033 0 0 0 0 0 111448173.273933 -17497626.34630721 -17497626.34630721 -17586223.92735089 0 0 0 0 0 64480718.49573784 -15480595.22241359 -15480595.22241359 -309513.0903488306 0 0 0 0 0 64156759.13255114 -13584647.91279359 -13584647.91279359 801284.776988037 0 0 0 0 0 64132736.38457328 -11716995.85983449 -11716995.85983449 1740209.990799045 0 0 0 0 0 64925675.45669039 -9810932.685431683 -9810932.685431683 2086184.783726823 0 0 0 0 0 66455057.09129488 -9757004.49910217 -9757004.49910217 2454392.922925887 0 0 0 0 0 67163601.20524308 -8128008.847958411 -8128008.847958411 2565993.555050803 0 0 0 0 0 71391924.56652145 -5438224.502552804 -5438224.502552804 3182877.285130831 0 0 0 0 0 70704491.75667517 -6653926.195459475 -6653926.195459475 3214997.09395594 0 0 0 0 0 68705838.50164078 -8074956.118382983 -8074956.118382983 2938694.744625418 0 0 0 0 0 70395420.37979984 -7966492.181303576 -7966492.181303576 2822302.600809004 0 0 0 0 0 72819774.37397404 -4453685.552562368 -4453685.552562368 3046266.6218575 0 0 0 0 0 72670245.21048334 -5460250.68265245 -5460250.68265245 2923567.74843781 0 0 0 0 0 75467140.21081333 -3654956.023493008 -3654956.023493008 3728391.685332056 0 0 0 0 0 74745599.4584361 -4440231.511381438 -4440231.511381438 3599602.160798866 0 0 0 0 0 229324553.721958 -46501233.36996764 -46501233.36996764 12750460.24613808 0 0 0 0 0 206763216.9547295 -35695943.57244435 -35695943.57244435 21730221.32448662 0 0 0 0 0 178092801.8242111 -22630978.45444199 -22630978.45444199 23939055.12627513 0 0 0 0 0 194057213.827186 -24593393.47782376 -24593393.47782376 24261653.23606522 0 0 0 0 0 166447589.1402716 -17908090.5823789 -17908090.5823789 22333902.63053213 0 0 0 0 0 156782188.0867251 -14235197.80486863 -14235197.80486863 18343184.54946492 0 0 0 0 0 149543041.829161 -11487025.03313065 -11487025.03313065 13597794.08999603 0 0 0 0 0 143828871.66287 -9545553.843292871 -9545553.843292871 8780367.21326283 0 0 0 0 0 139286068.0732459 -8281500.35382119 -8281500.35382119 4204201.427266536 0 0 0 0 0 135517293.3243054 -7645738.909707394 -7645738.909707394 11685.78370170699 0 0 0 0 0 132274424.9493594 -7490799.308073429 -7490799.308073429 -3648432.048691989 0 0 0 0 0 129402628.4466837 -7671243.247206002 -7671243.247206002 -6717944.949698691 0 0 0 0 0 128469351.5160871 -10382950.17670727 -10382950.17670727 -11265924.24028268 0 0 0 0 0 123407837.7360067 -11261852.01523812 -11261852.01523812 -12109869.06033565 0 0 0 0 0 121147702.6683323 -11629912.17829994 -11629912.17829994 -13646311.24217003 0 0 0 0 0 120301685.0505309 -13667784.15216461 -13667784.15216461 -15750571.42622403 0 0 0 0 0 115429578.1042831 -14847616.13431386 -14847616.13431386 -16389423.51970539 0 0 0 0 0 81743978.73379526 -24144300.94072027 -24144300.94072027 -10388933.07504144 0 0 0 0 0 78321840.59302808 -23475388.47840877 -23475388.47840877 -8742163.002172157 0 0 0 0 0 75269984.50020532 -22513505.58462075 -22513505.58462075 -7106239.044504046 0 0 0 0 0 85491560.77905566 -24480113.8562749 -24480113.8562749 -11994304.42934599 0 0 0 0 0 89526550.80377172 -24448950.90316675 -24448950.90316675 -13497365.42782164 0 0 0 0 0 93808368.80467086 -24021649.16244093 -24021649.16244093 -14837709.61682945 0 0 0 0 0 72616017.61000554 -21304865.69779419 -21304865.69779419 -5526272.424246849 0 0 0 0 0 98176613.41788942 -23177952.76717527 -23177952.76717527 -15940702.41719917 0 0 0 0 0 102521868.0991429 -21971650.89511805 -21971650.89511805 -16765440.10269511 0 0 0 0 0 70375657.40467115 -19898043.215629 -19898043.215629 -4033993.471600381 0 0 0 0 0 68545985.2673108 -18338985.54210532 -18338985.54210532 -2655235.33970707 0 0 0 0 0 67116445.34991929 -16677791.60281909 -16677791.60281909 -1414426.467874407 0 0 0 0 0 106796686.4889602 -20386653.61528999 -20386653.61528999 -17236376.2393058 0 0 0 0 0 110906239.2064731 -18482172.82843319 -18482172.82843319 -17304561.32022681 0 0 0 0 0 114767230.051825 -16270586.75096759 -16270586.75096759 -16920146.38978318 0 0 0 0 0 66061181.75946615 -14960750.08060438 -14960750.08060438 -321619.2747319675 0 0 0 0 0 65366983.61174463 -13221672.55165143 -13221672.55165143 622343.2133365973 0 0 0 0 0 64999202.68790806 -11498082.22904171 -11498082.22904171 1419162.358985264 0 0 0 0 0 66291033.40401593 -11442583.94804948 -11442583.94804948 1724502.771793546 0 0 0 0 0 67051623.11273652 -9642233.638746992 -9642233.638746992 2072406.173018347 0 0 0 0 0 68393620.52429777 -9577895.958133217 -9577895.958133217 2382254.565810555 0 0 0 0 0 72220237.0445552 -6630151.873265831 -6630151.873265831 3039840.003057542 0 0 0 0 0 70999623.50534366 -6657428.229477904 -6657428.229477904 2733637.277943564 0 0 0 0 0 69053564.0562034 -8049387.767942796 -8049387.767942796 2516601.797020011 0 0 0 0 0 70808180.18536644 -7918294.096785078 -7918294.096785078 2411222.701126303 0 0 0 0 0 74131243.7190707 -5405379.541106871 -5405379.541106871 3249189.726122488 0 0 0 0 0 73673465.97407322 -6539335.062300937 -6539335.062300937 2947492.612836746 0 0 0 0 0 74791818.11062697 -4081148.897390433 -4081148.897390433 2962455.888867665 0 0 0 0 0 74160405.45576571 -4795091.074029738 -4795091.074029738 2890027.719154302 0 0 0 0 0 282692101.0366839 -44714688.46260763 -44714688.46260763 22882742.91237147 0 0 0 0 0 240491527.4701793 -34270196.82736137 -34270196.82736137 26281844.49198839 0 0 0 0 0 215738290.5444207 -26874930.89029177 -26874930.89029177 30689358.35617993 0 0 0 0 0 178848051.9175601 -21572158.88916953 -21572158.88916953 27568406.53146188 0 0 0 0 0 190365376.6805569 -24919529.34667087 -24919529.34667087 28359596.84007096 0 0 0 0 0 167705117.2338372 -17376982.41824971 -17376982.41824971 22893101.7465973 0 0 0 0 0 158827381.8968952 -13786067.08783166 -13786067.08783166 17264769.26864979 0 0 0 0 0 151806711.3340372 -11135630.99013537 -11135630.99013537 11723268.77319515 0 0 0 0 0 146125462.2798726 -9266194.165590439 -9266194.165590439 6522693.358480882 0 0 0 0 0 141461927.6157241 -8073202.3493802 -8073202.3493802 1794723.147785872 0 0 0 0 0 137555620.1602864 -7459486.384242967 -7459486.384242967 -2287652.013055524 0 0 0 0 0 134200174.8258814 -7284194.884159263 -7284194.884159263 -5675713.570552362 0 0 0 0 0 131246554.7347074 -7416699.127088381 -7416699.127088381 -8389565.840161346 0 0 0 0 0 126802640.051874 -8061836.658803228 -8061836.658803228 -9198210.40427421 0 0 0 0 0 125884495.0120068 -10614913.14611824 -10614913.14611824 -12952567.70442186 0 0 0 0 0 123502906.8038158 -10949172.34167363 -10949172.34167363 -14141463.08548983 0 0 0 0 0 119049380.9550795 -12005546.283744 -12005546.283744 -14685637.0736374 0 0 0 0 0 118269599.7053275 -13840801.0315548 -13840801.0315548 -16100939.75494802 0 0 0 0 0 78863167.85511896 -24560008.08748383 -24560008.08748383 -10915501.37502277 0 0 0 0 0 82089541.14618303 -25014951.19307127 -25014951.19307127 -12592583.96473503 0 0 0 0 0 75992654.99064247 -23781107.27484477 -23781107.27484477 -9183467.67786441 0 0 0 0 0 73502688.77761199 -22722353.43256362 -22722353.43256362 -7453069.834514073 0 0 0 0 0 85631133.57359521 -25110691.79216889 -25110691.79216889 -14155727.42968635 0 0 0 0 0 89441778.70132476 -24815325.97430381 -24815325.97430381 -15543741.02893363 0 0 0 0 0 93489648.44879438 -24093540.04526717 -24093540.04526717 -16681678.510753 0 0 0 0 0 71400304.97676225 -21432856.05987106 -21432856.05987106 -5773225.010028632 0 0 0 0 0 97691681.96497297 -22973550.86244991 -22973550.86244991 -17487277.04495255 0 0 0 0 0 101846423.7871759 -21467713.8500478 -21467713.8500478 -17923197.80838317 0 0 0 0 0 69678985.52487727 -19960840.34447198 -19960840.34447198 -4181416.530815913 0 0 0 0 0 68331093.70844039 -18352483.07529719 -18352483.07529719 -2703787.308145158 0 0 0 0 0 67349086.77343537 -16657215.86538624 -16657215.86538624 -1365721.545358116 0 0 0 0 0 105971019.3702781 -19610869.54163608 -19610869.54163608 -17952687.70575203 0 0 0 0 0 109937573.0629165 -17424120.2983081 -17424120.2983081 -17548265.69971101 0 0 0 0 0 113684968.6342244 -14984293.29761208 -14984293.29761208 -16684815.56680171 0 0 0 0 0 66706748.75350124 -14916251.97153236 -14916251.97153236 -178599.0143032531 0 0 0 0 0 66368942.83396576 -13167736.56234111 -13167736.56234111 852873.7450704235 0 0 0 0 0 67163179.01691779 -11214544.38396748 -11214544.38396748 1447711.664902358 0 0 0 0 0 68276648.68397637 -11144213.05201279 -11144213.05201279 1696863.530359009 0 0 0 0 0 68984263.34147361 -9457790.830172025 -9457790.830172025 2031796.606314038 0 0 0 0 0 72593897.64244482 -6620214.170523847 -6620214.170523847 2743525.205755595 0 0 0 0 0 72009399.19495173 -7845994.121303688 -7845994.121303688 2685278.019062657 0 0 0 0 0 70181382.26225303 -9378895.725595472 -9378895.725595472 2299240.538755437 0 0 0 0 0 71820224.62941857 -9164926.686798967 -9164926.686798967 2195862.212309524 0 0 0 0 0 73868046.19979639 -5617722.393029164 -5617722.393029164 2736195.805470346 0 0 0 0 0 74021433.65351397 -6538030.834855955 -6538030.834855955 2597239.531663909 0 0 0 0 0 76007173.0597129 -4770154.782231819 -4770154.782231819 3440087.326589993 0 0 0 0 0 75601491.75385416 -5580731.450449464 -5580731.450449464 3217007.784639608 0 0 0 0 0 241929140.3672212 -32043986.7633732 -32043986.7633732 6520040.292793914 0 0 0 0 0 215034674.6593858 -26952630.85912336 -26952630.85912336 18595701.11832764 0 0 0 0 0 195695599.1863068 -19720863.94702845 -19720863.94702845 26532822.6047097 0 0 0 0 0 169483041.4060116 -12468609.98898784 -12468609.98898784 24755462.6004241 0 0 0 0 0 183488135.5729028 -13925012.94691458 -13925012.94691458 27458576.09741759 0 0 0 0 0 160441775.8100745 -9632783.072015962 -9632783.072015962 21495226.14016323 0 0 0 0 0 153152970.1290652 -7433390.818465699 -7433390.818465699 17391927.22658539 0 0 0 0 0 147282784.7764987 -5860796.152127912 -5860796.152127912 12816466.63409983 0 0 0 0 0 142514418.4805945 -4848651.216438912 -4848651.216438912 8289174.595380777 0 0 0 0 0 138559950.5359246 -4334879.15448124 -4334879.15448124 4042918.298067233 0 0 0 0 0 135178996.240103 -4251897.050762696 -4251897.050762696 203722.2268622785 0 0 0 0 0 132206423.1195475 -4495762.873696295 -4495762.873696295 -3141707.255985848 0 0 0 0 0 129533537.7391983 -4963144.496518914 -4963144.496518914 -5959137.140857766 0 0 0 0 0 128585156.6240073 -7749267.28622616 -7749267.28622616 -10496289.44626177 0 0 0 0 0 124412847.7453893 -8560152.260645678 -8560152.260645678 -11127485.70357288 0 0 0 0 0 122203951.3845138 -9108512.092050461 -9108512.092050461 -12567950.69185613 0 0 0 0 0 121333798.4427867 -11285654.50429513 -11285654.50429513 -14851639.63131873 0 0 0 0 0 117105486.814476 -12364427.72667933 -12364427.72667933 -15358265.25314931 0 0 0 0 0 82635359.78718376 -23032881.61866455 -23032881.61866455 -9586327.411179818 0 0 0 0 0 86058058.41447097 -23392233.64862385 -23392233.64862385 -11122014.78122271 0 0 0 0 0 79510773.1352489 -22375084.34942762 -22375084.34942762 -8029159.442430472 0 0 0 0 0 76722194.08674608 -21456161.14927047 -21456161.14927047 -6495153.348274728 0 0 0 0 0 89733341.6791182 -23422091.59332122 -23422091.59332122 -12584224.38388915 0 0 0 0 0 93609809.92694966 -23096231.85220468 -23096231.85220468 -13915558.26759767 0 0 0 0 0 97640614.61696622 -22399622.91700038 -22399622.91700038 -15058883.31843833 0 0 0 0 0 74292703.64869265 -20318165.66840403 -20318165.66840403 -5020172.720395017 0 0 0 0 0 101671913.0903222 -21333765.7992333 -21333765.7992333 -15983639.63647994 0 0 0 0 0 105616733.7140169 -19933282.89954224 -19933282.89954224 -16579774.21907937 0 0 0 0 0 72231677.19831398 -19002609.6214026 -19002609.6214026 -3631155.858031125 0 0 0 0 0 70532492.03924702 -17553117.51797435 -17553117.51797435 -2352073.560607863 0 0 0 0 0 69194505.39444008 -16013880.34165854 -16013880.34165854 -1200350.478335015 0 0 0 0 0 109428048.0072348 -18230161.78632722 -18230161.78632722 -16847223.79548594 0 0 0 0 0 113056263.5614862 -16224802.28891423 -16224802.28891423 -16709005.9386181 0 0 0 0 0 116383342.3200252 -13988204.99030054 -13988204.99030054 -16173132.76738025 0 0 0 0 0 68207248.7506966 -14422028.52036838 -14422028.52036838 -185032.3723157644 0 0 0 0 0 67533443.3198497 -12815416.12222893 -12815416.12222893 693408.6010788425 0 0 0 0 0 68391494.76556279 -12745662.39575572 -12745662.39575572 877369.5217079932 0 0 0 0 0 69132714.77665569 -10915841.74783058 -10915841.74783058 1444485.950037052 0 0 0 0 0 70128108.48730287 -10830104.16983851 -10830104.16983851 1657697.98836578 0 0 0 0 0 73458748.35201713 -7730241.325870859 -7730241.325870859 2554306.526746367 0 0 0 0 0 72454872.10049534 -7775964.687146822 -7775964.687146822 2331147.003771615 0 0 0 0 0 70774331.22819443 -9253291.161827471 -9253291.161827471 1969441.680958496 0 0 0 0 0 72462014.39274953 -9021393.087470159 -9021393.087470159 1917000.036217702 0 0 0 0 0 74906417.23949057 -6423921.926578766 -6423921.926578766 2710450.795882432 0 0 0 0 0 74848846.66477118 -7577923.891288952 -7577923.891288952 2480540.087404395 0 0 0 0 0 75368003.62197053 -5169670.389349727 -5169670.389349727 2649108.709604485 0 0 0 0 0 74885075.14510399 -6000210.34138618 -6000210.34138618 2442334.880982367 0 0 0 0 0 290489602.584731 -29356946.35641543 -29356946.35641543 15925051.84209706 0 0 0 0 0 251349724.1033361 -24990928.39380806 -24990928.39380806 26390011.47609989 0 0 0 0 0 222754071.8469374 -19895105.26935448 -19895105.26935448 31499481.60317353 0 0 0 0 0 199808017.9408835 -14990053.02398517 -14990053.02398517 31035978.61582782 0 0 0 0 0 178638714.9573193 -14786735.03478232 -14786735.03478232 28220356.5392614 0 0 0 0 0 168600094.6974259 -12673198.30724667 -12673198.30724667 25210968.12843725 0 0 0 0 0 180156798.1864696 -14409283.73345257 -14409283.73345257 28165334.02718816 0 0 0 0 0 160261169.5909032 -9888471.936774811 -9888471.936774811 20565485.44436754 0 0 0 0 0 153585245.4714469 -7699964.43341995 -7699964.43341995 15452674.39934706 0 0 0 0 0 148069949.9241726 -6107118.736220833 -6107118.736220833 10419622.70783279 0 0 0 0 0 143471804.8913396 -5074853.600243857 -5074853.600243857 5725706.312596559 0 0 0 0 0 139581617.0438588 -4534540.659107379 -4534540.659107379 1506093.300245495 0 0 0 0 0 136230966.5700864 -4401194.888046115 -4401194.888046115 -2142218.822596871 0 0 0 0 0 133283565.3620736 -4574380.701467791 -4574380.701467791 -5191181.308345767 0 0 0 0 0 130634736.7119718 -4961576.472113577 -4961576.472113577 -7667849.663356705 0 0 0 0 0 127089020.0786227 -5565832.319008348 -5565832.319008348 -8259894.153941311 0 0 0 0 0 126159355.8913489 -8185474.116908047 -8185474.116908047 -12066880.21766169 0 0 0 0 0 123921176.4198921 -8655943.408881137 -8655943.408881137 -13162167.47867738 0 0 0 0 0 120124327.6479823 -9652055.545305239 -9652055.545305239 -13618121.37560386 0 0 0 0 0 119335025.5304918 -11601984.47779777 -11601984.47779777 -15227073.64990864 0 0 0 0 0 79988897.27644929 -23365082.35942234 -23365082.35942234 -10096979.2107534 0 0 0 0 0 82934700.44269647 -23831431.08838217 -23831431.08838217 -11699282.54655172 0 0 0 0 0 86169313.75297563 -23975453.48071866 -23975453.48071866 -13215081.37697093 0 0 0 0 0 77365621.39697616 -22609875.50517138 -22609875.50517138 -8460811.360171432 0 0 0 0 0 75083201.97955485 -21606969.10676988 -21606969.10676988 -6839850.03461465 0 0 0 0 0 89650844.50716071 -23768338.55131616 -23768338.55131616 -14585602.65211458 0 0 0 0 0 93332809.1228316 -23196321.28731444 -23196321.28731444 -15768495.39080488 0 0 0 0 0 97163964.58463131 -22225110.26314334 -22225110.26314334 -16656595.11925612 0 0 0 0 0 73145066.77047661 -20399375.50567736 -20399375.50567736 -5274498.489755467 0 0 0 0 0 101043114.0519975 -20900012.92733501 -20900012.92733501 -17228988.62889142 0 0 0 0 0 104846940.014802 -19262132.13307324 -19262132.13307324 -17451381.64705053 0 0 0 0 0 71555544.78288524 -19028845.8211775 -19028845.8211775 -3793120.029229403 0 0 0 0 0 70306881.83292836 -17536272.92972059 -17536272.92972059 -2420090.848529639 0 0 0 0 0 69374177.40506104 -15968845.74777083 -15968845.74777083 -1178596.872573447 0 0 0 0 0 108535964.9227414 -17307203.95883215 -17307203.95883215 -17292185.64600874 0 0 0 0 0 112068485.1844123 -15079100.03585473 -15079100.03585473 -16703207.35968754 0 0 0 0 0 115322414.5285724 -12662360.09469791 -12662360.09469791 -15692830.67802507 0 0 0 0 0 68750130.69502269 -14360031.21098653 -14360031.21098653 -78987.2881478942 0 0 0 0 0 69520703.74501455 -12401607.7747938 -12401607.7747938 741551.9972139735 0 0 0 0 0 70261833.54436456 -12320070.78203339 -12320070.78203339 888812.2652892694 0 0 0 0 0 70945672.05790861 -10611175.6915412 -10611175.6915412 1419531.38351854 0 0 0 0 0 73910456.89848001 -7640779.573493014 -7640779.573493014 2279137.551406832 0 0 0 0 0 73320403.69755183 -8936919.992235361 -8936919.992235361 2088725.441509529 0 0 0 0 0 71821752.22332202 -10519661.67560668 -10519661.67560668 1599553.64947216 0 0 0 0 0 73339737.6627585 -10205676.66749453 -10205676.66749453 1525640.64506197 0 0 0 0 0 75839532.13442551 -6288069.978140472 -6288069.978140472 2777813.114743877 0 0 0 0 0 75335993.3717666 -7456272.635910192 -7456272.635910192 2291997.124894557 0 0 0 0 0 76682697.54855059 -5872260.908383596 -5872260.908383596 2997086.841163874 0 0 0 0 0 255469828.0683059 -18812418.3131434 -18812418.3131434 -150570.3237261059 0 0 0 0 0 220796994.1531238 -16278582.52843351 -16278582.52843351 20241339.06561253 0 0 0 0 0 200171410.01995 -13952701.52954768 -13952701.52954768 27476706.29317907 0 0 0 0 0 184689347.2609152 -9785882.725556687 -9785882.725556687 30611894.21212806 0 0 0 0 0 168864237.7380156 -8034866.982534461 -8034866.982534461 26886706.8818053 0 0 0 0 0 162029198.0294924 -5492802.700083441 -5492802.700083441 24268159.55986339 0 0 0 0 0 182073081.9358814 -9226709.113433035 -9226709.113433035 30272458.90304127 0 0 0 0 0 154963748.0646345 -3867897.677009838 -3867897.677009838 20952835.25403482 0 0 0 0 0 149246165.8347535 -2580943.876636544 -2580943.876636544 16727117.31227307 0 0 0 0 0 144534478.5235907 -1738285.126804661 -1738285.126804661 12346716.70326999 0 0 0 0 0 140579403.961114 -1325713.662867024 -1325713.662867024 8096831.250846901 0 0 0 0 0 137196536.9243223 -1288480.130124568 -1288480.130124568 4147661.773069476 0 0 0 0 0 134229643.2302826 -1561693.838673708 -1561693.838673708 599128.6730959748 0 0 0 0 0 131569549.4122222 -2063818.752658467 -2063818.752658467 -2495096.255161955 0 0 0 0 0 129142906.5820467 -2720361.677099462 -2720361.677099462 -5114788.531333745 0 0 0 0 0 128214228.8020949 -5479315.382849298 -5479315.382849298 -9619036.720991086 0 0 0 0 0 124820112.8681362 -6235765.319993166 -6235765.319993166 -10084151.80388339 0 0 0 0 0 122704259.7319584 -6910678.566627741 -6910678.566627741 -11475813.2704947 0 0 0 0 0 121859692.2659551 -9128131.53237118 -9128131.53237118 -13879455.70667475 0 0 0 0 0 118225377.0517993 -10131933.18168239 -10131933.18168239 -14283009.42474014 0 0 0 0 0 83451989.62108178 -21957994.07673429 -21957994.07673429 -8853978.082290461 0 0 0 0 0 86580007.6685988 -22333266.78516277 -22333266.78516277 -10313245.52550915 0 0 0 0 0 89939419.11486797 -22412364.10056431 -22412364.10056431 -11721065.64827423 0 0 0 0 0 80596632.98713787 -21315633.7219446 -21315633.7219446 -7387795.907589925 0 0 0 0 0 78045995.76754603 -20440074.52697207 -20440074.52697207 -5951256.546312247 0 0 0 0 0 93479205.71099682 -22173488.861029 -22173488.861029 -13028836.96280273 0 0 0 0 0 97164351.3552444 -21600116.03511142 -21600116.03511142 -14187144.35909341 0 0 0 0 0 100869845.9533017 -20684578.99831792 -20684578.99831792 -15140513.22733994 0 0 0 0 0 75819055.83886965 -19369128.77661734 -19369128.77661734 -4573607.679848014 0 0 0 0 0 104553583.3888102 -19451868.97613369 -19451868.97613369 -15850502.0005068 0 0 0 0 0 108106145.6025126 -17918129.88441954 -17918129.88441954 -16252964.17408522 0 0 0 0 0 73918343.73326464 -18142130.13272813 -18142130.13272813 -3283842.774576633 0 0 0 0 0 72345739.31789903 -16795334.89432741 -16795334.89432741 -2099396.626580718 0 0 0 0 0 71096674.65272774 -15368901.69574021 -15368901.69574021 -1030038.343444558 0 0 0 0 0 111502008.6242446 -16122718.21284831 -16122718.21284831 -16313573.18703654 0 0 0 0 0 114653548.8416844 -14086782.75272126 -14086782.75272126 -16016045.91291181 0 0 0 0 0 117489688.4544664 -11873926.26981725 -11873926.26981725 -15337206.22628606 0 0 0 0 0 70162534.76629634 -13894669.08756668 -13894669.08756668 -83829.05622408818 0 0 0 0 0 70620506.9599085 -13819186.21073389 -13819186.21073389 -6566.023568798814 0 0 0 0 0 71331809.63114384 -11993905.70621271 -11993905.70621271 763150.2846111518 0 0 0 0 0 71978173.49130519 -11901284.38671981 -11901284.38671981 881439.2576934927 0 0 0 0 0 74781158.82798885 -8700928.185943533 -8700928.185943533 2018588.601191456 0 0 0 0 0 73957910.57748879 -8786201.51792058 -8786201.51792058 1849816.922811532 0 0 0 0 0 72636612.31233439 -10294843.51045201 -10294843.51045201 1395293.425677706 0 0 0 0 0 74162965.82063371 -9972759.158780172 -9972759.158780172 1361126.143281301 0 0 0 0 0 75728049.00606449 -7329318.964294835 -7329318.964294835 2299413.483414374 0 0 0 0 0 76149500.75015433 -8459126.310356373 -8459126.310356373 1941350.295260994 0 0 0 0 0 76210408.31880385 -6168083.671747784 -6168083.671747784 2311743.180842704 0 0 0 0 0 305591946.1418431 -13891242.51469409 -13891242.51469409 14029190.34120691 0 0 0 0 0 255544235.81901 -9410142.40699329 -9410142.40699329 20012503.42574962 0 0 0 0 0 236130741.3850093 -15584279.02631661 -15584279.02631661 24899894.29359419 0 0 0 0 0 225571159.4954921 -13699576.53649928 -13699576.53649928 32896750.86043689 0 0 0 0 0 203532342.7868916 -10636550.13984887 -10636550.13984887 33278204.82221759 0 0 0 0 0 185751522.7303149 -8955828.980711162 -8955828.980711162 32525105.78923769 0 0 0 0 0 168701202.2869143 -8080282.477702166 -8080282.477702166 27408994.37201304 0 0 0 0 0 159974756.0578354 -6318723.62602671 -6318723.62602671 23580758.35120631 0 0 0 0 0 172406224.7607687 -7721268.403290024 -7721268.403290024 30900549.9157112 0 0 0 0 0 153895982.2055798 -4625023.887383089 -4625023.887383089 19041348.61600697 0 0 0 0 0 148743249.7524833 -3266646.016113124 -3266646.016113124 14269134.51740906 0 0 0 0 0 144380904.6253128 -2359923.299185358 -2359923.299185358 9648147.221930197 0 0 0 0 0 140655339.4221244 -1878527.862340417 -1878527.862340417 5369985.553020095 0 0 0 0 0 137428307.8400507 -1763970.327833351 -1763970.327833351 1543782.595850404 0 0 0 0 0 134580777.8462909 -1947773.698315235 -1947773.698315235 -1771615.846283206 0 0 0 0 0 132022914.1822503 -2352134.610154328 -2352134.610154328 -4562680.135738754 0 0 0 0 0 129680653.3468957 -2910433.03424381 -2910433.03424381 -6857032.045540131 0 0 0 0 0 126894267.348483 -3464853.610570547 -3464853.610570547 -7279189.826645463 0 0 0 0 0 125993168.1853397 -6057341.507574454 -6057341.507574454 -11087662.54865246 0 0 0 0 0 123921168.8807185 -6648832.459487624 -6648832.459487624 -12158647.2700528 0 0 0 0 0 120734063.7954832 -7552809.036374114 -7552809.036374114 -12487186.26864503 0 0 0 0 0 119946570.6226269 -9568439.31435114 -9568439.31435114 -14288132.77124689 0 0 0 0 0 81022028.29200025 -22222707.84304055 -22222707.84304055 -9344628.001436524 0 0 0 0 0 83714603.47042477 -22693688.77879609 -22693688.77879609 -10865621.21476301 0 0 0 0 0 86671948.87853765 -22876237.71533311 -22876237.71533311 -12322902.82037083 0 0 0 0 0 89857190.88380463 -22745265.23916262 -22745265.23916262 -13665890.4116627 0 0 0 0 0 78621545.51977909 -21494470.70865276 -21494470.70865276 -7805626.787191165 0 0 0 0 0 76523909.67840531 -20545776.66219046 -20545776.66219046 -6290252.905536714 0 0 0 0 0 93222847.79706025 -22284697.35488718 -22284697.35488718 -14848480.41748697 0 0 0 0 0 96726850.07936871 -21467651.88960576 -21467651.88960576 -15792927.7400918 0 0 0 0 0 100287182.683582 -20325275.00948711 -20325275.00948711 -16481260.51096723 0 0 0 0 0 74740229.71323511 -19414949.84644177 -19414949.84644177 -4829427.160036846 0 0 0 0 0 103833521.5150337 -18855372.40825111 -18855372.40825111 -16840021.21691965 0 0 0 0 0 107271033.5066692 -17123824.89075212 -17123824.89075212 -16876622.80965275 0 0 0 0 0 73271997.68150577 -18139676.33354034 -18139676.33354034 -3453585.172063536 0 0 0 0 0 72109880.5001958 -16757865.10069556 -16757865.10069556 -2181249.954749905 0 0 0 0 0 71235296.50080794 -15304923.49331551 -15304923.49331551 -1028524.428181289 0 0 0 0 0 110571881.9490038 -15116445.48032723 -15116445.48032723 -16524234.53087212 0 0 0 0 0 113663478.6195474 -12900101.36493306 -12900101.36493306 -15782458.23833659 0 0 0 0 0 116455406.7307464 -10554619.93653261 -10554619.93653261 -14661011.57670514 0 0 0 0 0 71957262.67987885 -13377836.38639707 -13377836.38639707 -5795.114886918544 0 0 0 0 0 72345155.12023658 -13291590.67447533 -13291590.67447533 49511.60991993832 0 0 0 0 0 73024522.15461434 -11578936.97242752 -11578936.97242752 784017.9972095181 0 0 0 0 0 75319259.27733934 -8577100.629680771 -8577100.629680771 1774985.858057778 0 0 0 0 0 74789755.37693724 -9879788.541785261 -9879788.541785261 1468485.112407784 0 0 0 0 0 73519790.54598716 -11485864.52144477 -11485864.52144477 857290.1807995476 0 0 0 0 0 74976016.06651296 -11076171.13131125 -11076171.13131125 841146.9198399486 0 0 0 0 0 77007015.69721664 -7147976.069614261 -7147976.069614261 2344057.791804184 0 0 0 0 0 76365744.02095315 -8444453.920807848 -8444453.920807848 1488196.773570284 0 0 0 0 0 77211061.88321447 -6999185.36726096 -6999185.36726096 2301737.481774183 0 0 0 0 0 263118640.1567652 -572971.2403364773 -572971.2403364773 9556294.020379689 0 0 0 0 0 255017926.1218326 -9949445.161356572 -9949445.161356572 19942098.46233416 0 0 0 0 0 223610616.2377365 -6296702.533013846 -6296702.533013846 28857425.52558358 0 0 0 0 0 204381745.0583643 -9672052.423089208 -9672052.423089208 27278970.50353443 0 0 0 0 0 187655426.4237713 -7436661.549738676 -7436661.549738676 30893766.68561133 0 0 0 0 0 176051318.9963 -3247009.368942581 -3247009.368942581 32920835.1905535 0 0 0 0 0 161799908.6691531 -2027774.929467673 -2027774.929467673 27881098.97229246 0 0 0 0 0 155230388.7617159 -837657.3611953749 -837657.3611953749 24323947.56590567 0 0 0 0 0 172261029.9914592 -2931668.006402483 -2931668.006402483 31041310.5912808 0 0 0 0 0 149868359.2316158 174086.3213097785 174086.3213097785 20372250.97066953 0 0 0 0 0 145388295.3518812 900000.9040285593 900000.9040285593 16218769.98422064 0 0 0 0 0 141601937.6328808 1270964.053978001 1270964.053978001 12051246.3667043 0 0 0 0 0 138340304.8961928 1301389.909176721 1301389.909176721 8064897.850188585 0 0 0 0 0 135475663.6350509 1040496.60363648 1040496.60363648 4385074.957674205 0 0 0 0 0 132908905.9590555 547313.9780071995 547313.9780071995 1088359.067456196 0 0 0 0 0 130565687.7587452 -113542.9190987551 -113542.9190987551 -1793458.206800631 0 0 0 0 0 128397688.4335577 -884501.3445972573 -884501.3445972573 -4249517.221678292 0 0 0 0 0 127523854.7281937 -3550249.884266446 -3550249.884266446 -8676632.144907508 0 0 0 0 0 124784442.395406 -4245907.087703682 -4245907.087703682 -9019678.801557403 0 0 0 0 0 122813806.3767625 -5007734.061982462 -5007734.061982462 -10363340.09624699 0 0 0 0 0 121996687.4581953 -7218154.152871539 -7218154.152871539 -12873416.6830869 0 0 0 0 0 118902991.3397651 -8139700.415167613 -8139700.415167613 -13180922.43018887 0 0 0 0 0 84204414.81285511 -20926662.23421895 -20926662.23421895 -8187153.821542782 0 0 0 0 0 87066241.91789347 -21311164.33455314 -21311164.33455314 -9566705.476624213 0 0 0 0 0 90142029.69144268 -21430444.08372815 -21430444.08372815 -10912744.74110874 0 0 0 0 0 93386591.00183432 -21263359.19962982 -21263359.19962982 -12182530.74017294 0 0 0 0 0 81591781.01491347 -20302802.23046213 -20302802.23046213 -6811004.068830633 0 0 0 0 0 79256314.55828296 -19468999.5736092 -19468999.5736092 -5463305.459069246 0 0 0 0 0 96756049.52222247 -20795319.5113421 -20795319.5113421 -13330904.15104636 0 0 0 0 0 100168660.4721105 -20016587.3074141 -20016587.3074141 -14309692.04354939 0 0 0 0 0 103582060.2545264 -18941196.47903217 -18941196.47903217 -15080606.71974509 0 0 0 0 0 77205631.71410611 -18465068.18887638 -18465068.18887638 -4182409.759258233 0 0 0 0 0 106902994.7622036 -17575250.31522909 -17575250.31522909 -15590087.70390498 0 0 0 0 0 110096059.7136917 -15961582.29466471 -15961582.29466471 -15802811.03528746 0 0 0 0 0 75455105.30407736 -17319871.27127383 -17319871.27127383 -2984036.96031719 0 0 0 0 0 74002041.3270725 -16069940.49238375 -16069940.49238375 -1884643.308509012 0 0 0 0 0 72840954.98177117 -14744961.0990844 -14744961.0990844 -890075.0928295364 0 0 0 0 0 113074671.035911 -14116628.02670831 -14116628.02670831 -15694720.29658471 0 0 0 0 0 115786607.6099219 -12090643.05553723 -12090643.05553723 -15247171.57517345 0 0 0 0 0 118180739.8064418 -9943606.948386341 -9943606.948386341 -14450400.73532252 0 0 0 0 0 72924757.23549826 -14671605.11048501 -14671605.11048501 -907550.8602956093 0 0 0 0 0 73607732.20300867 -12869505.76134315 -12869505.76134315 60470.86543495921 0 0 0 0 0 73888342.60118049 -12780040.25439338 -12780040.25439338 84950.1842480488 0 0 0 0 0 76144199.8658985 -9562334.503438873 -9562334.503438873 1410111.969414093 0 0 0 0 0 75582311.72155805 -9659176.155184425 -9659176.155184425 1326627.32226224 0 0 0 0 0 74542935.79732855 -11169511.07848896 -11169511.07848896 784950.5448221447 0 0 0 0 0 75948407.14471711 -10770137.45847973 -10770137.45847973 781658.3273237954 0 0 0 0 0 76689707.6279715 -7973757.737957333 -7973757.737957333 1620869.650386288 0 0 0 0 0 77552102.23542331 -9277441.055947633 -9277441.055947633 1373201.720445939 0 0 0 0 0 77908753.51414597 -8318377.223500128 -8318377.223500128 1970247.868886744 0 0 0 0 0 77194350.0069897 -7048639.626103077 -7048639.626103077 1923866.963446688 0 0 0 0 0 236217473.5906393 -371092.0909005101 -371092.0909005101 21015427.23178548 0 0 0 0 0 222601159.5838606 -7586962.89899005 -7586962.89899005 29107554.78352629 0 0 0 0 0 206376190.1705092 -6716998.460419085 -6716998.460419085 33859423.94259832 0 0 0 0 0 187406335.0256209 -3207644.736141271 -3207644.736141271 33465684.12372579 0 0 0 0 0 177986566.5477894 -5925246.747639967 -5925246.747639967 34751806.8103832 0 0 0 0 0 170411140.464622 -5521028.659942212 -5521028.659942212 33342374.89353376 0 0 0 0 0 158499425.5587482 -3399369.614896147 -3399369.614896147 26561782.77220367 0 0 0 0 0 164532118.3112063 -4639350.25981436 -4639350.25981436 30345622.66964044 0 0 0 0 0 152989369.8298044 -1995369.296748266 -1995369.296748266 22355543.64094434 0 0 0 0 0 148315089.475596 -856700.5787243525 -856700.5787243525 17927127.07300119 0 0 0 0 0 144306230.7696376 -40162.87352287691 -40162.87352287691 13465522.3608189 0 0 0 0 0 140852936.2791643 419166.8842695857 419166.8842695857 9198326.35810652 0 0 0 0 0 137840490.7523995 543937.9704319269 543937.9704319269 5271254.312028568 0 0 0 0 0 135175732.1410643 386293.994484853 386293.994484853 1767653.075342588 0 0 0 0 0 132768359.6906936 -33.66788140222057 -33.66788140222057 -1279708.991136362 0 0 0 0 0 130567024.6180178 -551675.2172414162 -551675.2172414162 -3863714.697561649 0 0 0 0 0 128522303.5757798 -1212494.799128012 -1212494.799128012 -6002542.054532832 0 0 0 0 0 126358514.9050239 -1713532.264585023 -1713532.264585023 -6298533.844641098 0 0 0 0 0 125507592.1829948 -4225670.254509925 -4225670.254509925 -10086318.47842507 0 0 0 0 0 123615747.4676608 -4896450.236659783 -4896450.236659783 -11128994.165981 0 0 0 0 0 120964373.3297872 -5727121.205157768 -5727121.205157768 -11374201.2770809 0 0 0 0 0 120206657.2502066 -7739173.461779608 -7739173.461779608 -13314043.42920307 0 0 0 0 0 84437714.62262939 -21606815.16123304 -21606815.16123304 -10092471.07594557 0 0 0 0 0 81974163.03627455 -21136725.11933104 -21136725.11933104 -8655196.527948027 0 0 0 0 0 87144974.57212034 -21819225.3205701 -21819225.3205701 -11484686.54885793 0 0 0 0 0 90062505.67971966 -21750740.55014436 -21750740.55014436 -12786928.85614491 0 0 0 0 0 93148670.97434862 -21384138.60155808 -21384138.60155808 -13953750.99868168 0 0 0 0 0 79768524.69126187 -20436244.49903664 -20436244.49903664 -7214166.770240465 0 0 0 0 0 77842428.16399123 -19541481.31048652 -19541481.31048652 -5794013.816550074 0 0 0 0 0 96358618.23760469 -20702326.83391986 -20702326.83391986 -14932442.44826103 0 0 0 0 0 99629993.78286108 -19714267.40196738 -19714267.40196738 -15678950.54644538 0 0 0 0 0 102915576.0438196 -18425951.00697511 -18425951.00697511 -16155787.85488997 0 0 0 0 0 76200879.86915939 -18483169.61938056 -18483169.61938056 -4435399.558047557 0 0 0 0 0 106131379.1241205 -16875274.09293291 -16875274.09293291 -16339658.05515185 0 0 0 0 0 109226416.68892 -15071945.55609754 -15071945.55609754 -16182018.98237317 0 0 0 0 0 74845885.99452317 -17297600.89502314 -17297600.89502314 -3155361.632051024 0 0 0 0 0 73753150.04387958 -16014897.29920206 -16014897.29920206 -1979385.486197524 0 0 0 0 0 112145221.5143882 -13063739.7753664 -13063739.7753664 -15673445.03050764 0 0 0 0 0 114820396.688168 -10900266.75907054 -10900266.75907054 -14808192.66913784 0 0 0 0 0 117196044.5178967 -8655577.901117893 -8655577.901117893 -13607755.83298963 0 0 0 0 0 74450065.36106357 -14137596.25481009 -14137596.25481009 -759634.5653471767 0 0 0 0 0 74441706.82315889 -14056256.08947189 -14056256.08947189 -807694.4157184791 0 0 0 0 0 75103980.66174795 -12364433.62895905 -12364433.62895905 110971.7682416594 0 0 0 0 0 76863356.67395858 -9375428.763253739 -9375428.763253739 1263728.82651494 0 0 0 0 0 76318185.35537513 -10675387.45119393 -10675387.45119393 819408.0003964041 0 0 0 0 0 75332804.11798699 -12273550.31402933 -12273550.31402933 119552.107536473 0 0 0 0 0 76665626.14168356 -11791561.84256192 -11791561.84256192 146037.2939582683 0 0 0 0 0 78522367.94493012 -7754821.866447975 -7754821.866447975 2219543.185631903 0 0 0 0 0 78357345.7533925 -9105089.375427375 -9105089.375427375 1483451.178883495 0 0 0 0 0 77539923.32121451 -8966151.181711035 -8966151.181711035 1219705.264132624 0 0 0 0 0 207673928.4443331 1222390.264692518 1222390.264692518 30305074.41514796 0 0 0 0 0 190917976.482403 -2789740.470847798 -2789740.470847798 32160952.73240984 0 0 0 0 0 187204157.9735167 -5942982.382883579 -5942982.382883579 34939688.80273418 0 0 0 0 0 172728859.9656184 -218555.051239432 -218555.051239432 35282229.7108257 0 0 0 0 0 166168448.4549156 -209394.836822451 -209394.836822451 33297175.25840222 0 0 0 0 0 154209085.1319498 1589817.866515483 1589817.866515483 27441189.89927778 0 0 0 0 0 159705527.774243 890267.1324108269 890267.1324108269 30991899.91935897 0 0 0 0 0 149343337.0228185 2385397.435060865 2385397.435060865 23760132.45332302 0 0 0 0 0 145219541.1697601 3007331.400806056 3007331.400806056 19804572.49875209 0 0 0 0 0 141706731.4057809 3373230.274018486 3373230.274018486 15785870.52415855 0 0 0 0 0 138666348.3729715 3445500.400368705 3445500.400368705 11839175.36848557 0 0 0 0 0 135986064.5576547 3240871.555459559 3240871.555459559 8105485.63480875 0 0 0 0 0 133577131.1082963 2802245.213938176 2802245.213938176 4676255.993774923 0 0 0 0 0 131380282.0769275 2183214.79212695 2183214.79212695 1603830.437093246 0 0 0 0 0 129337534.9007623 1432574.742641113 1432574.742641113 -1091779.452057446 0 0 0 0 0 127419632.3989322 602605.2980249921 602605.2980249921 -3402527.215061877 0 0 0 0 0 126605511.3252547 -1935328.016602243 -1935328.016602243 -7734258.554402851 0 0 0 0 0 124440824.4748152 -2553813.088827134 -2553813.088827134 -7958055.176317136 0 0 0 0 0 122624572.2714077 -3369715.142767439 -3369715.142767439 -9274472.071302546 0 0 0 0 0 121849526.265113 -5534826.625719686 -5534826.625719686 -11859801.95731134 0 0 0 0 0 119234252.8187555 -6380558.172282629 -6380558.172282629 -12085091.7835656 0 0 0 0 0 87522762.78971182 -20331367.34330836 -20331367.34330836 -8880758.050528586 0 0 0 0 0 84904545.88705784 -19940161.03337682 -19940161.03337682 -7574719.302375836 0 0 0 0 0 90343295.55953351 -20481819.13507238 -20481819.13507238 -10159867.74582888 0 0 0 0 0 93320202.55492698 -20375663.34472473 -20375663.34472473 -11383039.34870663 0 0 0 0 0 96409822.34985137 -19997729.21090182 -19997729.21090182 -12508540.53101801 0 0 0 0 0 82512878.98198646 -19338059.74302103 -19338059.74302103 -6280216.931855221 0 0 0 0 0 80360527.88670778 -18546862.42410785 -18546862.42410785 -5019541.693139102 0 0 0 0 0 99561964.65368454 -19338517.24799567 -19338517.24799567 -13493195.98809302 0 0 0 0 0 102716726.4978876 -18400990.33659478 -18400990.33659478 -14294435.07733957 0 0 0 0 0 105815684.9035586 -17197530.73615983 -17197530.73615983 -14880222.95553579 0 0 0 0 0 78482450.04415183 -17601762.14227482 -17601762.14227482 -3827220.788014419 0 0 0 0 0 108810740.5947253 -15751082.19514973 -15751082.19514973 -15214853.91782836 0 0 0 0 0 111628772.7319942 -14084925.0307502 -14084925.0307502 -15259550.61163696 0 0 0 0 0 76869530.7488974 -16532364.26970424 -16532364.26970424 -2713192.183292461 0 0 0 0 0 75539763.99332514 -15365199.35139325 -15365199.35139325 -1683974.227719166 0 0 0 0 0 114216511.9211888 -12242457.05214946 -12242457.05214946 -15004092.02152292 0 0 0 0 0 116536258.3961527 -10254548.81543167 -10254548.81543167 -14421488.33210984 0 0 0 0 0 118532213.9542302 -8199552.500517285 -8199552.500517285 -13531288.23422918 0 0 0 0 0 75218173.96554212 -15303376.46747369 -15303376.46747369 -1801862.068351162 0 0 0 0 0 75895304.41823271 -13547985.03909971 -13547985.03909971 -651461.317373903 0 0 0 0 0 75856011.25951724 -13463228.32004181 -13463228.32004181 -711814.5873513832 0 0 0 0 0 77583654.85257983 -10275261.29601007 -10275261.29601007 780973.3415352553 0 0 0 0 0 77264168.78725874 -10377572.93622181 -10377572.93622181 771023.7493465876 0 0 0 0 0 76483033.3498299 -11883622.84654379 -11883622.84654379 151445.1511400011 0 0 0 0 0 77746367.21702403 -11427244.58963245 -11427244.58963245 177406.3728553694 0 0 0 0 0 78240989.9670645 -7935219.297756994 -7935219.297756994 1474115.943669325 0 0 0 0 0 78079645.88441846 -9749194.096227108 -9749194.096227108 612749.6539192062 0 0 0 0 0 78303601.28215203 -8809241.533566145 -8809241.533566145 1169596.354352579 0 0 0 0 0 200157123.8287769 -4868649.768312308 -4868649.768312308 34412610.89168084 0 0 0 0 0 179192693.9814403 -78118.41638074034 -78118.41638074034 35289194.40401168 0 0 0 0 0 165485019.5965579 -2928958.970837948 -2928958.970837948 34736507.36172521 0 0 0 0 0 170886267.4902277 -3460959.150260311 -3460959.150260311 36448353.96802587 0 0 0 0 0 160333571.9268442 -2235456.094553053 -2235456.094553053 32845901.18511366 0 0 0 0 0 150921829.196772 74334.97087178653 74334.97087178653 25417286.11392609 0 0 0 0 0 155356533.5620446 -946892.6181336719 -946892.6181336719 29111369.79435755 0 0 0 0 0 146916809.9556916 1061565.596682919 1061565.596682919 21296808.96515081 0 0 0 0 0 143387297.0136696 1821087.813583932 1821087.813583932 17060662.47182339 0 0 0 0 0 140284761.2746258 2290357.977334722 2290357.977334722 12887440.48872031 0 0 0 0 0 137555575.2945587 2463036.908134363 2463036.908134363 8936726.531240789 0 0 0 0 0 135124469.6260445 2363926.996362246 2363926.996362246 5317330.01219522 0 0 0 0 0 132924221.0279627 2035814.775493724 2035814.775493724 2086637.861947055 0 0 0 0 0 130901187.2856426 1529137.585121425 1529137.585121425 -735738.8768145875 0 0 0 0 0 129015417.0737856 891579.2744281715 891579.2744281715 -3143149.338729088 0 0 0 0 0 127238772.0518056 170861.6471519243 170861.6471519243 -5163768.397566094 0 0 0 0 0 125601052.3824894 -266544.7455811972 -266544.7455811972 -5348248.454580444 0 0 0 0 0 124800237.9375345 -2672075.507539246 -2672075.507539246 -9095001.703565473 0 0 0 0 0 123098240.838001 -3390593.32180517 -3390593.32180517 -10116774.01151353 0 0 0 0 0 120906514.3528385 -4139300.091591937 -4139300.091591937 -10282563.64471391 0 0 0 0 0 120183294.2677562 -6120488.568755824 -6120488.568755824 -12336743.54915831 0 0 0 0 0 87591363.39653865 -20808321.52106497 -20808321.52106497 -10701098.9376808 0 0 0 0 0 85102201.84659131 -20573193.45128508 -20573193.45128508 -9381108.824035583 0 0 0 0 0 82824236.91299117 -20108239.04859095 -20108239.04859095 -8027607.481817277 0 0 0 0 0 90268358.48317523 -20791074.23574479 -20791074.23574479 -11954567.69842477 0 0 0 0 0 93101621.22485326 -20505127.06520778 -20505127.06520778 -13095537.94210487 0 0 0 0 0 96048701.71292372 -19938135.57075181 -19938135.57075181 -14081894.55998321 0 0 0 0 0 80797680.97038332 -19438355.85969452 -19438355.85969452 -6671608.30455035 0 0 0 0 0 79023598.32778868 -18596579.72345745 -18596579.72345745 -5343023.167111742 0 0 0 0 0 99065879.26920347 -19086286.83011511 -19086286.83011511 -14872595.74613616 0 0 0 0 0 102102698.9684484 -17964166.71419591 -17964166.71419591 -15435136.07435021 0 0 0 0 0 105101266.9329405 -16583386.99937695 -16583386.99937695 -15730249.73587375 0 0 0 0 0 77506958.53064387 -17601990.62316797 -17601990.62316797 -4080101.749285426 0 0 0 0 0 108007474.8048317 -14965680.59851075 -14965680.59851075 -15729824.47448757 0 0 0 0 0 110760070.1182812 -13149020.17458139 -13149020.17458139 -15412772.35491434 0 0 0 0 0 76247416.10294232 -16496817.46322419 -16496817.46322419 -2894290.108299741 0 0 0 0 0 113317583.7815816 -11171432.6043497 -11171432.6043497 -14772939.61581336 0 0 0 0 0 115615743.8652892 -9091843.811334796 -9091843.811334796 -13813873.90878924 0 0 0 0 0 117619483.7813298 -6963568.707741852 -6963568.707741852 -12552093.07154636 0 0 0 0 0 76905965.51939146 -14691854.98447436 -14691854.98447436 -1511433.022486216 0 0 0 0 0 76595015.16376522 -14618782.64093813 -14618782.64093813 -1633058.698727986 0 0 0 0 0 77220179.52885728 -12983561.94345911 -12983561.94345911 -563513.3769352151 0 0 0 0 0 78665872.81580517 -9923294.04052192 -9923294.04052192 889521.4736334082 0 0 0 0 0 77925393.93258135 -11338216.64690551 -11338216.64690551 178955.8813058923 0 0 0 0 0 77186423.69422367 -12895968.26172196 -12895968.26172196 -622573.5119754586 0 0 0 0 0 78419928.17332532 -12364111.02181818 -12364111.02181818 -552846.1631190861 0 0 0 0 0 79367796.14045458 -8659217.963316621 -8659217.963316621 1469064.065667723 0 0 0 0 0 79440903.85632192 -9603346.959425002 -9603346.959425002 1020005.293120202 0 0 0 0 0 187241309.2408608 1372903.368946524 1372903.368946524 34289033.53329756 0 0 0 0 0 181748078.0637996 -2955786.131449413 -2955786.131449413 36315745.00773695 0 0 0 0 0 161721760.6752586 1425799.390494083 1425799.390494083 35128933.91670043 0 0 0 0 0 167370256.958371 754395.5664284333 754395.5664284333 36429251.70194177 0 0 0 0 0 156412530.5973292 2165649.293322052 2165649.293322052 32949882.16427173 0 0 0 0 0 147771394.6347052 3876635.50406891 3876635.50406891 26689407.4111355 0 0 0 0 0 151909789.7769342 3127946.440410385 3127946.440410385 30133500.51498555 0 0 0 0 0 144154257.7784522 4516721.594839558 4516721.594839558 23015834.51669977 0 0 0 0 0 141009703.6215205 4932946.030614088 4932946.030614088 19193697.62593978 0 0 0 0 0 138266043.0817409 5094119.790914667 5094119.790914667 15364454.45513304 0 0 0 0 0 135828678.9851609 4990260.261081855 4990260.261081855 11656060.92726584 0 0 0 0 0 133633799.108533 4651927.954202186 4651927.954202186 8167683.132407311 0 0 0 0 0 131622663.6628665 4117519.810178075 4117519.810178075 4971633.966345457 0 0 0 0 0 129751958.7569873 3433981.018839406 3433981.018839406 2103708.989511795 0 0 0 0 0 127987222.44995 2645300.980205812 2645300.980205812 -422789.4961612165 0 0 0 0 0 126303859.6261655 1792907.976558868 1792907.976558868 -2607923.327937632 0 0 0 0 0 125555651.8276707 -592413.3182964259 -592413.3182964259 -6815612.473731256 0 0 0 0 0 123862006.2000209 -1139064.415416664 -1139064.415416664 -6951073.700261788 0 0 0 0 0 122204071.0755361 -1983813.518309212 -1983813.518309212 -8237818.496379955 0 0 0 0 0 121484445.5366925 -4068886.685890102 -4068886.685890102 -10857090.76742268 0 0 0 0 0 119299558.4562414 -4841187.448005844 -4841187.448005844 -11015669.49816025 0 0 0 0 0 90543462.84407799 -19570244.61254451 -19570244.61254451 -9458708.904710967 0 0 0 0 0 87956326.28661661 -19399290.19908191 -19399290.19908191 -8242312.483256794 0 0 0 0 0 85546533.95962244 -18999077.87507275 -18999077.87507275 -7000716.914291054 0 0 0 0 0 93280530.20845121 -19515388.18914171 -19515388.18914171 -10631888.10459468 0 0 0 0 0 96125501.56556359 -19213031.81570743 -19213031.81570743 -11724154.55632495 0 0 0 0 0 99035738.00362442 -18655102.17861617 -18655102.17861617 -12698871.48031482 0 0 0 0 0 83341669.00278451 -18422452.78373141 -18422452.78373141 -5795122.621632983 0 0 0 0 0 81352694.79718545 -17671298.8750826 -17671298.8750826 -4628728.285150473 0 0 0 0 0 101964238.155635 -17842137.38005754 -17842137.38005754 -13520196.90972127 0 0 0 0 0 104857494.113295 -16782204.18308704 -16782204.18308704 -14155384.36402524 0 0 0 0 0 107660122.8119287 -15492299.68202315 -15492299.68202315 -14571775.8071989 0 0 0 0 0 79626849.98203316 -16780414.1918701 -16780414.1918701 -3512068.221067279 0 0 0 0 0 110322875.585108 -13992828.68562466 -13992828.68562466 -14739284.05929276 0 0 0 0 0 112787174.7530524 -12318289.43930456 -12318289.43930456 -14635902.6224643 0 0 0 0 0 78145016.78676197 -15773499.25945693 -15773499.25945693 -2470790.648966257 0 0 0 0 0 115010933.7412851 -10504060.93268116 -10504060.93268116 -14246063.22266117 0 0 0 0 0 116969410.1702729 -8593481.872727927 -8593481.872727927 -13568785.37857 0 0 0 0 0 118623047.573642 -6642532.076514475 -6642532.076514475 -12605386.8195966 0 0 0 0 0 77550256.47950166 -15727186.04674088 -15727186.04674088 -2650493.844739753 0 0 0 0 0 78163068.82270131 -14047728.10975416 -14047728.10975416 -1368436.70548184 0 0 0 0 0 77866785.17541565 -13970035.36582693 -13970035.36582693 -1488788.04486411 0 0 0 0 0 79082945.32169302 -10858566.61585635 -10858566.61585635 220846.5999313134 0 0 0 0 0 78950891.80207381 -10961885.59459479 -10961885.59459479 240235.4888980354 0 0 0 0 0 78429634.94277434 -12452984.5827874 -12452984.5827874 -502455.2816009773 0 0 0 0 0 79581853.11645564 -11955871.86292043 -11955871.86292043 -432251.7537829213 0 0 0 0 0 79358739.67806531 -8684923.321510309 -8684923.321510309 978304.7073474112 0 0 0 0 0 79589635.2633045 -9539624.587046966 -9539624.587046966 660744.0488532458 0 0 0 0 0 172278541.9144919 1171647.854849819 1171647.854849819 36538233.34991509 0 0 0 0 0 155793758.0594935 -703450.5294884975 -703450.5294884975 34337362.28294066 0 0 0 0 0 159155322.9307307 -1327826.676037159 -1327826.676037159 36093346.02109334 0 0 0 0 0 161863732.5205263 -1025676.7008162 -1025676.7008162 36992920.14130021 0 0 0 0 0 151810291.3329424 357350.2259610919 357350.2259610919 31601997.24053861 0 0 0 0 0 148160522.304522 1453738.986537691 1453738.986537691 28087333.7792431 0 0 0 0 0 144819443.5133807 2398438.229858533 2398438.229858533 24320288.96999444 0 0 0 0 0 141790310.8059738 3169430.54627736 3169430.54627736 20342844.27254203 0 0 0 0 0 139093306.4034323 3695089.53699908 3695089.53699908 16336520.13391101 0 0 0 0 0 136683104.184734 3952463.08932708 3952463.08932708 12440704.41019706 0 0 0 0 0 134519789.5843925 3948007.009215027 3948007.009215027 8780753.159741888 0 0 0 0 0 132556145.4077575 3714475.838760079 3714475.838760079 5433643.412081852 0 0 0 0 0 130742298.8187437 3288166.862684744 3288166.862684744 2441178.466759254 0 0 0 0 0 129044228.9392038 2714696.347352843 2714696.347352843 -185428.9409969063 0 0 0 0 0 127438774.1508715 2034663.391252758 2034663.391252758 -2447547.631878858 0 0 0 0 0 125903981.8053547 1289884.10767712 1289884.10767712 -4355229.523874477 0 0 0 0 0 124681292.2374889 907643.5847774036 907643.5847774036 -4462439.612230022 0 0 0 0 0 123951388.2236845 -1358181.164706795 -1358181.164706795 -8122835.637707477 0 0 0 0 0 122423225.3836781 -2101421.60739926 -2101421.60739926 -9130902.512426719 0 0 0 0 0 120641212.4845038 -2774359.685798277 -2774359.685798277 -9236446.091269592 0 0 0 0 0 119962041.6036424 -4695816.37544544 -4695816.37544544 -11367389.87265372 0 0 0 0 0 90474116.37878408 -19869378.4949368 -19869378.4949368 -11172718.22290788 0 0 0 0 0 87995294.69876571 -19844192.17118853 -19844192.17118853 -9974880.959716823 0 0 0 0 0 85698997.43435305 -19596002.56872646 -19596002.56872646 -8720272.920638192 0 0 0 0 0 83588009.9252636 -19134463.31274172 -19134463.31274172 -7429344.868435995 0 0 0 0 0 93079290.33364613 -19651217.45514821 -19651217.45514821 -12281846.43351428 0 0 0 0 0 95795557.08809303 -19178963.51367559 -19178963.51367559 -13263193.04141065 0 0 0 0 0 98583265.46822694 -18450040.27056254 -18450040.27056254 -14080553.71080566 0 0 0 0 0 81740330.84983313 -18493309.78156397 -18493309.78156397 -6157977.432979576 0 0 0 0 0 80117993.29388323 -17690676.57426014 -17690676.57426014 -4935404.027486353 0 0 0 0 0 101396953.4621356 -17468038.30783529 -17468038.30783529 -14697741.58876298 0 0 0 0 0 104187763.7340313 -16245301.21418052 -16245301.21418052 -15081280.84055922 0 0 0 0 0 106904074.4604134 -14801888.35609848 -14801888.35609848 -15206863.22239108 0 0 0 0 0 78713700.81235938 -16762498.23290863 -16762498.23290863 -3757439.293328738 0 0 0 0 0 109500934.3685473 -13161593.85611006 -13161593.85611006 -15046682.78125962 0 0 0 0 0 111924460.0253035 -11368742.32944793 -11368742.32944793 -14600134.67232754 0 0 0 0 0 114147092.3522142 -9448373.768108793 -9448373.768108793 -13847506.71156143 0 0 0 0 0 116109987.9441428 -7467674.107146602 -7467674.107146602 -12818056.875884 0 0 0 0 0 117784326.1731205 -5470816.76513399 -5470816.76513399 -11524092.96643585 0 0 0 0 0 79311552.08247028 -15060118.67471186 -15060118.67471186 -2259519.038610103 0 0 0 0 0 78758244.43645519 -15002353.68192735 -15002353.68192735 -2434617.077478597 0 0 0 0 0 79318488.12944144 -13446855.86210733 -13446855.86210733 -1248941.206825261 0 0 0 0 0 79977888.10486937 -10477836.01710401 -10477836.01710401 156596.4547134076 0 0 0 0 0 79538780.71745488 -11862629.41192978 -11862629.41192978 -494221.5561456821 0 0 0 0 0 79072443.9203926 -13364285.71869071 -13364285.71869071 -1357992.335550354 0 0 0 0 0 80167101.05323136 -12795011.33400296 -12795011.33400296 -1255363.002996372 0 0 0 0 0 80491144.94873844 -9404557.250025339 -9404557.250025339 931314.5593186166 0 0 0 0 0 80461472.60133165 -10379787.68341084 -10379787.68341084 297131.4084093916 0 0 0 0 0 169558417.1075307 -1583011.189236941 -1583011.189236941 36913625.5227109 0 0 0 0 0 152695743.8362142 2726089.765701289 2726089.765701289 34198310.9879769 0 0 0 0 0 156740734.9183041 1796495.755504521 1796495.755504521 35984970.58049836 0 0 0 0 0 160346300.5515799 1032072.379488314 1032072.379488314 37008357.77697849 0 0 0 0 0 148861039.8545991 3739378.250594258 3739378.250594258 31988341.39980886 0 0 0 0 0 145466230.0251309 4674251.004658634 4674251.004658634 29074674.58570088 0 0 0 0 0 142386457.2698151 5409225.397235066 5409225.397235066 25740969.14831153 0 0 0 0 0 139671370.2382966 5942497.018058387 5942497.018058387 22186735.95562132 0 0 0 0 0 137253669.0131817 6229345.868997061 6229345.868997061 18548704.790226 0 0 0 0 0 135104229.2708675 6268509.328616773 6268509.328616773 14940777.62591855 0 0 0 0 0 133152980.9880207 6067103.700823753 6067103.700823753 11472803.15928957 0 0 0 0 0 131358413.5693248 5659046.297084631 5659046.297084631 8222389.448510078 0 0 0 0 0 129685384.0531058 5083162.499783543 5083162.499783543 5244571.902593497 0 0 0 0 0 128101649.4681181 4378556.94086384 4378556.94086384 2562684.802523967 0 0 0 0 0 126577014.9017631 3580521.925788564 3580521.925788564 187685.8682467123 0 0 0 0 0 125105375.8987565 2731962.086919566 2731962.086919566 -1875993.602681223 0 0 0 0 0 124430554.907431 516598.9918335493 516598.9918335493 -5927846.626649749 0 0 0 0 0 123125835.1838886 32701.62688552413 32701.62688552413 -6004027.573324906 0 0 0 0 0 121643661.6676896 -810485.0563643973 -810485.0563643973 -7254392.249342098 0 0 0 0 0 120980637.3011473 -2796633.634879588 -2796633.634879588 -9878864.930415269 0 0 0 0 0 119156788.6830256 -3500627.314872263 -3500627.314872263 -9986932.251373887 0 0 0 0 0 93259496.03348596 -18686271.85341508 -18686271.85341508 -9930472.024013145 0 0 0 0 0 90740129.58852333 -18699325.48603943 -18699325.48603943 -8804490.789293282 0 0 0 0 0 88348302.07101786 -18503382.00824842 -18503382.00824842 -7648325.161618975 0 0 0 0 0 86100918.30618849 -18113480.90149669 -18113480.90149669 -6487219.955502265 0 0 0 0 0 95881564.1878621 -18450119.71423602 -18450119.71423602 -10984874.66673357 0 0 0 0 0 98571969.14871979 -17981577.58199701 -17981577.58199701 -11942750.22997315 0 0 0 0 0 101289818.7963675 -17279518.95915854 -17279518.95915854 -12772557.92760895 0 0 0 0 0 84069715.73479393 -17548500.59009383 -17548500.59009383 -5356278.079055309 0 0 0 0 0 82285989.45093375 -16835522.42980851 -16835522.42980851 -4263572.475402893 0 0 0 0 0 103984908.3083607 -16348063.98595001 -16348063.98595001 -13442399.24366182 0 0 0 0 0 106609588.2402705 -15199210.06769853 -15199210.06769853 -13921667.13725708 0 0 0 0 0 109120270.3194259 -13853249.72491481 -13853249.72491481 -14182482.81256937 0 0 0 0 0 80689667.39072834 -15997244.83527702 -15997244.83527702 -3223937.98085693 0 0 0 0 0 111465609.7060043 -12335257.09558827 -12335257.09558827 -14204037.47990985 0 0 0 0 0 113609189.2814197 -10678508.1000416 -10678508.1000416 -13968732.27291827 0 0 0 0 0 115510754.3182735 -8918493.109360028 -8918493.109360028 -13470219.42970707 0 0 0 0 0 117153297.138507 -7098933.962799717 -7098933.962799717 -12707130.45291181 0 0 0 0 0 118513017.49256 -5263535.829895214 -5263535.829895214 -11686565.589312 0 0 0 0 0 79842569.87517649 -15966964.12459335 -15966964.12459335 -3459049.076347756 0 0 0 0 0 80388731.54202776 -14389125.12342204 -14389125.12342204 -2079639.671085597 0 0 0 0 0 79896084.09597571 -14324570.21049662 -14324570.21049662 -2243212.114348802 0 0 0 0 0 80644678.84900185 -11376388.68116354 -11376388.68116354 -434647.8904551342 0 0 0 0 0 80626008.69151852 -11462211.97099764 -11462211.97099764 -403381.6235468391 0 0 0 0 0 80404320.17942974 -12880737.70193028 -12880737.70193028 -1146890.798415916 0 0 0 0 0 81414681.24002557 -12343044.81777404 -12343044.81777404 -1062981.785522356 0 0 0 0 0 80593734.45857538 -9353422.058387037 -9353422.058387037 464185.2930024057 0 0 0 0 0 80963708.79724276 -10155833.2455036 -10155833.2455036 77865.16125853951 0 0 0 0 0 162064989.6054218 541410.6784624211 541410.6784624211 36789730.79348408 0 0 0 0 0 148025064.1763188 1073298.461045848 1073298.461045848 33189485.11749523 0 0 0 0 0 150649391.1076466 135191.0075170873 135191.0075170873 35357491.359671 0 0 0 0 0 153275732.0464439 -497243.4844778965 -497243.4844778965 36543129.24187942 0 0 0 0 0 156971388.8528839 -860127.8681123273 -860127.8681123273 36869466.42530606 0 0 0 0 0 145049574.5710558 2122130.50644448 2122130.50644448 30312240.89181733 0 0 0 0 0 142268412.6179961 3155203.981488852 3155203.981488852 26894577.37960907 0 0 0 0 0 139716745.7985674 3996091.995038771 3996091.995038771 23236934.00094478 0 0 0 0 0 137424502.0035132 4621243.328948221 4621243.328948221 19453089.61140858 0 0 0 0 0 135343161.0798384 4994067.798503703 4994067.798503703 15694161.2223563 0 0 0 0 0 133468473.6506534 5119747.763839375 5119747.763839375 12067721.14059144 0 0 0 0 0 131751153.7482526 5011077.398503977 5011077.398503977 8675916.497635055 0 0 0 0 0 130163255.2753608 4701555.963046661 4701555.963046661 5576112.43395183 0 0 0 0 0 128666266.2707966 4224378.504917994 4224378.504917994 2794105.957016287 0 0 0 0 0 127245895.3538598 3621583.275893515 3621583.275893515 338684.7933772171 0 0 0 0 0 125880947.0274018 2932141.223623889 2932141.223623889 -1785296.152526936 0 0 0 0 0 124560322.5196817 2188119.067521058 2188119.067521058 -3589113.89838564 0 0 0 0 0 123679972.8701167 1863125.248798505 1863125.248798505 -3639138.59122672 0 0 0 0 0 123017263.3327286 -253679.3696695003 -253679.3696695003 -7191967.572893592 0 0 0 0 0 121664136.3883018 -1001019.290550061 -1001019.290550061 -8183506.423446797 0 0 0 0 0 120212678.4440326 -1607355.37777876 -1607355.37777876 -8242256.178596218 0 0 0 0 0 119580954.5605069 -3451788.451769459 -3451788.451769459 -10424298.06117572 0 0 0 0 0 93076768.9261568 -18829405.44080013 -18829405.44080013 -11511425.48381674 0 0 0 0 0 90666328.17828518 -18989569.5612221 -18989569.5612221 -10443051.21093699 0 0 0 0 0 88355731.90984264 -18933523.45420125 -18933523.45420125 -9297677.169196054 0 0 0 0 0 86248312.07860921 -18670636.72864754 -18670636.72864754 -8095368.799425708 0 0 0 0 0 84351998.56743765 -18213521.49460773 -18213521.49460773 -6888456.476906306 0 0 0 0 0 95581706.81590159 -18440904.21419008 -18440904.21419008 -12475744.79738415 0 0 0 0 0 98160009.91402537 -17817647.66756588 -17817647.66756588 -13300554.4243632 0 0 0 0 0 100773202.1279195 -16960254.39553271 -16960254.39553271 -13951283.6140944 0 0 0 0 0 82637766.19411136 -17592794.13116835 -17592794.13116835 -5699675.24366767 0 0 0 0 0 81124527.42835099 -16841020.05986769 -16841020.05986769 -4558511.812758205 0 0 0 0 0 103376451.928086 -15877731.19911555 -15877731.19911555 -14399203.97035318 0 0 0 0 0 105924014.9625453 -14588442.01810987 -14588442.01810987 -14621509.23151117 0 0 0 0 0 108373984.3347088 -13112152.68493308 -13112152.68493308 -14592894.964465 0 0 0 0 0 110676953.9145884 -11481793.45063697 -11481793.45063697 -14304233.86787153 0 0 0 0 0 112799082.9982782 -9729469.235026434 -9729469.235026434 -13744674.35596165 0 0 0 0 0 114704664.9586252 -7895728.584665727 -7895728.584665727 -12918488.11560619 0 0 0 0 0 116361858.2624288 -6025966.869584064 -6025966.869584064 -11840562.24063839 0 0 0 0 0 117753083.4825354 -4159831.64103636 -4159831.64103636 -10525838.90173035 0 0 0 0 0 81651957.99414285 -15264056.57743013 -15264056.57743013 -2982138.404517788 0 0 0 0 0 80905177.57617575 -15222998.55309603 -15222998.55309603 -3199503.283303484 0 0 0 0 0 81403156.83641958 -13759974.67015214 -13759974.67015214 -1921204.238443294 0 0 0 0 0 81590849.70394115 -11014844.4118765 -11014844.4118765 -386239.6799929703 0 0 0 0 0 81186014.14433461 -12259391.82686579 -12259391.82686579 -1168107.066847123 0 0 0 0 0 80941106.23190987 -13689549.17826352 -13689549.17826352 -2079958.312696218 0 0 0 0 0 81910870.9570554 -13092348.60389833 -13092348.60389833 -1934200.920175039 0 0 0 0 0 81712212.89979953 -10020441.2555699 -10020441.2555699 303356.9977080421 0 0 0 0 0 81791394.41727635 -10935328.78788826 -10935328.78788826 -350320.1338974194 0 0 0 0 0 145493040.6439939 3793469.933413155 3793469.933413155 33224869.84156259 0 0 0 0 0 148492880.9157948 2783814.857331932 2783814.857331932 35080018.61295059 0 0 0 0 0 151245513.6423329 1817143.747428119 1817143.747428119 36355366.94454842 0 0 0 0 0 153665024.4854512 938404.3634620921 938404.3634620921 36746173.6102061 0 0 0 0 0 142704566.4853958 4830101.217747161 4830101.217747161 30781394.01964956 0 0 0 0 0 140142564.3858623 5727792.707104176 5727792.707104176 27887345.55818275 0 0 0 0 0 137844228.4290171 6413382.705874749 6413382.705874749 24675955.12239094 0 0 0 0 0 135773225.7600464 6865516.640567056 6865516.640567056 21302292.36298461 0 0 0 0 0 133919818.4724142 7075296.026614089 7075296.026614089 17875406.36925963 0 0 0 0 0 132225524.6867426 7043480.02043138 7043480.02043138 14507873.73197231 0 0 0 0 0 130665784.9180771 6795007.610313913 6795007.610313913 11278883.79291959 0 0 0 0 0 129199924.2598725 6358813.983185922 6358813.983185922 8255100.424985364 0 0 0 0 0 127811530.9268994 5774419.792177961 5774419.792177961 5477686.822705274 0 0 0 0 0 126468942.3349109 5073612.401036939 5073612.401036939 2969518.348321498 0 0 0 0 0 125160747.993448 4294756.427168533 4294756.427168533 738990.0037421497 0 0 0 0 0 123881598.3359962 3468258.792318215 3468258.792318215 -1208715.779218025 0 0 0 0 0 123277921.0913783 1422541.913385156 1422541.913385156 -5091430.217035426 0 0 0 0 0 122301581.9999228 1002625.260782282 1002625.260782282 -5119587.569530685 0 0 0 0 0 120964698.5815265 171992.2857901493 171992.2857901493 -6330895.439052157 0 0 0 0 0 120355788.8198126 -1709159.064379811 -1709159.064379811 -8947629.607056551 0 0 0 0 0 118864493.0579358 -2339480.008919416 -2339480.008919416 -8999352.445120374 0 0 0 0 0 95676278.81314848 -17712364.56756022 -17712364.56756022 -10290376.70057974 0 0 0 0 0 93254680.1242902 -17890959.52663206 -17890959.52663206 -9272700.682794213 0 0 0 0 0 90917476.06684403 -17871090.98395776 -17871090.98395776 -8191977.398113451 0 0 0 0 0 88682657.36220214 -17659931.49177479 -17659931.49177479 -7107730.830013293 0 0 0 0 0 86650791.77970999 -17270637.33875012 -17270637.33875012 -6030372.34380678 0 0 0 0 0 98165564.10509978 -17322636.5799742 -17322636.5799742 -11223839.27158272 0 0 0 0 0 100686257.3198821 -16717997.12282437 -16717997.12282437 -12049400.8461956 0 0 0 0 0 103196096.2942854 -15903179.25968845 -15903179.25968845 -12738093.91177717 0 0 0 0 0 84792033.29682519 -16727401.681779 -16727401.681779 -4967141.936775721 0 0 0 0 0 83129015.76787403 -16052292.72827307 -16052292.72827307 -3944541.193763602 0 0 0 0 0 105653747.5282479 -14884948.7870207 -14884948.7870207 -13262109.85074893 0 0 0 0 0 108019702.9162658 -13678935.68027595 -13678935.68027595 -13596215.60929279 0 0 0 0 0 110249537.0214976 -12307543.69485257 -12307543.69485257 -13717492.49442649 0 0 0 0 0 112306648.3548107 -10796663.9069991 -10796663.9069991 -13611089.85189842 0 0 0 0 0 114157230.0865677 -9178824.058102407 -9178824.058102407 -13264037.16718989 0 0 0 0 0 115776273.3203022 -7489797.361273566 -7489797.361273566 -12675318.70409044 0 0 0 0 0 117147881.7881065 -5766290.131699892 -5766290.131699892 -11844571.67498407 0 0 0 0 0 118252837.6092788 -4048995.752676312 -4048995.752676312 -10786150.33886502 0 0 0 0 0 82100573.42400636 -16040349.6740737 -16040349.6740737 -4219205.585002013 0 0 0 0 0 82580544.63321422 -14578185.768976 -14578185.768976 -2763415.155817064 0 0 0 0 0 81880461.88448828 -14529046.67012202 -14529046.67012202 -2972644.100835751 0 0 0 0 0 82095657.58139911 -11768605.26484883 -11768605.26484883 -1068853.312476976 0 0 0 0 0 82352963.47152145 -11832476.4960968 -11832476.4960968 -969286.5471997991 0 0 0 0 0 82345951.62893534 -13163417.01541939 -13163417.01541939 -1782125.957993587 0 0 0 0 0 83218816.00748655 -12602685.78513278 -12602685.78513278 -1658723.596438708 0 0 0 0 0 81933161.82026002 -9911501.398062209 -9911501.398062209 -57933.12786910362 0 0 0 0 0 82363412.11482738 -10674737.08859775 -10674737.08859775 -489146.8902336056 0 0 0 0 0 141785047.3799724 2305680.070342315 2305680.070342315 31862407.36439984 0 0 0 0 0 143824391.2653387 1177485.160302737 1177485.160302737 34054459.20336847 0 0 0 0 0 146049946.9966372 135065.1979871059 135065.1979871059 35602000.28697613 0 0 0 0 0 148867563.088243 -685951.0802187386 -685951.0802187386 36435436.76818085 0 0 0 0 0 139480915.1419339 3377594.588353414 3377594.588353414 28963856.83648016 0 0 0 0 0 137359902.9973792 4337851.219488402 4337851.219488402 25667408.53861631 0 0 0 0 0 135429491.9715582 5085087.098825773 5085087.098825773 22171717.29172864 0 0 0 0 0 133674074.2420884 5601972.504616933 5601972.504616933 18611044.21632609 0 0 0 0 0 132075570.3696193 5877908.876577578 5877908.876577578 15097088.56170405 0 0 0 0 0 130604402.264982 5921007.021591769 5921007.021591769 11736051.92046417 0 0 0 0 0 129239391.9689529 5754442.186054864 5754442.186054864 8592602.065569747 0 0 0 0 0 127949931.5153465 5406238.824703156 5406238.824703156 5715335.893347362 0 0 0 0 0 126720652.9972592 4913270.882768633 4913270.882768633 3122892.651935088 0 0 0 0 0 125530864.3541919 4308017.335433992 4308017.335433992 827575.3168913152 0 0 0 0 0 124372881.3653755 3628470.072384637 3628470.072384637 -1168226.239512327 0 0 0 0 0 123238969.4645274 2903152.813060398 2903152.813060398 -2873877.488112996 0 0 0 0 0 122635966.6961628 2628324.497263039 2628324.497263039 -2881876.950305247 0 0 0 0 0 122040309.2784977 662329.7585601142 662329.7585601142 -6312978.191052297 0 0 0 0 0 120836839.2537733 -74457.29951509273 -74457.29951509273 -7291581.850911474 0 0 0 0 0 119681375.7822353 -614691.0976810202 -614691.0976810202 -7305688.67082212 0 0 0 0 0 119086588.148823 -2376006.52836593 -2376006.52836593 -9519329.646203076 0 0 0 0 0 95403937.83120121 -17724410.71088631 -17724410.71088631 -11728413.06777089 0 0 0 0 0 93083933.94911663 -18042732.12481494 -18042732.12481494 -10789519.53244839 0 0 0 0 0 90829898.76287152 -18158186.96846179 -18158186.96846179 -9760719.311284268 0 0 0 0 0 88729323.27251662 -18068463.13302663 -18068463.13302663 -8657568.061603971 0 0 0 0 0 86806855.81182349 -17787016.8154355 -17787016.8154355 -7522478.989985421 0 0 0 0 0 85052320.23366907 -17347007.90443504 -17347007.90443504 -6404613.699827605 0 0 0 0 0 97789825.23506708 -17193374.38453778 -17193374.38453778 -12548705.58771692 0 0 0 0 0 100216134.5721625 -16449121.70838901 -16449121.70838901 -13221760.57822669 0 0 0 0 0 102639903.8648328 -15495485.82195169 -15495485.82195169 -13719257.80788046 0 0 0 0 0 83481289.97568664 -16755889.753518 -16755889.753518 -5292711.527581675 0 0 0 0 0 105025293.0322175 -14346220.87473367 -14346220.87473367 -14016263.94987077 0 0 0 0 0 107334350.0707388 -13020965.27285486 -13020965.27285486 -14093188.28466098 0 0 0 0 0 109523152.15554 -11540982.04128968 -11540982.04128968 -13935090.81379193 0 0 0 0 0 111553913.4658109 -9939433.583004113 -9939433.583004113 -13533484.74497132 0 0 0 0 0 113398493.7803918 -8248603.194378613 -8248603.194378613 -12886750.22587191 0 0 0 0 0 115029082.288701 -6506683.650297876 -6506683.650297876 -12002295.72951445 0 0 0 0 0 116422349.4363434 -4750545.158560473 -4750545.158560473 -10891071.95238991 0 0 0 0 0 117566198.1123238 -3017448.278975256 -3017448.278975256 -9571312.700774161 0 0 0 0 0 83938597.64429513 -15316577.68706865 -15316577.68706865 -3665215.632886679 0 0 0 0 0 82990772.04059599 -15294980.42910543 -15294980.42910543 -3924093.039523845 0 0 0 0 0 83440277.20868868 -13928963.72591233 -13928963.72591233 -2567679.229090934 0 0 0 0 0 83105559.83967486 -11399950.25686586 -11399950.25686586 -934351.3512859606 0 0 0 0 0 82753954.34457144 -12526949.4430724 -12526949.4430724 -1821104.122071432 0 0 0 0 0 82785646.62987766 -13874651.95563644 -13874651.95563644 -2767881.450134968 0 0 0 0 0 83624850.4572403 -13261268.54740818 -13261268.54740818 -2578157.977493862 0 0 0 0 0 82927234.76451458 -10552390.51700948 -10552390.51700948 -330932.299558346 0 0 0 0 0 83179973.43191615 -11316667.86575872 -11316667.86575872 -938675.9871297486 0 0 0 0 0 139709757.7667004 4524900.777539368 4524900.777539368 31947566.19898614 0 0 0 0 0 142089560.0368114 3425530.777529865 3425530.777529865 33844888.67785508 0 0 0 0 0 144069143.9412497 2291365.859548063 2291365.859548063 35275813.79342181 0 0 0 0 0 146236758.2994693 1260636.215675648 1260636.215675648 36014012.45175518 0 0 0 0 0 137626410.2642224 5555517.07672471 5555517.07672471 29439562.43353849 0 0 0 0 0 135692169.6868269 6404942.58300297 6404942.58300297 26632965.79930805 0 0 0 0 0 133958775.0554096 7040418.229907606 7040418.229907606 23578788.80769793 0 0 0 0 0 132386531.4192926 7436786.088104974 7436786.088104974 20399666.23886495 0 0 0 0 0 130952743.7289477 7596768.96511555 7596768.96511555 17200498.31996551 0 0 0 0 0 129624884.8478869 7530138.845261683 7530138.845261683 14066181.33136827 0 0 0 0 0 128373763.3141049 7262805.242906678 7262805.242906678 11067776.31863341 0 0 0 0 0 127180416.0128234 6825406.959072368 6825406.959072368 8256398.104916818 0 0 0 0 0 126023665.4220346 6252421.76293314 6252421.76293314 5669281.681632447 0 0 0 0 0 124889277.7829971 5575013.770877267 5575013.770877267 3325079.489902246 0 0 0 0 0 123771085.2089557 4827775.872065348 4827775.872065348 1234452.150504424 0 0 0 0 0 122668284.4691207 4040289.184314309 4040289.184314309 -601312.0921712737 0 0 0 0 0 122123930.3091785 2154610.998704444 2154610.998704444 -4314486.212341306 0 0 0 0 0 121413282.4680851 1795691.860114311 1795691.860114311 -4301944.239202911 0 0 0 0 0 120221536.4544431 988430.524161187 988430.524161187 -5478580.765160552 0 0 0 0 0 119657754.0388501 -783185.6275134631 -783185.6275134631 -8064967.672365582 0 0 0 0 0 118450563.1428218 -1347855.361384165 -1347855.361384165 -8074893.035137471 0 0 0 0 0 97806303.62634374 -16681165.41507479 -16681165.41507479 -10545101.38855282 0 0 0 0 0 95497811.88579582 -17003611.75746297 -17003611.75746297 -9639591.776735209 0 0 0 0 0 93245947.09710948 -17136741.95085864 -17136741.95085864 -8653816.697725326 0 0 0 0 0 91079422.83942695 -17084210.86020789 -17084210.86020789 -7644543.439176588 0 0 0 0 0 89043707.84225483 -16857236.2767582 -16857236.2767582 -6623737.615485675 0 0 0 0 0 87182748.36504865 -16475599.00161512 -16475599.00161512 -5608355.542775558 0 0 0 0 0 100145531.4541759 -16164032.37917019 -16164032.37917019 -11358256.14344092 0 0 0 0 0 102482406.9886187 -15452752.80644602 -15452752.80644602 -12056922.01048072 0 0 0 0 0 104784670.1054054 -14552803.92243847 -14552803.92243847 -12611231.95404588 0 0 0 0 0 85472266.86184378 -15955798.21563166 -15955798.21563166 -4616045.883112099 0 0 0 0 0 107014743.9520915 -13474522.14656149 -13474522.14656149 -12997658.10367437 0 0 0 0 0 109132551.2962217 -12236125.04258635 -12236125.04258635 -13197493.75927967 0 0 0 0 0 111101060.8608977 -10864962.95246932 -10864962.95246932 -13199710.31156269 0 0 0 0 0 112897248.4933081 -9378018.074374123 -9378018.074374123 -12978334.6010971 0 0 0 0 0 114487803.1422128 -7814787.235439628 -7814787.235439628 -12538169.68901519 0 0 0 0 0 115855652.3018527 -6206064.434261928 -6206064.434261928 -11876220.46128073 0 0 0 0 0 116987968.028583 -4586032.840175472 -4586032.840175472 -10999367.37466024 0 0 0 0 0 117874431.448253 -2989255.15772654 -2989255.15772654 -9920043.664085463 0 0 0 0 0 84272309.77285624 -15967608.4572366 -15967608.4572366 -4922606.53180706 0 0 0 0 0 84697738.63754152 -14623173.69793734 -14623173.69793734 -3410865.421394082 0 0 0 0 0 83817800.05611417 -14592942.7338884 -14592942.7338884 -3656731.719816664 0 0 0 0 0 83604673.44127584 -12032568.71259915 -12032568.71259915 -1667954.388606334 0 0 0 0 0 84024737.9526449 -12091466.02305724 -12091466.02305724 -1526495.012774599 0 0 0 0 0 84238164.90926948 -13315301.49380841 -13315301.49380841 -2388883.361033746 0 0 0 0 0 84973201.45765735 -12744764.73389825 -12744764.73389825 -2240001.180097247 0 0 0 0 0 83266521.12592328 -10376631.83668439 -10376631.83668439 -607165.8550789957 0 0 0 0 0 83774091.61278701 -11079931.25107878 -11079931.25107878 -1082754.039230117 0 0 0 0 0 136588576.7710063 3174553.088180061 3174553.088180061 30445724.35817559 0 0 0 0 0 138223537.2960763 2040648.46141889 2040648.46141889 32695979.30301141 0 0 0 0 0 139735621.6836797 765289.5263239044 765289.5263239044 34358779.18687783 0 0 0 0 0 142129816.4617434 -368567.8466578781 -368567.8466578781 35428014.22017655 0 0 0 0 0 134850570.6988636 4242918.741898821 4242918.741898821 27574138.89840605 0 0 0 0 0 133253517.5876249 5131814.79164149 5131814.79164149 24427037.5589098 0 0 0 0 0 131788857.9938947 5804489.254742514 5804489.254742514 21128816.14673704 0 0 0 0 0 130446165.0951921 6245306.937070789 6245306.937070789 17800931.45034243 0 0 0 0 0 129207572.3476941 6456429.641919588 6456429.641919588 14538806.31562507 0 0 0 0 0 128055458.395488 6452030.208032898 6452030.208032898 11423374.86941369 0 0 0 0 0 126965125.7329338 6255339.630766952 6255339.630766952 8510234.886656446 0 0 0 0 0 125921234.9674534 5895858.112516867 5895858.112516867 5837165.748030044 0 0 0 0 0 124907506.8927202 5406107.072465704 5406107.072465704 3422211.767284696 0 0 0 0 0 123913633.9946964 4818931.654191616 4818931.654191616 1276459.038675051 0 0 0 0 0 122932642.1823482 4162187.294630795 4162187.294630795 -598496.3736451085 0 0 0 0 0 121958175.196854 3462626.596371049 3462626.596371049 -2220095.03094556 0 0 0 0 0 121578354.6393275 3234625.260612956 3234625.260612956 -2194421.491809057 0 0 0 0 0 121040886.7949946 1416776.528028977 1416776.528028977 -5496811.378162281 0 0 0 0 0 119975938.752276 698801.2899737103 698801.2899737103 -6457749.644391344 0 0 0 0 0 119071573.3484459 220852.4569332521 220852.4569332521 -6437677.928347047 0 0 0 0 0 118515495.9456845 -1449686.947204266 -1449686.947204266 -8657512.740353916 0 0 0 0 0 97463360.46750803 -16583656.12838873 -16583656.12838873 -11827494.03121069 0 0 0 0 0 95243517.34036478 -17035056.27917288 -17035056.27917288 -11016298.75602398 0 0 0 0 0 93077130.44886249 -17295384.36153477 -17295384.36153477 -10106669.59181309 0 0 0 0 0 91027671.31423849 -17360696.82461908 -17360696.82461908 -9112560.877649894 0 0 0 0 0 89109365.53896849 -17244062.74259717 -17244062.74259717 -8073624.199548611 0 0 0 0 0 87337764.51932085 -16958836.02521079 -16958836.02521079 -7013903.772334292 0 0 0 0 0 85720278.76936261 -16530327.08027604 -16530327.08027604 -5960163.404723415 0 0 0 0 0 99717057.84824915 -15938026.36431032 -15938026.36431032 -12510717.69627474 0 0 0 0 0 101977129.1991999 -15100736.45688386 -15100736.45688386 -13041222.67233109 0 0 0 0 0 104212192.4730418 -14079420.86641377 -14079420.86641377 -13399246.84139477 0 0 0 0 0 106387827.7250704 -12890146.84809 -12890146.84809 -13564078.27669919 0 0 0 0 0 108465014.7388565 -11551253.47587825 -11551253.47587825 -13513497.83894157 0 0 0 0 0 110406546.0766082 -10088180.50366648 -10088180.50366648 -13244386.39652417 0 0 0 0 0 112188982.3283379 -8531833.034981206 -8531833.034981206 -12750606.1923974 0 0 0 0 0 113781742.440309 -6915516.270706288 -6915516.270706288 -12035951.07567457 0 0 0 0 0 115170218.4781139 -5268870.895965745 -5268870.895965745 -11105174.83505291 0 0 0 0 0 116333792.4978742 -3628695.255222001 -3628695.255222001 -9976449.591928432 0 0 0 0 0 117261713.9395479 -2029865.300559732 -2029865.300559732 -8670821.387917494 0 0 0 0 0 86113974.46075878 -15228158.66067227 -15228158.66067227 -4301141.235806985 0 0 0 0 0 85006241.13227394 -15228882.94020849 -15228882.94020849 -4589659.097966113 0 0 0 0 0 85405938.18706422 -13968008.45303351 -13968008.45303351 -3179690.644875173 0 0 0 0 0 84739632.38872233 -11661300.11449386 -11661300.11449386 -1471653.609454457 0 0 0 0 0 84332603.25625367 -12675801.79623579 -12675801.79623579 -2444642.749757407 0 0 0 0 0 84584601.69093578 -13930150.93898705 -13930150.93898705 -3414402.466955515 0 0 0 0 0 85293090.55512232 -13316187.80786845 -13316187.80786845 -3175778.340545891 0 0 0 0 0 84222630.57054234 -10935010.91015447 -10935010.91015447 -951591.3847130674 0 0 0 0 0 84592893.97658198 -11578043.32018786 -11578043.32018786 -1541051.910105671 0 0 0 0 0 134972972.2988977 4962732.399730654 4962732.399730654 30375069.9197746 0 0 0 0 0 136827036.6900366 3920943.156297228 3920943.156297228 32428508.23013375 0 0 0 0 0 138202052.3249566 2597847.443710985 2597847.443710985 33694033.72173718 0 0 0 0 0 139821926.3252902 1448864.441648218 1448864.441648218 34832466.45941088 0 0 0 0 0 133379321.9020448 5985530.344500464 5985530.344500464 28024312.52750904 0 0 0 0 0 131936002.2906251 6806706.118787873 6806706.118787873 25346500.92388654 0 0 0 0 0 130626789.5300189 7399879.798375932 7399879.798375932 22474158.38293095 0 0 0 0 0 129428750.0663621 7757359.801241592 7757359.801241592 19504930.20205123 0 0 0 0 0 128320957.5248248 7886933.37355369 7886933.37355369 16529388.80406363 0 0 0 0 0 127275849.2066146 7805173.994261948 7805173.994261948 13621704.76025194 0 0 0 0 0 126274976.6023561 7537763.057683599 7537763.057683599 10840859.21718422 0 0 0 0 0 125300330.8422932 7114523.225179113 7114523.225179113 8231407.843303583 0 0 0 0 0 124340297.7283205 6566886.000416808 6566886.000416808 5823695.659039521 0 0 0 0 0 123386078.9971007 5926190.706771508 5926190.706771508 3635811.820114698 0 0 0 0 0 122432795.6750885 5219278.348138182 5219278.348138182 1673871.501459913 0 0 0 0 0 121481482.3095313 4473242.12238195 4473242.12238195 -61403.96787337132 0 0 0 0 0 120991809.5399307 2743015.334603956 2743015.334603956 -3599883.282454211 0 0 0 0 0 120495917.9608144 2434378.647789218 2434378.647789218 -3560396.332092666 0 0 0 0 0 119437860.2616083 1659957.641587334 1659957.641587334 -4697527.442314999 0 0 0 0 0 118920053.0728497 2118.612027502164 2118.612027502164 -7234707.693214168 0 0 0 0 0 117952678.5883813 -504176.9060610352 -504176.9060610352 -7213713.879451138 0 0 0 0 0 99659531.43410251 -15621217.90530406 -15621217.90530406 -10702987.28169735 0 0 0 0 0 97481930.98351486 -16060262.60283614 -16060262.60283614 -9901394.984790897 0 0 0 0 0 95337308.39546397 -16323686.42007382 -16323686.42007382 -9018562.14682317 0 0 0 0 0 93256489.65046871 -16410514.89208757 -16410514.89208757 -8094648.408165673 0 0 0 0 0 91275934.71763907 -16332803.65455315 -16332803.65455315 -7142404.421169726 0 0 0 0 0 89412850.94327408 -16097918.51648944 -16097918.51648944 -6179714.06718238 0 0 0 0 0 87689976.56903914 -15725109.91678065 -15725109.91678065 -5227060.63556914 0 0 0 0 0 101841691.8650795 -15001147.06506808 -15001147.06506808 -11398255.51651314 0 0 0 0 0 103997342.4209915 -14206744.34429498 -14206744.34429498 -11971233.14679082 0 0 0 0 0 106097054.2098485 -13245419.82928008 -13245419.82928008 -12400478.17265908 0 0 0 0 0 108102951.1469686 -12132279.68437795 -12132279.68437795 -12667532.92849751 0 0 0 0 0 109986126.7555569 -10890318.0126476 -10890318.0126476 -12755932.72610653 0 0 0 0 0 111723800.7792117 -9525582.147476804 -9525582.147476804 -12637521.98832821 0 0 0 0 0 113282332.3569393 -8081167.163709119 -8081167.163709119 -12322619.93881923 0 0 0 0 0 114642273.372 -6581801.720282914 -6581801.720282914 -11803817.24903361 0 0 0 0 0 115788556.4584698 -5060089.141809203 -5060089.141809203 -11086178.47443117 0 0 0 0 0 116713800.5479322 -3545145.853292945 -3545145.853292945 -10176587.67968384 0 0 0 0 0 117414841.2111522 -2067778.168507217 -2067778.168507217 -9088809.176831823 0 0 0 0 0 86345052.41917707 -15762686.00578855 -15762686.00578855 -5557613.28985734 0 0 0 0 0 86714130.63138455 -14543713.05152035 -14543713.05152035 -4014711.014552547 0 0 0 0 0 85693215.23498328 -14534204.46940233 -14534204.46940233 -4286077.133679662 0 0 0 0 0 84927830.95163895 -12106908.69331909 -12106908.69331909 -2320063.677434824 0 0 0 0 0 85727371.19453822 -12200337.81322801 -12200337.81322801 -2092957.686551334 0 0 0 0 0 86072808.66625553 -13342333.36605655 -13342333.36605655 -2957649.582217243 0 0 0 0 0 86666871.96584658 -12769518.05088004 -12769518.05088004 -2742101.864105127 0 0 0 0 0 84594166.93518463 -10734168.69532702 -10734168.69532702 -1169817.262210587 0 0 0 0 0 84995628.54015878 -11427055.60457848 -11427055.60457848 -1729862.633620552 0 0 0 0 0 132346114.4618133 3793758.380116421 3793758.380116421 28938288.05865489 0 0 0 0 0 133719176.1999242 2659263.931034607 2659263.931034607 31326264.59344114 0 0 0 0 0 134673325.3232976 1511247.53462294 1511247.53462294 33136354.72219252 0 0 0 0 0 136547600.5730096 -164371.6726353977 -164371.6726353977 34108223.17336371 0 0 0 0 0 131027156.8076676 4818399.516639431 4818399.516639431 26184429.16560534 0 0 0 0 0 129802960.6127858 5648785.557471908 5648785.557471908 23207460.8719284 0 0 0 0 0 128681886.0357698 6258862.903832247 6258862.903832247 20120976.0712237 0 0 0 0 0 127647980.6373923 6644170.637449225 6644170.637449225 17026047.95087903 0 0 0 0 0 126687346.0258945 6812543.717065463 6812543.717065463 14004750.47573719 0 0 0 0 0 125780586.4551682 6781565.594113865 6781565.594113865 11120515.99217357 0 0 0 0 0 124910779.660538 6574772.460406754 6574772.460406754 8421392.327096265 0 0 0 0 0 124064217.0289778 6220723.747409677 6220723.747409677 5938577.791792216 0 0 0 0 0 123229524.591641 5748425.114266728 5748425.114266728 3690965.615844276 0 0 0 0 0 122398426.2889117 5186276.024630715 5186276.024630715 1682776.675062838 0 0 0 0 0 121566548.201472 4560035.987613453 4560035.987613453 -86541.66040470304 0 0 0 0 0 120733674.9954407 3894925.758094321 3894925.758094321 -1625469.557252467 0 0 0 0 0 120529229.8625614 3709011.954562024 3709011.954562024 -1577735.250391817 0 0 0 0 0 120047041.3532187 2033740.13173938 2033740.13173938 -4740783.855408345 0 0 0 0 0 119103464.2076001 1339426.724404403 1339426.724404403 -5683815.344693937 0 0 0 0 0 118410171.7475897 918987.3862574262 918987.3862574262 -5637262.053120041 0 0 0 0 0 117895039.5675021 -656076.4522343084 -656076.4522343084 -7841627.182014658 0 0 0 0 0 97170901.30847459 -15989968.72775839 -15989968.72775839 -11141825.00483332 0 0 0 0 0 99267809.83292893 -15430229.8321399 -15430229.8321399 -11823220.43749574 0 0 0 0 0 95107790.31026483 -16371686.85843543 -16371686.85843543 -10349076.3293893 0 0 0 0 0 93123435.08683734 -16570301.5118762 -16570301.5118762 -9461304.327091724 0 0 0 0 0 91241013.73105107 -16596575.64897575 -16596575.64897575 -8519700.019469043 0 0 0 0 0 89472499.98270701 -16463415.00536516 -16463415.00536516 -7542522.505665451 0 0 0 0 0 87837167.30297098 -16178845.32784568 -16178845.32784568 -6547106.446029705 0 0 0 0 0 101378576.1100985 -14695591.96013755 -14695591.96013755 -12378239.13536271 0 0 0 0 0 103470938.3064076 -13790213.52220079 -13790213.52220079 -12780280.70652088 0 0 0 0 0 105519552.0045336 -12724774.01433097 -12724774.01433097 -13009159.95588607 0 0 0 0 0 107487460.4556395 -11516129.28458051 -11516129.28458051 -13046939.96703479 0 0 0 0 0 109345701.5728215 -10184617.5650144 -10184617.5650144 -12894228.57531461 0 0 0 0 0 111066019.5214978 -8754262.900349699 -8754262.900349699 -12533654.5950719 0 0 0 0 0 112620338.721375 -7255205.548278198 -7255205.548278198 -11967082.80837211 0 0 0 0 0 113990097.2166503 -5719426.571888555 -5719426.571888555 -11200117.12955636 0 0 0 0 0 115162503.4214877 -4173749.124067521 -4173749.124067521 -10241910.68238102 0 0 0 0 0 116123696.3998456 -2650260.536931946 -2650260.536931946 -9110044.3550495 0 0 0 0 0 116868358.5120231 -1179597.284296952 -1179597.284296952 -7826377.585346269 0 0 0 0 0 88170475.85135765 -15016876.56572473 -15016876.56572473 -4879771.882857901 0 0 0 0 0 86927201.68507257 -15041792.95823475 -15041792.95823475 -5190497.066976145 0 0 0 0 0 87273886.07498844 -13900941.13751613 -13900941.13751613 -3758305.484071051 0 0 0 0 0 86230361.57988968 -11829841.29768213 -11829841.29768213 -1864463.87688504 0 0 0 0 0 86029249.55393696 -12754419.94735429 -12754419.94735429 -2919530.722899129 0 0 0 0 0 86334827.2339552 -13877608.25226345 -13877608.25226345 -4015798.193583614 0 0 0 0 0 86949483.22537632 -13284031.45918543 -13284031.45918543 -3720118.974004172 0 0 0 0 0 85547407.50438495 -11261042.90210811 -11261042.90210811 -1548533.013039767 0 0 0 0 0 131024067.6672852 5240772.488772875 5240772.488772875 28864849.69407405 0 0 0 0 0 132366218.3100347 4048532.76719682 4048532.76719682 30721201.47665146 0 0 0 0 0 133991939.4772203 2399260.726182811 2399260.726182811 31549954.40323064 0 0 0 0 0 134318220.4393162 1493395.941359337 1493395.941359337 33575841.87618962 0 0 0 0 0 129832937.5891599 6243636.767506693 6243636.767506693 26599313.08729176 0 0 0 0 0 128744728.6420871 7023145.931443983 7023145.931443983 24079775.8155769 0 0 0 0 0 127753016.4608414 7575750.511850617 7575750.511850617 21391541.6971324 0 0 0 0 0 126838707.7931226 7901146.338901153 7901146.338901153 18629766.03775945 0 0 0 0 0 125980414.6809502 8011583.179023854 8011583.179023854 15870232.33282687 0 0 0 0 0 125159086.7870699 7926249.769144479 7926249.769144479 13177321.2729749 0 0 0 0 0 124357703.7398115 7670025.302626654 7670025.302626654 10601813.50409629 0 0 0 0 0 123563428.5926249 7270597.094391402 7270597.094391402 8181094.839127312 0 0 0 0 0 122767831.6847958 6756884.9479119 6756884.9479119 5940574.01058362 0 0 0 0 0 121965676.5878296 6156343.383674188 6156343.383674188 3896102.633167637 0 0 0 0 0 121154198.5034383 5493760.541690589 5493760.541690589 2054113.078396692 0 0 0 0 0 120331893.7235629 4792838.475175102 4792838.475175102 415882.212347514 0 0 0 0 0 119897661.9004877 3210805.260289249 3210805.260289249 -2944381.426423442 0 0 0 0 0 119573010.0627821 2946919.787643574 2946919.787643574 -2886210.779218036 0 0 0 0 0 118636896.8308691 2209387.002879464 2209387.002879464 -3984054.567463209 0 0 0 0 0 118164135.1890503 663784.5081407138 663784.5081407138 -6458840.835421097 0 0 0 0 0 117398189.138794 211762.9457344228 211762.9457344228 -6414648.073197028 0 0 0 0 0 99235497.2281556 -15083468.87638418 -15083468.87638418 -10074137.92988212 0 0 0 0 0 101267895.7361336 -14544672.18400749 -14544672.18400749 -10763333.44656158 0 0 0 0 0 97206962.03520311 -15458092.39816946 -15458092.39816946 -9295240.490532152 0 0 0 0 0 95217842.49002105 -15665710.20089708 -15665710.20089708 -8455711.588234931 0 0 0 0 0 93304127.28774098 -15716339.31155332 -15716339.31155332 -7578708.685250171 0 0 0 0 0 91480639.36778662 -15617802.48808473 -15617802.48808473 -6678033.564067267 0 0 0 0 0 89763416.09873211 -15379151.12934646 -15379151.12934646 -5772227.363111888 0 0 0 0 0 103287838.1469632 -13847786.18765922 -13847786.18765922 -11348809.22616425 0 0 0 0 0 105266730.9017961 -12990871.14121018 -12990871.14121018 -11804706.96148142 0 0 0 0 0 107167885.3235929 -11991324.93899007 -11991324.93899007 -12119493.39008042 0 0 0 0 0 108965159.3211236 -10863659.98611342 -10863659.98611342 -12272951.36629556 0 0 0 0 0 110636661.9600789 -9623106.573228091 -9623106.573228091 -12249466.19659925 0 0 0 0 0 112157726.8357192 -8290749.572776718 -8290749.572776718 -12043366.41300512 0 0 0 0 0 113500787.7586922 -6898390.984373879 -6898390.984373879 -11650763.84036508 0 0 0 0 0 114653856.5313155 -5472613.806683188 -5472613.806683188 -11071874.71059568 0 0 0 0 0 115605827.384518 -4042377.131059396 -4042377.131059396 -10314571.11015815 0 0 0 0 0 116354433.2378412 -2632173.612684673 -2632173.612684673 -9384700.38938956 0 0 0 0 0 116898907.2362124 -1269440.135503842 -1269440.135503842 -8298450.300644238 0 0 0 0 0 88306866.56622636 -15442248.2049837 -15442248.2049837 -6117931.063490299 0 0 0 0 0 88621388.57762453 -14349783.7054203 -14349783.7054203 -4562140.811549942 0 0 0 0 0 87471382.00447787 -14364112.71559135 -14364112.71559135 -4854221.349128136 0 0 0 0 0 86236547.3388035 -11675288.32455657 -11675288.32455657 -2306156.749171473 0 0 0 0 0 87066150.93073486 -12256946.75317674 -12256946.75317674 -2792032.904707803 0 0 0 0 0 87808118.69283058 -13286295.29677837 -13286295.29677837 -3490601.34798566 0 0 0 0 0 88263077.2528121 -12745658.94118305 -12745658.94118305 -3340076.731346785 0 0 0 0 0 85997087.33631441 -10994992.00854615 -10994992.00854615 -1708733.183876222 0 0 0 0 0 128862159.5651282 4223528.867572754 4223528.867572754 27436729.54597338 0 0 0 0 0 130051737.4527869 3094560.923640122 3094560.923640122 29734442.33365764 0 0 0 0 0 131450673.2684783 2118970.981686693 2118970.981686693 31706796.48887446 0 0 0 0 0 131353308.8529894 2232452.589787263 2232452.589787263 32926726.78430172 0 0 0 0 0 132272277.8825844 130721.0143428644 130721.0143428644 32319380.64108769 0 0 0 0 0 127813376.6589703 5199847.723212018 5199847.723212018 24822578.90244017 0 0 0 0 0 126869498.0231591 5969421.681301801 5969421.681301801 22030376.22976872 0 0 0 0 0 126005015.9771449 6524940.208944849 6524940.208944849 19157037.08335393 0 0 0 0 0 125208466.4080474 6866558.438401469 6866558.438401469 16287609.27472323 0 0 0 0 0 124461774.7924343 7006273.443332387 7006273.443332387 13492117.71937223 0 0 0 0 0 123748957.7392867 6962306.986819805 6962306.986819805 10824347.07084587 0 0 0 0 0 123054678.112925 6757593.802317396 6757593.802317396 8324544.515816486 0 0 0 0 0 122367284.7321595 6417748.213010975 6417748.213010975 6018979.589217231 0 0 0 0 0 121679970.4020113 5970178.997083718 5970178.997083718 3922100.56306718 0 0 0 0 0 120985797.8172822 5439461.590040345 5439461.590040345 2039567.600094801 0 0 0 0 0 120282653.1093703 4849561.633199867 4849561.633199867 372327.9027950346 0 0 0 0 0 119568776.770762 4222424.209375904 4222424.209375904 -1086820.55911524 0 0 0 0 0 119502499.517417 4074426.796564964 4074426.796564964 -1024013.719721484 0 0 0 0 0 119070548.4022245 2533117.377535286 2533117.377535286 -4045993.103494001 0 0 0 0 0 118238647.786733 1868293.178841064 1868293.178841064 -4967348.569166044 0 0 0 0 0 117717658.9908324 1498297.435978857 1498297.435978857 -4904331.387884394 0 0 0 0 0 117244728.4981683 21267.39328365937 21267.39328365937 -7075246.155807681 0 0 0 0 0 96921909.76331951 -15408752.57432809 -15408752.57432809 -10490252.86908488 0 0 0 0 0 98878071.60388005 -14926529.92210397 -14926529.92210397 -11171494.56711295 0 0 0 0 0 100844952.372334 -14284741.18086819 -14284741.18086819 -11738113.61034306 0 0 0 0 0 95019514.04627755 -15724916.97391207 -15724916.97391207 -9716062.355507208 0 0 0 0 0 93192615.15942684 -15875398.79708 -15875398.79708 -8870372.566711698 0 0 0 0 0 91453617.23845723 -15873108.92466358 -15873108.92466358 -7976357.527044499 0 0 0 0 0 89821065.36921901 -15725160.62838053 -15725160.62838053 -7052737.734330707 0 0 0 0 0 102803294.2004834 -13481909.20416331 -13481909.20416331 -12171829.17065155 0 0 0 0 0 104731757.4166625 -12528912.84841863 -12528912.84841863 -12453778.29600128 0 0 0 0 0 106593210.1055725 -11439385.75798083 -11439385.75798083 -12567880.73262397 0 0 0 0 0 108360500.2534743 -10234715.66875398 -10234715.66875398 -12511343.12363174 0 0 0 0 0 110019303.5980901 -8921531.202176074 -8921531.202176074 -12259722.34832621 0 0 0 0 0 111533861.8194302 -7534863.155219899 -7534863.155219899 -11819090.32306616 0 0 0 0 0 112882395.504289 -6102468.22111491 -6102468.22111491 -11193383.53025492 0 0 0 0 0 114054962.3263719 -4652063.870219305 -4652063.870219305 -10387955.27007158 0 0 0 0 0 115037675.7477566 -3208552.181283496 -3208552.181283496 -9415543.332206402 0 0 0 0 0 115824292.3887842 -1799178.665776687 -1799178.665776687 -8291989.678060001 0 0 0 0 0 116413152.7742133 -449981.3643472483 -449981.3643472483 -7037546.183841008 0 0 0 0 0 90098561.8976464 -14698499.04854473 -14698499.04854473 -5397649.064089371 0 0 0 0 0 88747009.79654944 -14746911.55417866 -14746911.55417866 -5723794.571579602 0 0 0 0 0 89042515.47247189 -13725104.48490959 -13725104.48490959 -4285198.045738794 0 0 0 0 0 86915497.40314625 -11537569.50278857 -11537569.50278857 -2071738.524481639 0 0 0 0 0 87353574.03819118 -12122438.07062073 -12122438.07062073 -2693890.366051317 0 0 0 0 0 87803857.16865154 -12757697.22559781 -12757697.22559781 -3470400.204430216 0 0 0 0 0 87925819.87954143 -13705850.53296231 -13705850.53296231 -4586810.337786225 0 0 0 0 0 88239301.07228649 -13087971.33338876 -13087971.33338876 -4263516.619002911 0 0 0 0 0 127754047.9311021 5445457.971371241 5445457.971371241 27364497.86633994 0 0 0 0 0 128788632.8639393 4323852.172111801 4323852.172111801 29202264.18875524 0 0 0 0 0 129805943.9354341 3182339.834232583 3182339.834232583 30882930.64069607 0 0 0 0 0 129892656.857906 1301122.135551613 1301122.135551613 31226557.77146385 0 0 0 0 0 130061584.4194345 1231374.50261266 1231374.50261266 32170171.60858509 0 0 0 0 0 126835658.5089703 6380792.989542262 6380792.989542262 25227350.81230591 0 0 0 0 0 126009521.2181704 7110722.613006563 7110722.613006563 22853201.06092289 0 0 0 0 0 125257467.9717443 7621544.150786013 7621544.150786013 20349130.40407733 0 0 0 0 0 124559507.1510096 7919562.466496647 7919562.466496647 17784873.15820085 0 0 0 0 0 123896642.8640838 8018038.098130419 8018038.098130419 15228378.51312943 0 0 0 0 0 123250568.738121 7935934.545233926 7935934.545233926 12736643.00494844 0 0 0 0 0 122609206.7235925 7696835.463448178 7696835.463448178 10352476.20843372 0 0 0 0 0 121963021.1143827 7326001.166464916 7326001.166464916 8106722.084500592 0 0 0 0 0 121304454.6195556 6849109.423125809 6849109.423125809 6020867.336670682 0 0 0 0 0 120630968.8472738 6291129.30703328 6291129.30703328 4110059.271994255 0 0 0 0 0 119939506.0432549 5674779.069462379 5674779.069462379 2381603.830642142 0 0 0 0 0 119231735.0381683 5021127.652353369 5021127.652353369 836021.1767755362 0 0 0 0 0 118846015.1122251 3577122.843503152 3577122.843503152 -2347508.168103139 0 0 0 0 0 118662438.0694828 3354068.494121581 3354068.494121581 -2275196.132281894 0 0 0 0 0 117833012.6183343 2654558.684695139 2654558.684695139 -3334531.134604998 0 0 0 0 0 117402503.7273651 1217875.767203479 1217875.767203479 -5737131.315634476 0 0 0 0 0 116807843.1959281 815965.0871868553 815965.0871868553 -5675310.691987824 0 0 0 0 0 98862515.236507 -14555814.775815 -14555814.775815 -9479513.96623368 0 0 0 0 0 100766008.3041261 -14089730.22851414 -14089730.22851414 -10159782.03181512 0 0 0 0 0 102658803.0765104 -13474726.8849499 -13474726.8849499 -10746148.91676891 0 0 0 0 0 96980718.46315588 -14869024.29520533 -14869024.29520533 -8731717.548354832 0 0 0 0 0 95143632.85496767 -15032657.70319743 -15032657.70319743 -7934001.500552422 0 0 0 0 0 93372161.30709864 -15054063.06208454 -15054063.06208454 -7100599.253092146 0 0 0 0 0 91684672.38163021 -14940335.67112631 -14940335.67112631 -6251186.927311118 0 0 0 0 0 104518516.3625703 -12714805.56807217 -12714805.56807217 -11220951.84672687 0 0 0 0 0 106318766.3069652 -11817812.10049246 -11817812.10049246 -11571679.72155609 0 0 0 0 0 108030948.4471605 -10796932.94216779 -10796932.94216779 -11778924.31398368 0 0 0 0 0 109636507.2742718 -9669261.425450694 -9669261.425450694 -11832364.44667117 0 0 0 0 0 111106231.260094 -8449706.864546547 -8449706.864546547 -11721933.93220437 0 0 0 0 0 112428039.4931201 -7160145.696676774 -7160145.696676774 -11437947.99565842 0 0 0 0 0 113582513.9214942 -5825770.10983023 -5825770.10983023 -10977693.2829885 0 0 0 0 0 114552131.9394657 -4480320.229458952 -4480320.229458952 -10352787.00443097 0 0 0 0 0 115336469.5289761 -3141350.547586301 -3141350.547586301 -9565288.914893188 0 0 0 0 0 115933625.3672085 -1833916.456199172 -1833916.456199172 -8626790.863221841 0 0 0 0 0 116346178.8977858 -580933.4109703894 -580933.4109703894 -7551762.747742681 0 0 0 0 0 90155601.46316552 -15028096.25329719 -15028096.25329719 -6602324.187261024 0 0 0 0 0 90421728.01236884 -14051876.36761562 -14051876.36761562 -5051611.741096826 0 0 0 0 0 89160616.5762151 -14094012.78620091 -14094012.78620091 -5357513.19707745 0 0 0 0 0 87336974.98555627 -11184811.34393956 -11184811.34393956 -2253516.957948405 0 0 0 0 0 87792826.19837774 -11754704.99569372 -11754704.99569372 -2843464.074516133 0 0 0 0 0 88251815.83100243 -12420923.46787824 -12420923.46787824 -3478768.017768467 0 0 0 0 0 89507850.07992372 -13102945.81745468 -13102945.81745468 -4019953.696943142 0 0 0 0 0 89530350.7424233 -12722633.70578841 -12722633.70578841 -3719591.51863823 0 0 0 0 0 125878884.2934967 4531502.191037309 4531502.191037309 25976277.94153676 0 0 0 0 0 126802254.9741975 3469714.88611762 3469714.88611762 28182476.38290022 0 0 0 0 0 128001308.5152127 2408978.254830202 2408978.254830202 30030677.43628469 0 0 0 0 0 127971225.1595607 2233251.430734363 2233251.430734363 30950440.18160614 0 0 0 0 0 128430368.2527421 149025.6061755469 149025.6061755469 31017934.08623297 0 0 0 0 0 125078308.6938822 5437127.945355605 5437127.945355605 23514015.11533005 0 0 0 0 0 124344621.7579315 6148336.73318879 6148336.73318879 20906743.19982122 0 0 0 0 0 123681589.1818731 6654096.092122079 6654096.092122079 18239439.02973837 0 0 0 0 0 123068602.2362649 6960808.260687998 6960808.260687998 15583357.16387595 0 0 0 0 0 122490221.813338 7081185.089121684 7081185.089121684 12998625.06661705 0 0 0 0 0 121929408.8778466 7032561.501718797 7032561.501718797 10531939.72486776 0 0 0 0 0 121374921.2068624 6836886.373628126 6836886.373628126 8215939.93786571 0 0 0 0 0 120817901.7650349 6517319.418647317 6517319.418647317 6072722.897635003 0 0 0 0 0 120251963.2122447 6098011.015831836 6098011.015831836 4115534.501293671 0 0 0 0 0 119673317.3867881 5602380.22735284 5602380.22735284 2351250.601948133 0 0 0 0 0 119078191.8491951 5051050.047698241 5051050.047698241 779742.1823042331 0 0 0 0 0 118467197.8252272 4463454.149770737 4463454.149770737 -604397.4838127856 0 0 0 0 0 118510534.0920739 4349134.114889903 4349134.114889903 -531173.1801263925 0 0 0 0 0 118122990.9519122 2933895.782434069 2933895.782434069 -3409736.277546458 0 0 0 0 0 117389114.4675965 2299999.565660254 2299999.565660254 -4310353.079806191 0 0 0 0 0 117015137.3160179 1977487.875105764 1977487.875105764 -4233196.264263405 0 0 0 0 0 116580657.1418204 596191.6385442981 596191.6385442981 -6359167.19741344 0 0 0 0 0 98539451.69538487 -14431058.62839583 -14431058.62839583 -10554984.61052024 0 0 0 0 0 96730162.50459808 -14841014.62895934 -14841014.62895934 -9882134.203276476 0 0 0 0 0 100377569.5645691 -13866795.25963983 -13866795.25963983 -11125231.86360277 0 0 0 0 0 102212263.2054046 -13158388.21569034 -13158388.21569034 -11582559.12355889 0 0 0 0 0 94969528.59887969 -15100104.59313754 -15100104.59313754 -9131553.096037403 0 0 0 0 0 93274477.1340365 -15213390.94147433 -15213390.94147433 -8323643.038949205 0 0 0 0 0 91664271.62017696 -15186614.80809454 -15186614.80809454 -7474171.52005688 0 0 0 0 0 104021936.3648232 -12307294.76706593 -12307294.76706593 -11904168.8854377 0 0 0 0 0 105781999.6783875 -11326034.62159565 -11326034.62159565 -12077764.2165473 0 0 0 0 0 107464718.4984547 -10232097.1796206 -10232097.1796206 -12094234.45913688 0 0 0 0 0 109052984.3829668 -9035731.328684904 -9035731.328684904 -11938323.08476127 0 0 0 0 0 110521747.886497 -7757395.48122019 -7757395.48122019 -11607786.35796394 0 0 0 0 0 111848091.2114924 -6424800.460483471 -6424800.460483471 -11106266.38207924 0 0 0 0 0 113010985.3400368 -5067134.584720857 -5067134.584720857 -10437038.87228688 0 0 0 0 0 114004777.4710499 -3704953.490762603 -3704953.490762603 -9608270.23628922 0 0 0 0 0 114822365.9655121 -2361407.903496289 -2361407.903496289 -8631263.079865117 0 0 0 0 0 115459179.9182822 -1061249.648442464 -1061249.648442464 -7523522.909967002 0 0 0 0 0 115915793.0234233 173431.7922626899 173431.7922626899 -6304295.262041712 0 0 0 0 0 91886505.3221699 -14299697.8825448 -14299697.8825448 -5860225.163464042 0 0 0 0 0 90482881.11769626 -14370729.61447541 -14370729.61447541 -6187710.312567971 0 0 0 0 0 90730149.21451576 -13438574.35867116 -13438574.35867116 -4708283.647636357 0 0 0 0 0 88207832.46026202 -11682745.77018922 -11682745.77018922 -2714781.822996516 0 0 0 0 0 88810574.13404579 -12290285.74774722 -12290285.74774722 -3269594.934400261 0 0 0 0 0 89554245.27334812 -13484477.33876045 -13484477.33876045 -4995750.723476063 0 0 0 0 0 89485811.93885118 -12538742.87879291 -12538742.87879291 -4167567.588208939 0 0 0 0 0 124967949.2942106 5547117.916495622 5547117.916495622 25970813.21559984 0 0 0 0 0 125736790.8601282 4506614.41153893 4506614.41153893 27734482.60246915 0 0 0 0 0 126614348.0351398 3357576.467627948 3357576.467627948 29485132.40502993 0 0 0 0 0 126516911.8480218 1346663.920122575 1346663.920122575 29903695.45280644 0 0 0 0 0 126619393.554672 1066876.069656799 1066876.069656799 30595649.34590346 0 0 0 0 0 124267966.0699088 6426559.603014131 6426559.603014131 23900502.36253087 0 0 0 0 0 123643943.4431017 7101483.07160076 7101483.07160076 21684969.70243252 0 0 0 0 0 123076526.4047035 7573589.004503069 7573589.004503069 19352051.08424731 0 0 0 0 0 122546140.0663718 7848818.218787814 7848818.218787814 16973288.72865681 0 0 0 0 0 122034448.2157698 7939644.367956655 7939644.367956655 14607897.79188383 0 0 0 0 0 121527978.7094391 7864992.750304156 7864992.750304156 12302365.82591058 0 0 0 0 0 121016428.3124826 7646304.897724699 7646304.897724699 10094204.75095042 0 0 0 0 0 120491495.8315974 7305630.938418737 7305630.938418737 8009694.381056773 0 0 0 0 0 119947801.8419828 6866267.074544583 6866267.074544583 6067336.003449796 0 0 0 0 0 119381867.2923091 6351574.458615417 6351574.458615417 4281531.082192035 0 0 0 0 0 118793751.8754711 5781072.375631894 5781072.375631894 2660804.680775794 0 0 0 0 0 118185380.9038043 5174370.441102353 5174370.441102353 1202044.47583657 0 0 0 0 0 117842683.7472375 3857799.063674308 3857799.063674308 -1807646.883759891 0 0 0 0 0 117773496.7368986 3671963.744193723 3671963.744193723 -1725329.995363641 0 0 0 0 0 117040227.5065453 3011078.018679082 3011078.018679082 -2747601.348467359 0 0 0 0 0 116648567.4167216 1679097.435849859 1679097.435849859 -5070254.648282359 0 0 0 0 0 116197281.9673589 1322870.559615966 1322870.559615966 -4995540.336328468 0 0 0 0 0 100325141.9433426 -13637610.83416355 -13637610.83416355 -9590663.288617587 0 0 0 0 0 98551376.79729286 -14038922.51669059 -14038922.51669059 -8931434.626227604 0 0 0 0 0 102096813.799645 -13097507.11617171 -13097507.11617171 -10173788.66909201 0 0 0 0 0 103848665.5410861 -12422679.63856474 -12422679.63856474 -10661038.30469903 0 0 0 0 0 96800267.67382734 -14300648.81259535 -14300648.81259535 -8212502.166422965 0 0 0 0 0 95094679.59358512 -14427220.25444019 -14427220.25444019 -7449157.144591543 0 0 0 0 0 93450394.60708277 -14424151.51333635 -14424151.51333635 -6659153.854568865 0 0 0 0 0 105549329.9294358 -11618941.03445982 -11618941.03445982 -11036188.01489329 0 0 0 0 0 107179635.4596458 -10696676.65111642 -10696676.65111642 -11285978.76236266 0 0 0 0 0 108717498.5188035 -9670673.571769545 -9670673.571769545 -11398187.70510115 0 0 0 0 0 110139401.7585839 -8555142.09077383 -8555142.09077383 -11362980.26105447 0 0 0 0 0 111429563.8706985 -7365912.164026238 -7365912.164026238 -11170812.38898447 0 0 0 0 0 112571135.5933072 -6126327.275835793 -6126327.275835793 -10819302.23661101 0 0 0 0 0 113551861.4152183 -4861743.35355191 -4861743.35355191 -10311199.56025462 0 0 0 0 0 114362397.6227064 -3595816.227187814 -3595816.227187814 -9651030.821222883 0 0 0 0 0 115001765.1592093 -2347522.327639244 -2347522.327639244 -8845855.442601439 0 0 0 0 0 115470103.2732627 -1138917.580249439 -1138917.580249439 -7907451.767039342 0 0 0 0 0 115772055.2059628 10360.66596674545 10360.66596674545 -6850402.081024623 0 0 0 0 0 91871789.37285797 -14536435.38124928 -14536435.38124928 -7009984.61640099 0 0 0 0 0 92083934.51000535 -13697353.62233082 -13697353.62233082 -5503843.342709701 0 0 0 0 0 90810952.85405363 -13744113.59402074 -13744113.59402074 -5810398.116343861 0 0 0 0 0 88708990.49733469 -11265049.36297364 -11265049.36297364 -2764885.454031882 0 0 0 0 0 89292357.63090114 -11796920.25669475 -11796920.25669475 -3371665.915511782 0 0 0 0 0 90931299.17295578 -12872881.31328442 -12872881.31328442 -4533050.228786622 0 0 0 0 0 90613388.36325982 -12265554.74013423 -12265554.74013423 -3742106.910500269 0 0 0 0 0 90549038.25581785 -12791237.97382234 -12791237.97382234 -4653634.451005818 0 0 0 0 0 124012029.8879552 3714700.96667973 3714700.96667973 26677631.10687657 0 0 0 0 0 123360067.4426179 4718832.190514626 4718832.190514626 24584195.74242346 0 0 0 0 0 125093486.4110551 2565737.297009877 2565737.297009877 28464287.35130604 0 0 0 0 0 125006799.0154618 2235250.54471793 2235250.54471793 29613328.68408499 0 0 0 0 0 125240582.8871106 167649.8343539928 167649.8343539928 29566750.70375219 0 0 0 0 0 122715709.0460885 5568342.58314616 5568342.58314616 22270510.59620143 0 0 0 0 0 122158449.7632592 6220602.675264009 6220602.675264009 19843239.95691821 0 0 0 0 0 121652902.3525465 6683442.738216811 6683442.738216811 17369650.40168384 0 0 0 0 0 121183300.3231117 6962104.602967808 6962104.602967808 14912463.83784302 0 0 0 0 0 120736092.8230707 7069431.951517052 7069431.951517052 12523569.21044286 0 0 0 0 0 120295979.6986774 7021528.207703831 7021528.207703831 10242079.49314742 0 0 0 0 0 119854181.0478208 6838934.803730235 6838934.803730235 8095241.875888328 0 0 0 0 0 119402998.0051188 6541806.750111676 6541806.750111676 6100417.47727601 0 0 0 0 0 118938782.8776028 6152992.383048776 6152992.383048776 4272911.93166975 0 0 0 0 0 118456084.1072349 5694029.286110746 5694029.286110746 2619638.672121177 0 0 0 0 0 117952323.6102093 5180717.496563283 5180717.496563283 1137753.611823786 0 0 0 0 0 117429172.7460224 4632789.817552267 4632789.817552267 -175438.8776872865 0 0 0 0 0 117559907.8238818 4548698.074863472 4548698.074863472 -95962.91348960256 0 0 0 0 0 117212348.9460819 3250986.289684327 3250986.289684327 -2831968.843498012 0 0 0 0 0 116566004.5225761 2650069.78145498 2650069.78145498 -3708580.352956336 0 0 0 0 0 116310800.3935664 2369121.283614409 2369121.283614409 -3623540.876081161 0 0 0 0 0 115914948.4406707 1081981.287077472 1081981.287077472 -5692890.371036666 0 0 0 0 0 98258736.77376702 -13938678.42239623 -13938678.42239623 -9967522.440839292 0 0 0 0 0 99970289.38056284 -13448518.78327616 -13448518.78327616 -10538723.07667099 0 0 0 0 0 96575652.95142066 -14289750.77715765 -14289750.77715765 -9311635.686319452 0 0 0 0 0 101686967.2833078 -12822082.09527667 -12822082.09527667 -11008933.05935093 0 0 0 0 0 103389719.8969697 -12062288.67701185 -12062288.67701185 -11359651.55642854 0 0 0 0 0 94938900.01022469 -14502835.67521607 -14502835.67521607 -8588953.535848901 0 0 0 0 0 93365252.92130817 -14582784.82157212 -14582784.82157212 -7816047.705588938 0 0 0 0 0 105050633.1929841 -11180261.03481773 -11180261.03481773 -11580634.29603093 0 0 0 0 0 106650433.9722697 -10187347.49253101 -10187347.49253101 -11658703.87900133 0 0 0 0 0 108167068.0617082 -9097468.45970479 -9097468.45970479 -11584822.8286014 0 0 0 0 0 109580655.328076 -7926363.941677161 -7926363.941677161 -11352741.03715465 0 0 0 0 0 110873435.5874145 -6694030.831565686 -6694030.831565686 -10959088.88980718 0 0 0 0 0 112027530.3896797 -5422327.317539917 -5422327.317539917 -10405394.68691319 0 0 0 0 0 113026187.6605777 -4140921.781621609 -4140921.781621609 -9704826.074063871 0 0 0 0 0 113864942.8413724 -2866226.405717675 -2866226.405717675 -8862067.814009311 0 0 0 0 0 114538847.1636721 -1620299.064329636 -1620299.064329636 -7890003.992630766 0 0 0 0 0 115046759.6292506 -424026.7149366058 -424026.7149366058 -6805098.273654246 0 0 0 0 0 115391204.397263 703535.7825789077 703535.7825789077 -5625722.214674531 0 0 0 0 0 93536941.23542334 -13825886.29023831 -13825886.29023831 -6250233.627368634 0 0 0 0 0 92071581.22962229 -13920700.97389277 -13920700.97389277 -6580978.516696572 0 0 0 0 0 92284610.51358236 -13129152.44543567 -13129152.44543567 -5222127.278573708 0 0 0 0 0 89494839.63043529 -11729315.24800474 -11729315.24800474 -3312819.395222437 0 0 0 0 0 90075557.55261931 -12250105.66898499 -12250105.66898499 -3878327.097064298 0 0 0 0 0 91165524.51448804 -13195072.88381 -13195072.88381 -5471359.934441185 0 0 0 0 0 90494026.80646469 -12368698.14462362 -12368698.14462362 -4651419.509264496 0 0 0 0 0 91442830.10374591 -12372767.50314068 -12372767.50314068 -4443397.58645012 0 0 0 0 0 123182585.6584628 4577702.120727146 4577702.120727146 26409170.20136475 0 0 0 0 0 122578977.6706775 5582699.57709974 5582699.57709974 24569085.90402548 0 0 0 0 0 123857956.140856 3470055.362960994 3470055.362960994 27957662.39215655 0 0 0 0 0 123810890.6235182 1417494.516506449 1417494.516506449 28503906.50716251 0 0 0 0 0 123822459.4827616 951855.4517802289 951855.4517802289 29096553.23126052 0 0 0 0 0 122050313.185053 6394766.652741429 6394766.652741429 22651375.14173124 0 0 0 0 0 121585103.8419947 7020618.851840504 7020618.851840504 20572795.72756742 0 0 0 0 0 121161043.5608614 7458877.97533417 7458877.97533417 18405123.34272785 0 0 0 0 0 120760649.5252528 7715494.847135683 7715494.847135683 16202170.09434297 0 0 0 0 0 120367027.3110293 7802206.973546811 7802206.973546811 14013045.54394242 0 0 0 0 0 119972167.8156222 7737051.103646807 7737051.103646807 11879019.16597765 0 0 0 0 0 119565722.172431 7539794.945664326 7539794.945664326 9830267.033738324 0 0 0 0 0 119140510.9761183 7228872.163204461 7228872.163204461 7895495.54504365 0 0 0 0 0 118691516.6439867 6826523.618192222 6826523.618192222 6086297.383343348 0 0 0 0 0 118217159.0826221 6354349.748024318 6354349.748024318 4416480.603558211 0 0 0 0 0 117716846.9345471 5828057.749869626 5828057.749869626 2896792.381241189 0 0 0 0 0 117196260.111179 5267712.313368577 5267712.313368577 1520248.377450837 0 0 0 0 0 116898002.70444 4071154.28474174 4071154.28474174 -1318700.615880899 0 0 0 0 0 116911647.2781819 3915945.940150419 3915945.940150419 -1233949.585017595 0 0 0 0 0 116263675.2727774 3294410.11149319 3294410.11149319 -2214014.268641392 0 0 0 0 0 115911246.9821309 2061293.335357192 2061293.335357192 -4453865.260283933 0 0 0 0 0 115577897.0079841 1745636.762963058 1745636.762963058 -4372179.565869541 0 0 0 0 0 99937273.18433489 -13191894.30129016 -13191894.30129016 -9057820.797994079 0 0 0 0 0 101597601.6493097 -12718654.91944656 -12718654.91944656 -9630942.75644703 0 0 0 0 0 98281769.1198843 -13537290.45400118 -13537290.45400118 -8418726.99645864 0 0 0 0 0 103242996.82581 -12120122.16642398 -12120122.16642398 -10122142.29457242 0 0 0 0 0 104850873.6334804 -11400982.7929703 -11400982.7929703 -10516173.04953226 0 0 0 0 0 96651534.33277854 -13754980.38178327 -13754980.38178327 -7727659.737445281 0 0 0 0 0 95065005.20223905 -13848463.23511164 -13848463.23511164 -6999257.702054362 0 0 0 0 0 106402680.6190594 -10567960.38844943 -10567960.38844943 -10797370.02211444 0 0 0 0 0 107875286.0125185 -9633745.214507306 -9633745.214507306 -10955834.84099411 0 0 0 0 0 109247198.3115863 -8612597.532342555 -8612597.532342555 -10981753.15530229 0 0 0 0 0 110501495.5616694 -7520024.106457621 -7520024.106457621 -10867392.41257054 0 0 0 0 0 111623854.8968567 -6373148.155044497 -6373148.155044497 -10610000.76585897 0 0 0 0 0 112603660.6105723 -5190019.466776718 -5190019.466776718 -10205897.71649574 0 0 0 0 0 113432496.0058128 -3996774.263171884 -3996774.263171884 -9658535.955120303 0 0 0 0 0 114104325.1169996 -2810785.48557752 -2810785.48557752 -8973730.840107743 0 0 0 0 0 114618750.8025461 -1651115.595358033 -1651115.595358033 -8159877.138041224 0 0 0 0 0 114978251.9994658 -536247.8989061336 -536247.8989061336 -7228330.899525288 0 0 0 0 0 115187447.7139477 515842.6176037219 515842.6176037219 -6194526.082062773 0 0 0 0 0 93461548.37067354 -13982353.20152518 -13982353.20152518 -7344882.423295788 0 0 0 0 0 93628955.26519191 -13257588.97674396 -13257588.97674396 -5878024.217704157 0 0 0 0 0 92288310.49249566 -13344518.04981553 -13344518.04981553 -6180475.303836495 0 0 0 0 0 90142152.25610006 -11255999.42893666 -11255999.42893666 -3224683.950964387 0 0 0 0 0 90596125.03426866 -11796430.13604373 -11796430.13604373 -3920422.801437005 0 0 0 0 0 92494749.87924396 -12609925.80389784 -12609925.80389784 -4886196.349425413 0 0 0 0 0 91757816.74404751 -12029349.98380299 -12029349.98380299 -4163465.990669858 0 0 0 0 0 91606330.0700995 -12565148.15218664 -12565148.15218664 -5132038.016788587 0 0 0 0 0 122423272.5372366 2692075.045188901 2692075.045188901 26970668.04778192 0 0 0 0 0 121771730.2947928 3852782.239456383 3852782.239456383 25280746.05503074 0 0 0 0 0 121155572.2344031 4832494.465011372 4832494.465011372 23261195.8180714 0 0 0 0 0 122464601.9770835 2247031.51190694 2247031.51190694 27897187.87126538 0 0 0 0 0 122577756.7107545 226120.0360829447 226120.0360829447 28460652.70278635 0 0 0 0 0 120677652.5170327 5611876.55015262 5611876.55015262 21096562.13984501 0 0 0 0 0 120255816.8997215 6213935.026835917 6213935.026835917 18837439.26538448 0 0 0 0 0 119872850.8867696 6639781.441955876 6639781.441955876 16544805.72807321 0 0 0 0 0 119514910.9258797 6896023.277161498 6896023.277161498 14273650.80991514 0 0 0 0 0 119168887.8524216 6994444.922298916 6994444.922298916 12065944.7534782 0 0 0 0 0 118825487.5886249 6950765.511021305 6950765.511021305 9953791.292648949 0 0 0 0 0 118476161.73994 6784309.992541302 6784309.992541302 7962272.224903969 0 0 0 0 0 118110416.831235 6509234.496492611 6509234.496492611 6104417.473999223 0 0 0 0 0 117730129.8785147 6152132.476005116 6152132.476005116 4398316.46012478 0 0 0 0 0 117329994.4618748 5729668.730242862 5729668.730242862 2848529.036235163 0 0 0 0 0 116902030.60876 5253097.206241139 5253097.206241139 1451308.089730003 0 0 0 0 0 116457731.0586203 4745351.426366638 4745351.426366638 209762.7274792932 0 0 0 0 0 116647951.7870671 4686634.97163749 4686634.97163749 290984.4583887514 0 0 0 0 0 116344970.323676 3502542.597553158 3502542.597553158 -2300432.113899746 0 0 0 0 0 115772656.8203347 2933623.234928178 2933623.234928178 -3153126.316021305 0 0 0 0 0 115614744.2292235 2688231.668923639 2688231.668923639 -3064878.956689292 0 0 0 0 0 115254514.6863986 1490143.593954604 1490143.593954604 -5075030.927080636 0 0 0 0 0 98016761.66020177 -13459155.19922943 -13459155.19922943 -9414461.287935473 0 0 0 0 0 99613779.55880322 -13031968.44159129 -13031968.44159129 -9978779.443641532 0 0 0 0 0 101221567.6809233 -12478809.29144972 -12478809.29144972 -10455549.95548629 0 0 0 0 0 96448822.10480213 -13758514.39114576 -13758514.39114576 -8777072.335186999 0 0 0 0 0 102820095.7541693 -11802264.33880858 -11802264.33880858 -10828818.73059736 0 0 0 0 0 104388703.8751022 -11008648.73516631 -11008648.73516631 -11085773.88086576 0 0 0 0 0 94926478.07574147 -13931259.55031827 -13931259.55031827 -8082139.859187443 0 0 0 0 0 105909323.8694307 -10108634.79090515 -10108634.79090515 -11215481.12894856 0 0 0 0 0 107356996.6790417 -9114753.412034335 -9114753.412034335 -11208145.57609406 0 0 0 0 0 108713944.6005822 -8042795.478242004 -8042795.478242004 -11057840.92352481 0 0 0 0 0 109967113.6248217 -6905957.357278007 -6905957.357278007 -10758228.14613046 0 0 0 0 0 111102737.994181 -5723090.224651008 -5723090.224651008 -10310362.85290144 0 0 0 0 0 112100220.4975416 -4520189.969478768 -4520189.969478768 -9722646.177069999 0 0 0 0 0 112952623.5727026 -3315315.950115037 -3315315.950115037 -9000449.087256562 0 0 0 0 0 113654714.6922926 -2126970.36261898 -2126970.36261898 -8152784.999324889 0 0 0 0 0 114204107.9343212 -974711.3253281105 -974711.3253281105 -7193075.33800107 0 0 0 0 0 114602142.4065593 123749.5665852265 123749.5665852265 -6135537.051228783 0 0 0 0 0 114852318.4851061 1151977.255159739 1151977.255159739 -4997736.831201123 0 0 0 0 0 95053273.88882956 -13295267.64239343 -13295267.64239343 -6581983.489244034 0 0 0 0 0 93566059.97072102 -13413172.77180714 -13413172.77180714 -6905920.2419238 0 0 0 0 0 93723485.24965382 -12732725.48353521 -12732725.48353521 -5529238.564631464 0 0 0 0 0 90827128.58514476 -11704134.65979386 -11704134.65979386 -3823250.266727864 0 0 0 0 0 92547216.19978513 -12798628.68456478 -12798628.68456478 -5800351.467711788 0 0 0 0 0 91582752.90069991 -12019651.18950354 -12019651.18950354 -4746012.4825013 0 0 0 0 0 92824125.31879793 -12006349.08778444 -12006349.08778444 -4598219.325556051 0 0 0 0 0 121483728.1063201 3492267.628022166 3492267.628022166 26651521.80272358 0 0 0 0 0 120990526.9962971 4611692.059158362 4611692.059158362 24815272.30581364 0 0 0 0 0 120516359.1892551 5543641.753287358 5543641.753287358 23264600.62887827 0 0 0 0 0 121335914.9816153 1481691.949778714 1481691.949778714 26823150.42277791 0 0 0 0 0 121365892.3839966 973916.2775987337 973916.2775987337 27717157.67140654 0 0 0 0 0 120127006.2400668 6305842.644751056 6305842.644751056 21457127.57144129 0 0 0 0 0 119784034.4786132 6890533.9336779 6890533.9336779 19522624.0658737 0 0 0 0 0 119468659.9806011 7299131.981457109 7299131.981457109 17510239.72949241 0 0 0 0 0 119168742.7844444 7539161.624012919 7539161.624012919 15468984.6374935 0 0 0 0 0 118871089.0422919 7623684.858313107 7623684.858313107 13440337.92243332 0 0 0 0 0 118565485.2831476 7568558.215305989 7568558.215305989 11463019.5708615 0 0 0 0 0 118245692.7982631 7392824.475063766 7392824.475063766 9563120.569339063 0 0 0 0 0 117900303.4863254 7110770.100451698 7110770.100451698 7776452.262573792 0 0 0 0 0 117530311.569209 6745234.386585337 6745234.386585337 6087351.169440997 0 0 0 0 0 117132861.88887 6312553.617903045 6312553.617903045 4522814.346361958 0 0 0 0 0 116708306.3413613 5829797.685947485 5829797.685947485 3095133.025777167 0 0 0 0 0 116260954.1662542 5312649.100334248 5312649.100334248 1797942.586740175 0 0 0 0 0 115999588.0789217 4224759.386974745 4224759.386974745 -875757.1816270563 0 0 0 0 0 116084559.0083059 4101088.000572058 4101088.000572058 -788033.186957824 0 0 0 0 0 115514317.9808194 3519205.188421962 3519205.188421962 -1729120.151903568 0 0 0 0 0 115189529.8791797 2373593.67288188 2373593.67288188 -3887650.269699661 0 0 0 0 0 114962005.1465641 2096676.23883206 2096676.23883206 -3797516.379336062 0 0 0 0 0 99594931.6818853 -12756191.73081074 -12756191.73081074 -8556482.983769173 0 0 0 0 0 101150993.5327009 -12341654.7481952 -12341654.7481952 -9117122.218693091 0 0 0 0 0 102699226.8255966 -11810932.23816524 -11810932.23816524 -9606846.371722823 0 0 0 0 0 98048232.6554599 -13052788.74726411 -13052788.74726411 -7938623.884415078 0 0 0 0 0 104218076.419686 -11166732.06844169 -11166732.06844169 -10011374.00049856 0 0 0 0 0 105689211.0064645 -10416941.19522762 -10416941.19522762 -10317716.25462468 0 0 0 0 0 96529503.98796624 -13231321.42406846 -13231321.42406846 -7276510.412122239 0 0 0 0 0 107093407.4867464 -9569793.59315636 -9569793.59315636 -10515762.95927474 0 0 0 0 0 108413978.6458669 -8635744.496211711 -8635744.496211711 -10593964.59013455 0 0 0 0 0 109633509.3481908 -7630488.699300963 -7630488.699300963 -10544901.26316736 0 0 0 0 0 110736168.6063191 -6568461.234268162 -6568461.234268162 -10364161.01370815 0 0 0 0 0 111709079.7207128 -5467898.300134872 -5467898.300134872 -10049996.87405185 0 0 0 0 0 112547769.7588339 -4346653.138357472 -4346653.138357472 -9602021.908426663 0 0 0 0 0 113243732.0548499 -3224343.815825768 -3224343.815825768 -9024835.499374272 0 0 0 0 0 113795341.3118842 -2116809.167722961 -2116809.167722961 -8323501.429610884 0 0 0 0 0 114203405.4710389 -1041506.318930986 -1041506.318930986 -7507375.782377834 0 0 0 0 0 114470291.7259382 -15921.43390444392 -15921.43390444392 -6589570.101950095 0 0 0 0 0 114602248.8305787 945372.1173691009 945372.1173691009 -5583505.900167996 0 0 0 0 0 94931830.46104528 -13385334.6163088 -13385334.6163088 -7609792.17691227 0 0 0 0 0 95058718.2703028 -12767190.16206086 -12767190.16206086 -6184042.619130691 0 0 0 0 0 93663722.25308438 -12876869.71895167 -12876869.71895167 -6488503.471350918 0 0 0 0 0 91533542.43300359 -11179463.05898051 -11179463.05898051 -3655704.53283118 0 0 0 0 0 93843749.76609996 -12222368.71067468 -12222368.71067468 -5201777.108710738 0 0 0 0 0 92744697.56854494 -11558384.666504 -11558384.666504 -4232487.954306276 0 0 0 0 0 92766617.41381811 -12239968.28732995 -12239968.28732995 -5461770.335190773 0 0 0 0 0 120249262.9185697 2831286.214611628 2831286.214611628 25789498.54944514 0 0 0 0 0 119681133.4488639 3993344.60551681 3993344.60551681 23916987.21100938 0 0 0 0 0 119279612.5575746 4869092.7907536 4869092.7907536 22009687.94333379 0 0 0 0 0 120235312.477588 2019371.47963538 2019371.47963538 27223187.42860219 0 0 0 0 0 120234814.4963203 241048.2678804086 241048.2678804086 26528181.01266462 0 0 0 0 0 118914297.1262135 5593636.225493982 5593636.225493982 19986044.92875461 0 0 0 0 0 118592065.558672 6151382.160225724 6151382.160225724 17891048.0672598 0 0 0 0 0 118299067.2062643 6544562.828884435 6544562.828884435 15771107.82491442 0 0 0 0 0 118028530.7189766 6781960.136853102 6781960.136853102 13669839.47597376 0 0 0 0 0 117765758.6512965 6874535.597314077 6874535.597314077 11625996.69837149 0 0 0 0 0 117498953.6045593 6836101.184803397 6836101.184803397 9666537.280726554 0 0 0 0 0 117230094.0909674 6689273.457864933 6689273.457864933 7818287.231102733 0 0 0 0 0 116928999.9371523 6435584.598616542 6435584.598616542 6092261.446701474 0 0 0 0 0 116616156.0357934 6107976.00303091 6107976.00303091 4496588.929122458 0 0 0 0 0 116288228.9233056 5721107.264570647 5721107.264570647 3042848.015304601 0 0 0 0 0 115923063.2760957 5280502.600134937 5280502.600134937 1726475.542351792 0 0 0 0 0 115544656.0142876 4810775.038693342 4810775.038693342 549970.8347767986 0 0 0 0 0 115783461.9608834 4774556.525353831 4774556.525353831 631916.3123444956 0 0 0 0 0 115516839.5424958 3693877.404369049 3693877.404369049 -1820186.248612456 0 0 0 0 0 115006767.3197686 3155999.135962343 3155999.135962343 -2652879.106690239 0 0 0 0 0 114939228.4080889 2945210.002355602 2945210.002355602 -2556601.438505244 0 0 0 0 0 114606963.6327085 1829607.158573176 1829607.158573176 -4505089.947410496 0 0 0 0 0 97808013.50525649 -12993761.25341717 -12993761.25341717 -8893938.427221538 0 0 0 0 0 99299847.67158446 -12621696.14766406 -12621696.14766406 -9448279.575924002 0 0 0 0 0 100806145.5122912 -12133356.79960126 -12133356.79960126 -9926492.93758142 0 0 0 0 0 102309314.5073633 -11529975.71677916 -11529975.71677916 -10313931.99108339 0 0 0 0 0 96347893.98621622 -13247795.48294008 -13247795.48294008 -8276469.094680165 0 0 0 0 0 103789944.3279942 -10818541.64300234 -10818541.64300234 -10599083.72158716 0 0 0 0 0 105229948.0547624 -10004608.28024224 -10004608.28024224 -10768814.80369936 0 0 0 0 0 106613396.6894674 -9098241.742066666 -9098241.742066666 -10814476.73105431 0 0 0 0 0 107920441.4321819 -8114414.879230944 -8114414.879230944 -10731550.85777116 0 0 0 0 0 109134028.6898929 -7066226.744537202 -7066226.744537202 -10514261.80818697 0 0 0 0 0 110239764.99769 -5971689.240882434 -5971689.240882434 -10162229.19938038 0 0 0 0 0 111227209.5762473 -4846636.631497899 -4846636.631497899 -9675994.78661293 0 0 0 0 0 112085262.4980665 -3711387.492380482 -3711387.492380482 -9062231.030586643 0 0 0 0 0 112807369.8352599 -2582702.622094842 -2582702.622094842 -8328083.304964371 0 0 0 0 0 113389751.4579821 -1478023.895309034 -1478023.895309034 -7483550.786949911 0 0 0 0 0 113832211.8887402 -414215.2998931088 -414215.2998931088 -6540565.759415905 0 0 0 0 0 114136748.5327232 592695.7074536586 592695.7074536586 -5514321.966114353 0 0 0 0 0 114307906.5044966 1528975.983063465 1528975.983063465 -4420859.887669263 0 0 0 0 0 96432392.38471553 -12729829.71342306 -12729829.71342306 -6854562.090055538 0 0 0 0 0 94951574.55690706 -12863578.64301716 -12863578.64301716 -7168160.745135607 0 0 0 0 0 95074099.12107287 -12263582.18933558 -12263582.18933558 -5793206.547875034 0 0 0 0 0 91901058.32107048 -11580710.10995418 -11580710.10995418 -4448891.7809217 0 0 0 0 0 93794946.01109149 -12370744.99017528 -12370744.99017528 -6089947.407480816 0 0 0 0 0 92738741.54879875 -11799957.7130412 -11799957.7130412 -5106405.723668972 0 0 0 0 0 93970357.30746129 -11697408.26899661 -11697408.26899661 -4860850.172052201 0 0 0 0 0 119507180.3077145 3461577.210917635 3461577.210917635 24674152.57979558 0 0 0 0 0 119067932.4497593 4602702.129038156 4602702.129038156 23573517.23994652 0 0 0 0 0 118738568.0234291 5477016.125464445 5477016.125464445 22022980.17677559 0 0 0 0 0 119443581.6042278 1555359.040475455 1555359.040475455 25219730.64686998 0 0 0 0 0 119456557.938183 783757.7004976098 783757.7004976098 26376790.1999295 0 0 0 0 0 118449629.0030946 6185650.705390294 6185650.705390294 20332854.48584942 0 0 0 0 0 118196846.5196962 6727891.606584937 6727891.606584937 18530671.36542656 0 0 0 0 0 117967056.1703253 7108342.271621187 7108342.271621187 16663940.93532034 0 0 0 0 0 117746085.3617729 7334708.59390028 7334708.59390028 14772391.50439943 0 0 0 0 0 117524236.1603839 7418078.972497925 7418078.972497925 12891871.93123863 0 0 0 0 0 117294407.5146167 7373262.324294727 7373262.324294727 11058391.1958115 0 0 0 0 0 117042902.877064 7215834.021002366 7215834.021002366 9307754.10718949 0 0 0 0 0 116759624.2258541 6965110.004541979 6965110.004541979 7657089.424051221 0 0 0 0 0 116458480.1625446 6636925.962530084 6636925.962530084 6089784.352182912 0 0 0 0 0 116121010.3742697 6241257.899714462 6241257.899714462 4625042.48514802 0 0 0 0 0 115766609.8534673 5801886.905500585 5801886.905500585 3284018.166725677 0 0 0 0 0 115379555.2961119 5324012.563946169 5324012.563946169 2056379.598492215 0 0 0 0 0 115149717.5764539 4327279.639333717 4327279.639333717 -483048.5178467115 0 0 0 0 0 115290273.587933 4230727.771640848 4230727.771640848 -394279.7677817672 0 0 0 0 0 114795719.6179363 3688343.241628594 3688343.241628594 -1298565.326836853 0 0 0 0 0 114495660.673617 2626306.007448032 2626306.007448032 -3370751.731998398 0 0 0 0 0 114352856.7578847 2383154.321442497 2383154.321442497 -3276731.564252982 0 0 0 0 0 99292422.88603339 -12332128.67531939 -12332128.67531939 -8084809.238144007 0 0 0 0 0 100751669.7948464 -11969143.54858883 -11969143.54858883 -8631181.433728952 0 0 0 0 0 102207131.6013668 -11498954.27498455 -11498954.27498455 -9116502.692997349 0 0 0 0 0 103641124.4283511 -10923694.84030891 -10923694.84030891 -9527528.932123123 0 0 0 0 0 97847201.43385072 -12586047.49777425 -12586047.49777425 -7489704.598879129 0 0 0 0 0 105038047.3401922 -10248190.6158576 -10248190.6158576 -9852133.911328621 0 0 0 0 0 106377489.8151887 -9479353.206170658 -9479353.206170658 -10079290.77405876 0 0 0 0 0 107643654.0211366 -8627884.589809261 -8627884.589809261 -10199656.7121381 0 0 0 0 0 108823607.4484453 -7704871.862590738 -7704871.862590738 -10205872.73577262 0 0 0 0 0 109901939.0071102 -6723069.693120329 -6723069.693120329 -10091323.32912782 0 0 0 0 0 110866630.2947953 -5699236.111173667 -5699236.111173667 -9853835.012591703 0 0 0 0 0 111708101.024257 -4648903.070859287 -4648903.070859287 -9493147.500145651 0 0 0 0 0 112420593.9365105 -3589931.748393596 -3589931.748393596 -9011996.335495511 0 0 0 0 0 113000847.9828832 -2536895.584585791 -2536895.584585791 -8413118.106592363 0 0 0 0 0 113448900.678701 -1505076.837817129 -1505076.837817129 -7702996.607688059 0 0 0 0 0 113765951.1705271 -510513.7174671485 -510513.7174671485 -6891698.146150807 0 0 0 0 0 113955200.1066744 431649.9926652895 431649.9926652895 -5991639.872685574 0 0 0 0 0 114023478.6372308 1309101.832245588 1309101.832245588 -5015980.166367263 0 0 0 0 0 96269751.91128312 -12757336.89440243 -12757336.89440243 -7808224.459042198 0 0 0 0 0 96356954.21704164 -12249861.28126807 -12249861.28126807 -6461401.471196777 0 0 0 0 0 94987347.630046 -12364640.10264651 -12364640.10264651 -6760432.67853924 0 0 0 0 0 92875759.93989025 -11032324.11179891 -11032324.11179891 -4053482.458820934 0 0 0 0 0 95087596.19905804 -11801535.85895357 -11801535.85895357 -5444704.166192248 0 0 0 0 0 93835576.10862069 -11274959.43799396 -11274959.43799396 -4618325.619949196 0 0 0 0 0 93848922.73425032 -11920787.12464449 -11920787.12464449 -5784652.74107842 0 0 0 0 0 118433978.3959047 3017192.820954388 3017192.820954388 24261490.11636205 0 0 0 0 0 118697317.6318405 2088314.21345048 2088314.21345048 26133824.46660403 0 0 0 0 0 117985287.3592137 4038854.086362842 4038854.086362842 22601017.70145531 0 0 0 0 0 117650177.9424278 4864246.46686107 4864246.46686107 20827991.97757103 0 0 0 0 0 118586049.907131 1717448.706716803 1717448.706716803 25842978.15874143 0 0 0 0 0 118399912.0576521 249378.4070996377 249378.4070996377 25645914.95833962 0 0 0 0 0 117366163.0428809 5534449.855392644 5534449.855392644 18948584.0195544 0 0 0 0 0 117120690.2262387 6048625.440120665 6048625.440120665 17001471.22875833 0 0 0 0 0 116903322.1333578 6412945.127196987 6412945.127196987 15039532.40514956 0 0 0 0 0 116700810.7230292 6634608.654387711 6634608.654387711 13096056.94798165 0 0 0 0 0 116503272.0406412 6723032.512062031 6723032.512062031 11202351.42041077 0 0 0 0 0 116297338.2872906 6688305.08197601 6688305.08197601 9382139.267587036 0 0 0 0 0 116099364.6765291 6560935.038815754 6560935.038815754 7671266.808355168 0 0 0 0 0 115844509.6279349 6331009.281994357 6331009.281994357 6068926.258676767 0 0 0 0 0 115588205.7185295 6033995.055828114 6033995.055828114 4579012.76937068 0 0 0 0 0 115313347.4300148 5681186.470914913 5681186.470914913 3217545.731293032 0 0 0 0 0 115010926.639219 5279986.495788985 5279986.495788985 1977748.890566942 0 0 0 0 0 114686031.2396836 4845091.43270679 4845091.43270679 861446.1858309935 0 0 0 0 0 114962941.6091632 4823947.156513148 4823947.156513148 945977.7919558145 0 0 0 0 0 114723137.9891458 3829405.746322054 3829405.746322054 -1394480.146767372 0 0 0 0 0 114281448.2247702 3327207.770823601 3327207.770823601 -2200458.632804221 0 0 0 0 0 114280112.2766677 3145442.458376701 3145442.458376701 -2102863.480905117 0 0 0 0 0 113977855.8553985 2110431.366115114 2110431.366115114 -3979668.783846383 0 0 0 0 0 99023027.98383126 -12219761.21682902 -12219761.21682902 -8946413.916282902 0 0 0 0 0 97629417.65996614 -12543145.17265832 -12543145.17265832 -8404264.834210228 0 0 0 0 0 100435640.0446213 -11788958.50658934 -11788958.50658934 -9421809.929914657 0 0 0 0 0 101849076.9960325 -11252178.96316021 -11252178.96316021 -9817571.291280264 0 0 0 0 0 103246851.0056949 -10612972.07117566 -10612972.07117566 -10122280.64765063 0 0 0 0 0 104613576.8853688 -9876391.968409529 -9876391.968409529 -10324366.13048403 0 0 0 0 0 105930122.0817685 -9053474.296569766 -9053474.296569766 -10416984.21318214 0 0 0 0 0 107182043.3829376 -8153222.95645289 -8153222.95645289 -10391853.20248989 0 0 0 0 0 108355168.8474759 -7187650.04850965 -7187650.04850965 -10243964.12352123 0 0 0 0 0 109433646.4402177 -6172748.186272604 -6172748.186272604 -9971904.067131303 0 0 0 0 0 110406062.9207227 -5123904.518881999 -5123904.518881999 -9576189.7276254 0 0 0 0 0 111262994.3796881 -4057154.122920102 -4057154.122920102 -9059173.601661565 0 0 0 0 0 111997710.8526859 -2988896.72629521 -2988896.72629521 -8427726.855819013 0 0 0 0 0 112605772.5034008 -1934316.442344939 -1934316.442344939 -7688722.353844333 0 0 0 0 0 113084697.2403849 -909448.4179017455 -909448.4179017455 -6852858.568889165 0 0 0 0 0 113434946.1341614 70470.57211078519 70470.57211078519 -5931949.526711917 0 0 0 0 0 113659832.2090989 992183.0314374663 992183.0314374663 -4940377.866609274 0 0 0 0 0 113765016.0990594 1843653.95147346 1843653.95147346 -3892346.905013542 0 0 0 0 0 97674782.26839817 -12137259.02681135 -12137259.02681135 -7071779.111997842 0 0 0 0 0 96212458.31217311 -12286054.18539616 -12286054.18539616 -7372268.689475609 0 0 0 0 0 96311977.67358448 -11800358.71885123 -11800358.71885123 -6112325.444971718 0 0 0 0 0 93148048.31018853 -11305893.69593539 -11305893.69593539 -4815625.652513778 0 0 0 0 0 95023384.73863746 -11878829.04727338 -11878829.04727338 -6407980.463987688 0 0 0 0 0 93952062.09219818 -11488422.78495121 -11488422.78495121 -5511888.193735656 0 0 0 0 0 95161358.92037244 -11348256.75589371 -11348256.75589371 -5165827.808670965 0 0 0 0 0 117755969.9799047 3603204.771948003 3603204.771948003 23512948.32336078 0 0 0 0 0 118000898.6440034 2510104.504237023 2510104.504237023 24396766.68201071 0 0 0 0 0 117442900.5341445 4579800.350998402 4579800.350998402 22301418.86180831 0 0 0 0 0 117185280.1098923 5386522.318083606 5386522.318083606 20858311.78000014 0 0 0 0 0 117586899.4857843 1189178.485055773 1189178.485055773 24989597.72602753 0 0 0 0 0 117601512.85121 732180.5581694855 732180.5581694855 25082294.0729184 0 0 0 0 0 116972553.142162 6041215.95586195 6041215.95586195 19275851.24159498 0 0 0 0 0 116788103.2118054 6543182.111729475 6543182.111729475 17600052.13787372 0 0 0 0 0 116627645.5256504 6897952.018797106 6897952.018797106 15861192.63481562 0 0 0 0 0 116472259.7527374 7111470.582945146 7111470.582945146 14103358.04255558 0 0 0 0 0 116311574.080839 7193937.74081639 7193937.74081639 12364835.32361071 0 0 0 0 0 116132721.7380399 7161044.918544373 7161044.918544373 10683337.88495364 0 0 0 0 0 115913686.756914 7018363.456951658 7018363.456951658 9070371.363453815 0 0 0 0 0 115706155.73165 6801109.820556268 6801109.820556268 7524315.255393324 0 0 0 0 0 115459957.710007 6502332.604556322 6502332.604556322 6056048.781672766 0 0 0 0 0 115181291.5243228 6143045.517880701 6143045.517880701 4686129.378272123 0 0 0 0 0 114884689.6642848 5742461.142918322 5742461.142918322 3423393.320821587 0 0 0 0 0 114556617.2819685 5304333.13164007 5304333.13164007 2262059.417744084 0 0 0 0 0 114342336.014713 4392883.514847255 4392883.514847255 -127732.5869128762 0 0 0 0 0 114538472.5712223 4317741.489853904 4317741.489853904 -37269.5111266663 0 0 0 0 0 114101294.8652824 3809621.451538515 3809621.451538515 -910517.2650666722 0 0 0 0 0 113832694.4932479 2829858.111990051 2829858.111990051 -2896281.570825307 0 0 0 0 0 113757355.6190287 2615906.841654701 2615906.841654701 -2802857.18027197 0 0 0 0 0 100395279.8810179 -11602499.02738929 -11602499.02738929 -8172122.548829992 0 0 0 0 0 99025699.72615254 -11920561.32795209 -11920561.32795209 -7642278.608213808 0 0 0 0 0 101764682.7412694 -11186652.7389922 -11186652.7389922 -8650583.621940726 0 0 0 0 0 103118727.6150858 -10673120.55381851 -10673120.55381851 -9063593.562065119 0 0 0 0 0 104442107.2074684 -10065183.25981331 -10065183.25981331 -9400073.427953199 0 0 0 0 0 105718437.9673982 -9368581.47246127 -9368581.47246127 -9650058.855820309 0 0 0 0 0 106933795.1759823 -8592139.661425754 -8592139.661425754 -9804520.698909855 0 0 0 0 0 108072684.6969313 -7745346.383794462 -7745346.383794462 -9855881.466470452 0 0 0 0 0 109122630.7805764 -6840048.286448137 -6840048.286448137 -9798539.758888559 0 0 0 0 0 110072481.9567479 -5888810.439011147 -5888810.439011147 -9627811.346125882 0 0 0 0 0 110912434.1479612 -4907196.984438227 -4907196.984438227 -9343442.122275127 0 0 0 0 0 111636110.2040032 -3909862.080720202 -3909862.080720202 -8946090.28370128 0 0 0 0 0 112238563.8879686 -2911664.049341744 -2911664.049341744 -8438363.595634263 0 0 0 0 0 112718602.0461594 -1925995.35425 -1925995.35425 -7824412.911036077 0 0 0 0 0 113077136.6983892 -966811.5259371792 -966811.5259371792 -7111840.126019185 0 0 0 0 0 113316042.6594281 -49100.18774984761 -49100.18774984761 -6311069.973578167 0 0 0 0 0 113440979.2766297 815908.3434034684 815908.3434034684 -5432349.108758705 0 0 0 0 0 113457517.81685 1615942.14974196 1615942.14974196 -4489725.918413751 0 0 0 0 0 97477384.6080282 -12107985.33525677 -12107985.33525677 -7944472.655297353 0 0 0 0 0 97530015.87118243 -11706577.68258522 -11706577.68258522 -6681779.880304406 0 0 0 0 0 96186435.35622835 -11834895.80012888 -11834895.80012888 -6956714.96186759 0 0 0 0 0 93964502.28468399 -10833975.71164219 -10833975.71164219 -4474011.154960481 0 0 0 0 0 96321258.96526094 -11363832.97148434 -11363832.97148434 -5802299.053706149 0 0 0 0 0 94972429.32961662 -10991923.66334985 -10991923.66334985 -5000348.579085892 0 0 0 0 0 94984500.89754151 -11485343.30711741 -11485343.30711741 -6028800.690114255 0 0 0 0 0 116784203.3202762 3156033.71066428 3156033.71066428 22897598.37624372 0 0 0 0 0 117115064.8381054 2198449.563762099 2198449.563762099 24130901.49035345 0 0 0 0 0 116471229.862361 4063198.717520097 4063198.717520097 21378214.81124578 0 0 0 0 0 116213382.2089551 4825134.822384438 4825134.822384438 19724007.10895462 0 0 0 0 0 116893311.7035841 1670580.174732766 1670580.174732766 24236251.12354462 0 0 0 0 0 116673115.5707531 261383.9743660667 261383.9743660667 24474694.40322053 0 0 0 0 0 116000079.4456111 5443878.228061869 5443878.228061869 17972234.15825056 0 0 0 0 0 115815516.1162703 5919642.912137115 5919642.912137115 16174104.76159783 0 0 0 0 0 115659312.4542636 6258485.581661878 6258485.581661878 14353066.78169016 0 0 0 0 0 115514336.2886642 6465642.708257678 6465642.708257678 12547637.22681599 0 0 0 0 0 115372177.9985706 6550570.092222723 6550570.092222723 10788708.33333028 0 0 0 0 0 115215367.824437 6525667.598387273 6525667.598387273 9129650.386197528 0 0 0 0 0 115039107.7932965 6407818.336650988 6407818.336650988 7556099.767111285 0 0 0 0 0 114851032.4220635 6207601.821578553 6207601.821578553 6052160.296931232 0 0 0 0 0 114645949.0357079 5937561.169903744 5937561.169903744 4654273.482484055 0 0 0 0 0 114416995.3985288 5612138.222528446 5612138.222528446 3371670.570693589 0 0 0 0 0 114164477.0814853 5244057.684790202 5244057.684790202 2191559.605836984 0 0 0 0 0 113891082.5599876 4845428.859159917 4845428.859159917 1127689.188760541 0 0 0 0 0 114197463.2974858 4841475.913962986 4841475.913962986 1210544.973693091 0 0 0 0 0 113973702.1550135 3926082.99980099 3926082.99980099 -1006122.77578211 0 0 0 0 0 113590871.8268245 3455613.200265399 3455613.200265399 -1785899.334375421 0 0 0 0 0 113644636.0920273 3301674.216555362 3301674.216555362 -1690259.544881919 0 0 0 0 0 113374652.2353864 2343518.86340058 2343518.86340058 -3493761.063833157 0 0 0 0 0 100105548.7223683 -11447271.55384756 -11447271.55384756 -8942319.003489502 0 0 0 0 0 98778940.66005075 -11826639.29186234 -11826639.29186234 -8472341.71968809 0 0 0 0 0 101435347.0154989 -10969815.36040156 -10969815.36040156 -9342162.463651013 0 0 0 0 0 102754345.2675626 -10396423.41354667 -10396423.41354667 -9661228.253584668 0 0 0 0 0 104048213.9999747 -9731639.131463932 -9731639.131463932 -9889444.303944858 0 0 0 0 0 105301765.7649524 -8983132.286905672 -8983132.286905672 -10018794.11984283 0 0 0 0 0 106500616.4631214 -8159803.86039772 -8159803.86039772 -10042051.17366259 0 0 0 0 0 107630339.763877 -7272691.892809572 -7272691.892809572 -9954145.602116631 0 0 0 0 0 108679092.1041084 -6333072.45892416 -6333072.45892416 -9751390.511610378 0 0 0 0 0 109634103.7697204 -5356007.078270948 -5356007.078270948 -9433914.401708357 0 0 0 0 0 110485978.4332175 -4355708.519324004 -4355708.519324004 -9003380.370497759 0 0 0 0 0 111226696.0809697 -3347697.681097105 -3347697.681097105 -8464320.107670151 0 0 0 0 0 111851816.3270741 -2345280.77836635 -2345280.77836635 -7822952.201536053 0 0 0 0 0 112360467.4729667 -1362264.153684626 -1362264.153684626 -7084909.193642848 0 0 0 0 0 112749625.145845 -413158.0441706778 -413158.0441706778 -6262248.558970422 0 0 0 0 0 113021387.5473534 488550.6746543466 488550.6746543466 -5365711.599958053 0 0 0 0 0 113178506.0497265 1331627.680112534 1331627.680112534 -4410615.895065175 0 0 0 0 0 113227872.7587321 2106438.000738076 2106438.000738076 -3407873.163304956 0 0 0 0 0 98789587.78964576 -11522259.34378903 -11522259.34378903 -7226515.929450546 0 0 0 0 0 97349074.86326954 -11686485.44948017 -11686485.44948017 -7513220.329871752 0 0 0 0 0 97416687.8905625 -11303741.41646925 -11303741.41646925 -6309742.462405201 0 0 0 0 0 94306410.28577186 -11039861.16476688 -11039861.16476688 -5195864.292361022 0 0 0 0 0 96272767.0607782 -11399944.25996478 -11399944.25996478 -6574724.727084821 0 0 0 0 0 95043121.75855669 -11119907.51405135 -11119907.51405135 -5719193.733604547 0 0 0 0 0 96168302.3440977 -11079433.25593092 -11079433.25593092 -5459840.192423367 0 0 0 0 0 116237139.0913042 3632530.025428034 3632530.025428034 22278713.02234945 0 0 0 0 0 116539644.5270738 2661688.761958133 2661688.761958133 23296995.26932228 0 0 0 0 0 116004953.4137409 4524330.910915503 4524330.910915503 21115376.87467597 0 0 0 0 0 115816427.5977387 5272553.553400464 5272553.553400464 19761138.05773404 0 0 0 0 0 116063654.8339098 1277299.746437742 1277299.746437742 23762081.18085928 0 0 0 0 0 115957934.5183021 727031.291566906 727031.291566906 23809056.02785809 0 0 0 0 0 115663167.6259105 5877801.211235915 5877801.211235915 18284123.88487317 0 0 0 0 0 115541081.2602514 6344616.198812911 6344616.198812911 16715894.99343364 0 0 0 0 0 115432966.2294185 6676470.503914814 6676470.503914814 15102963.02772599 0 0 0 0 0 115328643.3651324 6879725.861947764 6879725.861947764 13476843.30654265 0 0 0 0 0 115202495.4559647 6958326.092367954 6958326.092367954 11887622.37653402 0 0 0 0 0 115070018.8655315 6934633.652732463 6934633.652732463 10322484.4067479 0 0 0 0 0 114906294.3275771 6810626.270074106 6810626.270074106 8811998.099333424 0 0 0 0 0 114742518.9816517 6616341.600215415 6616341.600215415 7367163.759089985 0 0 0 0 0 114542955.7693173 6347088.618800643 6347088.618800643 5992658.717540573 0 0 0 0 0 114313030.0981244 6020365.076749491 6020365.076749491 4709341.032992112 0 0 0 0 0 114061039.4993052 5653110.600794007 5653110.600794007 3523709.451176046 0 0 0 0 0 113781267.6834881 5253612.320269422 5253612.320269422 2428342.313963162 0 0 0 0 0 113592636.3738063 4424635.133098276 4424635.133098276 184181.3374443841 0 0 0 0 0 113825563.0440854 4369169.829121117 4369169.829121117 274846.861911135 0 0 0 0 0 113438174.5720366 3892406.706295133 3892406.706295133 -565735.7982742223 0 0 0 0 0 113203456.6491167 2993630.324947351 2993630.324947351 -2457823.059966366 0 0 0 0 0 113174378.0439423 2804812.489144845 2804812.489144845 -2368599.148478328 0 0 0 0 0 101366821.5509253 -10875265.26450115 -10875265.26450115 -8208832.688904488 0 0 0 0 0 100077481.7865748 -11242314.50913942 -11242314.50913942 -7738810.582998922 0 0 0 0 0 102644996.9327676 -10417464.64316744 -10417464.64316744 -8620886.313501243 0 0 0 0 0 103898419.2750541 -9870936.139682788 -9870936.139682788 -8964860.52801377 0 0 0 0 0 105113971.7878426 -9240217.935285641 -9240217.935285641 -9231498.382804735 0 0 0 0 0 106277346.959146 -8532561.417002274 -8532561.417002274 -9413281.663817151 0 0 0 0 0 107375298.3244689 -7756471.305837124 -7756471.305837124 -9502200.600071976 0 0 0 0 0 108395802.3208351 -6922023.792662385 -6922023.792662385 -9492370.103514705 0 0 0 0 0 109327412.3050271 -6040106.852294064 -6040106.852294064 -9379530.664082587 0 0 0 0 0 110161999.5711052 -5123653.819669108 -5123653.819669108 -9160932.409065986 0 0 0 0 0 110891363.2201885 -4186374.256467576 -4186374.256467576 -8836789.914808825 0 0 0 0 0 111509991.7040748 -3242654.360081289 -3242654.360081289 -8409613.049722973 0 0 0 0 0 112016763.1264681 -2303056.819323322 -2303056.819323322 -7880765.502783898 0 0 0 0 0 112408117.4783141 -1383768.958048681 -1383768.958048681 -7260037.64113056 0 0 0 0 0 112689837.3091528 -493969.783500141 -493969.783500141 -6550862.155943388 0 0 0 0 0 112861434.2315699 351038.3277747146 351038.3277747146 -5765274.984880446 0 0 0 0 0 112933348.3844555 1145382.354096658 1145382.354096658 -4909591.948080374 0 0 0 0 0 112905102.05612 1874757.162944596 1874757.162944596 -3999524.133417188 0 0 0 0 0 98560941.00537367 -11441983.70238297 -11441983.70238297 -8026283.493998079 0 0 0 0 0 98579651.1085531 -11138213.39615519 -11138213.39615519 -6850078.925625456 0 0 0 0 0 97231829.53664821 -11260054.50813207 -11260054.50813207 -7131413.27668885 0 0 0 0 0 95151440.78118505 -10549609.00657859 -10549609.00657859 -4807832.771341991 0 0 0 0 0 97335791.99304816 -10900019.94893837 -10900019.94893837 -6142549.47204804 0 0 0 0 0 95978438.26770134 -10675440.83649127 -10675440.83649127 -5284777.71721651 0 0 0 0 0 96063526.14592335 -10850499.82983813 -10850499.82983813 -5871150.134027074 0 0 0 0 0 115390941.8599453 3223427.386241053 3223427.386241053 21652253.95658914 0 0 0 0 0 115700725.9073117 2286937.636837095 2286937.636837095 22848218.79376739 0 0 0 0 0 115149928.714056 4055650.575628957 4055650.575628957 20236560.96028721 0 0 0 0 0 114950012.8884598 4759778.238660024 4759778.238660024 18691737.35904291 0 0 0 0 0 115468932.4690532 1736057.343669025 1736057.343669025 23031242.26646885 0 0 0 0 0 115217009.9237259 318474.3165044081 318474.3165044081 23246542.04755213 0 0 0 0 0 114789122.4395555 5331003.55296304 5331003.55296304 17065086.44505658 0 0 0 0 0 114660385.3020209 5772649.883454278 5772649.883454278 15388869.83418397 0 0 0 0 0 114550236.2870173 6087376.709365441 6087376.709365441 13698201.3578187 0 0 0 0 0 114452269.1797923 6283361.285401249 6283361.285401249 12026645.16369528 0 0 0 0 0 114338827.8719208 6363204.690921023 6363204.690921023 10416946.34476093 0 0 0 0 0 114221040.9897717 6345482.891174521 6345482.891174521 8868192.403555611 0 0 0 0 0 114085213.9361816 6238974.638115533 6238974.638115533 7399136.792204417 0 0 0 0 0 113942540.8407838 6060688.796660524 6060688.796660524 5990615.73111562 0 0 0 0 0 113778953.8251233 5816816.594899252 5816816.594899252 4679197.206181816 0 0 0 0 0 113590220.8534498 5519765.836535213 5519765.836535213 3472782.134515201 0 0 0 0 0 113377629.2242209 5181229.562022365 5181229.562022365 2361859.666093539 0 0 0 0 0 113146724.1494838 4816691.356911094 4816691.356911094 1355269.927294354 0 0 0 0 0 113473823.1309371 4829646.738478921 4829646.738478921 1433796.342169087 0 0 0 0 0 113270669.6513529 3987458.696620045 3987458.696620045 -660289.0832312596 0 0 0 0 0 112940652.146412 3549111.478099398 3549111.478099398 -1407616.915068299 0 0 0 0 0 113026310.0278823 3418362.626715952 3418362.626715952 -1316319.595792868 0 0 0 0 0 112785141.5590991 2533117.386022562 2533117.386022562 -3045902.085465345 0 0 0 0 0 101064013.3111579 -10685438.52153274 -10685438.52153274 -8888308.530943397 0 0 0 0 0 99811846.23309928 -11109385.02493131 -11109385.02493131 -8487749.979959125 0 0 0 0 0 102308722.9163844 -10171792.41720137 -10171792.41720137 -9216781.116685789 0 0 0 0 0 103533101.0003464 -9571792.02307646 -9571792.02307646 -9464785.540045446 0 0 0 0 0 104725629.7133953 -8891519.721181978 -8891519.721181978 -9623955.563908374 0 0 0 0 0 105872092.5413634 -8139151.814795392 -8139151.814795392 -9687412.095981535 0 0 0 0 0 106959512.8682704 -7323688.287258072 -7323688.287258072 -9649915.229258064 0 0 0 0 0 107975857.4202436 -6455631.597436602 -6455631.597436602 -9507733.07432105 0 0 0 0 0 108909983.5163351 -5546882.843545884 -5546882.843545884 -9259297.993781058 0 0 0 0 0 109751822.6672434 -4610942.07306109 -4610942.07306109 -8905484.09119699 0 0 0 0 0 110493559.9320249 -3661410.510375892 -3661410.510375892 -8448894.760735618 0 0 0 0 0 111130863.8195961 -2711157.130630182 -2711157.130630182 -7894502.303069388 0 0 0 0 0 111660191.8879815 -1772177.460637823 -1772177.460637823 -7247903.993335251 0 0 0 0 0 112083283.7421136 -857630.5583175196 -857630.5583175196 -6515669.760888669 0 0 0 0 0 112394278.0465658 19758.25475227517 19758.25475227517 -5709348.450757617 0 0 0 0 0 112598372.0027202 848243.8456619286 848243.8456619286 -4839624.247473152 0 0 0 0 0 112697528.6417685 1619432.490268944 1619432.490268944 -3919949.366302863 0 0 0 0 0 112703041.1278629 2325122.619519063 2325122.619519063 -2958140.741912358 0 0 0 0 0 99794076.6248932 -10887264.00903618 -10887264.00903618 -7330550.388841753 0 0 0 0 0 98368585.38745512 -11064916.66584403 -11064916.66584403 -7600980.725617117 0 0 0 0 0 98426717.13480571 -10778091.47272693 -10778091.47272693 -6579364.90786837 0 0 0 0 0 95460658.39549094 -10700236.70226315 -10700236.70226315 -5439783.830491362 0 0 0 0 0 97271110.11413577 -10861798.44611048 -10861798.44611048 -6819907.421058497 0 0 0 0 0 97007187.9861967 -10934222.64232799 -10934222.64232799 -6245318.608648979 0 0 0 0 0 96324346.84461483 -10746479.53230722 -10746479.53230722 -5751120.585281071 0 0 0 0 0 114923129.4142114 3635846.660631066 3635846.660631066 21125436.2376103 0 0 0 0 0 115161826.6749745 2710198.374506257 2710198.374506257 22081859.3364232 0 0 0 0 0 114744517.0660263 4454403.427098179 4454403.427098179 20003211.34698503 0 0 0 0 0 114608404.6981746 5144099.526119063 5144099.526119063 18734483.07021257 0 0 0 0 0 114670834.2458001 1355394.863075871 1355394.863075871 22634932.60245558 0 0 0 0 0 114628548.2685373 723870.9821337766 723870.9821337766 22590166.45031186 0 0 0 0 0 114505450.0819463 5705215.066694604 5705215.066694604 17350346.98484782 0 0 0 0 0 114428983.2610306 6141106.788319025 6141106.788319025 15890754.94092767 0 0 0 0 0 114363302.0305482 6451585.287306031 6451585.287306031 14393199.97458693 0 0 0 0 0 114291363.5082665 6639977.854794097 6639977.854794097 12904626.7748838 0 0 0 0 0 114199017.8879015 6717892.405990157 6717892.405990157 11421877.03625526 0 0 0 0 0 114100304.0920834 6701911.043029417 6701911.043029417 9967026.558109665 0 0 0 0 0 113991871.2621733 6598825.409920147 6598825.409920147 8552363.79511784 0 0 0 0 0 113856594.1494637 6421078.836018676 6421078.836018676 7200373.320090123 0 0 0 0 0 113696086.2506788 6179702.562888691 6179702.562888691 5915114.484436385 0 0 0 0 0 113506741.0035706 5884903.43625311 5884903.43625311 4714294.549589628 0 0 0 0 0 113293904.6079243 5545869.176130789 5545869.176130789 3602970.109887891 0 0 0 0 0 113056723.7555294 5181496.205708532 5181496.205708532 2559514.17201515 0 0 0 0 0 112892693.2411525 4431783.209857489 4431783.209857489 461744.39955438 0 0 0 0 0 113147178.2507386 4388516.954984559 4388516.954984559 551514.9027651884 0 0 0 0 0 112800725.2183099 3943041.366872732 3943041.366872732 -255611.4339198669 0 0 0 0 0 112590241.0183329 3115768.707161281 3115768.707161281 -2062411.960898162 0 0 0 0 0 112618221.0555812 2956918.506623685 2956918.506623685 -1970231.699530328 0 0 0 0 0 102214738.6464123 -10159478.70906448 -10159478.70906448 -8199833.95267674 0 0 0 0 0 101008540.0309802 -10566035.20171247 -10566035.20171247 -7790250.279522594 0 0 0 0 0 103401674.6986395 -9669125.189739151 -9669125.189739151 -8547822.138005227 0 0 0 0 0 104558636.1487126 -9097547.045776417 -9097547.045776417 -8826344.630848963 0 0 0 0 0 105671776.4198095 -8453110.096690333 -8453110.096690333 -9029461.432332724 0 0 0 0 0 106728546.3810043 -7742073.44745453 -7742073.44745453 -9148738.664163984 0 0 0 0 0 107717269.9036397 -6973668.529593842 -6973668.529593842 -9179214.226179959 0 0 0 0 0 108627896.9224931 -6157097.385440854 -6157097.385440854 -9115501.231167518 0 0 0 0 0 109451884.8735729 -5303258.432755506 -5303258.432755506 -8954742.806714315 0 0 0 0 0 110182095.4355557 -4424307.033455443 -4424307.033455443 -8695791.723872192 0 0 0 0 0 110812775.7168636 -3532754.244388465 -3532754.244388465 -8339689.098972652 0 0 0 0 0 111340379.3067047 -2640585.780420607 -2640585.780420607 -7888300.222753474 0 0 0 0 0 111765724.0706991 -1757524.755572583 -1757524.755572583 -7344395.796373184 0 0 0 0 0 112079453.0356805 -902633.4997076081 -902633.4997076081 -6721786.970837833 0 0 0 0 0 112293261.471893 -79870.6481065697 -79870.6481065697 -6021077.89633885 0 0 0 0 0 112406841.8041674 697427.1688181061 697427.1688181061 -5253158.410390073 0 0 0 0 0 112434205.5425886 1426493.899992788 1426493.899992788 -4421768.83175266 0 0 0 0 0 112369821.3402956 2090648.39724523 2090648.39724523 -3546702.774752779 0 0 0 0 0 99551675.21713713 -10774381.51722071 -10774381.51722071 -8056439.005655295 0 0 0 0 0 99551048.4257383 -10536120.51559259 -10536120.51559259 -6953747.096330335 0 0 0 0 0 98244302.14192493 -10700175.98489093 -10700175.98489093 -7219946.605232539 0 0 0 0 0 96253833.80236372 -10241471.87805263 -10241471.87805263 -5107077.727728905 0 0 0 0 0 98359970.85050976 -10497818.50079048 -10497818.50079048 -6302571.408058017 0 0 0 0 0 97245232.00313285 -10489293.79777012 -10489293.79777012 -6204835.67925533 0 0 0 0 0 96811572.19715928 -10339082.9750309 -10339082.9750309 -5615833.950298715 0 0 0 0 0 114181046.3026601 3258535.043459062 3258535.043459062 20501370.18518806 0 0 0 0 0 114440064.2734948 2377288.531084417 2377288.531084417 21657008.88360985 0 0 0 0 0 113982632.3382027 4026051.2101161 4026051.2101161 19169384.04200007 0 0 0 0 0 113831508.9150029 4673561.031995221 4673561.031995221 17725106.84126615 0 0 0 0 0 114167214.8825777 1769454.275646339 1769454.275646339 21962877.34662862 0 0 0 0 0 113891474.8583497 289740.3472990731 289740.3472990731 21882922.98045728 0 0 0 0 0 113716786.2560009 5203150.754197319 5203150.754197319 16209959.36528588 0 0 0 0 0 113629366.939659 5614644.055246371 5614644.055246371 14652667.86422519 0 0 0 0 0 113552709.629377 5905578.537511921 5905578.537511921 13082857.24333689 0 0 0 0 0 113488545.9973054 6088767.189861014 6088767.189861014 11548075.35707231 0 0 0 0 0 113402442.4641947 6165788.570301131 6165788.570301131 10054515.82473187 0 0 0 0 0 113313501.8438334 6155148.311516555 6155148.311516555 8612393.307787109 0 0 0 0 0 113222108.6921176 6064116.426563028 6064116.426563028 7227118.58834724 0 0 0 0 0 113110225.7412556 5901825.403700536 5901825.403700536 5912142.377590192 0 0 0 0 0 112981186.512801 5683320.419103386 5683320.419103386 4685899.719217491 0 0 0 0 0 112822637.1577349 5412793.229782663 5412793.229782663 3551856.280888847 0 0 0 0 0 112641705.0833179 5096338.985319781 5096338.985319781 2497152.798164072 0 0 0 0 0 112453988.8522179 4768769.340506651 4768769.340506651 1550948.155011967 0 0 0 0 0 112790694.7710667 4794245.436364697 4794245.436364697 1625110.893373306 0 0 0 0 0 112610347.1847288 4020444.755211922 4020444.755211922 -346347.4302169998 0 0 0 0 0 112317363.5227191 3610100.309534058 3610100.309534058 -1071427.356922669 0 0 0 0 0 112443126.0423245 3504937.893617055 3504937.893617055 -983245.4306156434 0 0 0 0 0 112221659.8727305 2684285.972989738 2684285.972989738 -2638869.066769953 0 0 0 0 0 101905315.6233674 -9942174.576604202 -9942174.576604202 -8789667.428738449 0 0 0 0 0 100730214.7548186 -10400540.23861197 -10400540.23861197 -8455429.396701558 0 0 0 0 0 103063464.3633952 -9400214.799661968 -9400214.799661968 -9052327.029554218 0 0 0 0 0 104197821.8206906 -8782450.101775136 -8782450.101775136 -9235330.28682618 0 0 0 0 0 105293527.8135953 -8095140.043185396 -8095140.043185396 -9332394.202403473 0 0 0 0 0 106338084.0032643 -7346159.138181427 -7346159.138181427 -9337322.941834601 0 0 0 0 0 107320976.0527314 -6544711.480718224 -6544711.480718224 -9246636.849015294 0 0 0 0 0 108231663.8873134 -5700991.811477128 -5700991.811477128 -9058231.566143773 0 0 0 0 0 109061200.369188 -4826290.4485484 -4826290.4485484 -8771535.45034956 0 0 0 0 0 109801303.2599734 -3932692.147083272 -3932692.147083272 -8387914.078503547 0 0 0 0 0 110445108.2908182 -3033502.113849721 -3033502.113849721 -7912287.200132105 0 0 0 0 0 110991290.4472834 -2138587.433025172 -2138587.433025172 -7347333.991442757 0 0 0 0 0 111433812.2165486 -1262724.951332371 -1262724.951332371 -6700231.010850166 0 0 0 0 0 111779704.0997769 -413155.8649186189 -413155.8649186189 -5978160.507019237 0 0 0 0 0 112023837.2405618 395547.1357534318 395547.1357534318 -5191480.836162488 0 0 0 0 0 112171757.2147358 1158104.161063973 1158104.161063973 -4350530.859009117 0 0 0 0 0 112223831.804824 1862910.388644076 1862910.388644076 -3466196.703976386 0 0 0 0 0 112190422.2654983 2501513.114408051 2501513.114408051 -2550225.904896765 0 0 0 0 0 100688841.644693 -10254228.24860263 -10254228.24860263 -7400717.849316477 0 0 0 0 0 99337383.70796566 -10445448.38332673 -10445448.38332673 -7650969.257906944 0 0 0 0 0 99370081.71357122 -10187642.93376751 -10187642.93376751 -6570232.799282248 0 0 0 0 0 96508091.35155697 -10356806.74640306 -10356806.74640306 -5708430.709354474 0 0 0 0 0 98122235.81992383 -10317873.1704616 -10317873.1704616 -6807097.308314133 0 0 0 0 0 97417845.37889998 -10432264.22177746 -10432264.22177746 -6126903.498763037 0 0 0 0 0 113763929.208238 3628791.524750368 3628791.524750368 20064451.36268564 0 0 0 0 0 113953942.8660858 2780705.180796427 2780705.180796427 21022502.55108066 0 0 0 0 0 113631314.0990913 4371614.873916986 4371614.873916986 18982001.67945872 0 0 0 0 0 113537141.1420615 5006985.420011926 5006985.420011926 17773720.71090036 0 0 0 0 0 113470850.1340177 1402797.172982272 1402797.172982272 21455351.23629227 0 0 0 0 0 113321381.9008052 639795.8584382719 639795.8584382719 21548450.21403478 0 0 0 0 0 113475638.686148 5528664.27006534 5528664.27006534 16477134.66728703 0 0 0 0 0 113435972.3293882 5934493.379070615 5934493.379070615 15119933.88049055 0 0 0 0 0 113396716.6255093 6223521.205143915 6223521.205143915 13747518.93155426 0 0 0 0 0 113342562.3948638 6398491.377331479 6398491.377331479 12360757.46807438 0 0 0 0 0 113289430.8578648 6478130.368306176 6478130.368306176 10978665.97647605 0 0 0 0 0 113229519.4609118 6471593.391843257 6471593.391843257 9611569.133749487 0 0 0 0 0 113146034.5615477 6381631.316388061 6381631.316388061 8295865.661306216 0 0 0 0 0 113043327.438443 6221470.114224554 6221470.114224554 7032829.535547288 0 0 0 0 0 112913053.3183147 6008034.165727269 6008034.165727269 5822531.340419697 0 0 0 0 0 112755704.3364892 5740561.776703075 5740561.776703075 4706148.94917177 0 0 0 0 0 112576493.4184876 5424319.300750601 5424319.300750601 3669178.572206723 0 0 0 0 0 112384324.7609195 5089197.473766482 5089197.473766482 2658839.048117429 0 0 0 0 0 112249502.2902488 4422813.993389675 4422813.993389675 717032.9562067691 0 0 0 0 0 112501410.3492504 4382928.612123124 4382928.612123124 804270.526779818 0 0 0 0 0 112198039.0733144 3974659.301030854 3974659.301030854 18624.43291257426 0 0 0 0 0 112009647.3000519 3209435.599054226 3209435.599054226 -1702534.757286612 0 0 0 0 0 112076491.8346798 3069546.775244613 3069546.775244613 -1610532.251636895 0 0 0 0 0 102947319.7139703 -9462012.258399667 -9462012.258399667 -8150110.905435213 0 0 0 0 0 101826026.9885794 -9898868.140889077 -9898868.140889077 -7801316.10835185 0 0 0 0 0 104048775.4255204 -8944097.834845059 -8944097.834845059 -8435527.128969593 0 0 0 0 0 105113201.2252762 -8357105.684184761 -8357105.684184761 -8654731.311807632 0 0 0 0 0 106128589.023753 -7706488.738050346 -7706488.738050346 -8799435.281737044 0 0 0 0 0 107085277.0811069 -6998912.696646539 -6998912.696646539 -8862800.980337232 0 0 0 0 0 107972560.4296824 -6243526.500060123 -6243526.500060123 -8840929.37629394 0 0 0 0 0 108782936.1093926 -5449297.783932068 -5449297.783932068 -8730055.882288981 0 0 0 0 0 109508878.7520042 -4626876.009324177 -4626876.009324177 -8528790.158201974 0 0 0 0 0 110144598.5861569 -3787265.910603788 -3787265.910603788 -8236592.719148669 0 0 0 0 0 110686705.5302112 -2941336.297202619 -2941336.297202619 -7854283.207018121 0 0 0 0 0 111131448.052859 -2100429.262349209 -2100429.262349209 -7386312.927493011 0 0 0 0 0 111481868.4409629 -1275706.86200844 -1275706.86200844 -6837159.729943523 0 0 0 0 0 111733757.126009 -478132.7646500431 -478132.7646500431 -6212765.169805931 0 0 0 0 0 111889245.5289757 280382.7505730345 280382.7505730345 -5523959.603650416 0 0 0 0 0 111957129.4255894 998280.5823245229 998280.5823245229 -4771781.25598156 0 0 0 0 0 111942582.2035699 1663372.838015704 1663372.838015704 -3970495.789094067 0 0 0 0 0 111849248.8463911 2264991.78185896 2264991.78185896 -3135133.68570791 0 0 0 0 0 100440499.5429247 -10116964.54350881 -10116964.54350881 -8043121.572942073 0 0 0 0 0 100424250.2642023 -9951147.773721909 -9951147.773721909 -7015458.40991734 0 0 0 0 0 99177314.85283276 -10119465.76188184 -10119465.76188184 -7261694.479972353 0 0 0 0 0 97253371.4143343 -9902473.331131484 -9902473.331131484 -5375712.190966068 0 0 0 0 0 99159956.77302486 -9867059.790579136 -9867059.790579136 -6263274.470959675 0 0 0 0 0 97981325.07267177 -9910629.065009288 -9910629.065009288 -5871127.115933626 0 0 0 0 0 113251685.6608025 2441437.607063579 2441437.607063579 20541646.97779941 0 0 0 0 0 113068627.2518869 3264291.256122196 3264291.256122196 19428404.6346508 0 0 0 0 0 112943069.7655215 3971925.625529364 3971925.625529364 18168574.28838571 0 0 0 0 0 112836724.1359453 4573458.747394892 4573458.747394892 16820750.45243962 0 0 0 0 0 113021422.9989305 1678731.572385406 1678731.572385406 20310669.11654412 0 0 0 0 0 112779639.2650708 292893.6728905097 292893.6728905097 20682362.27356587 0 0 0 0 0 112758898.9250598 5065502.100041099 5065502.100041099 15408654.26549927 0 0 0 0 0 112702230.6491717 5445002.528867079 5445002.528867079 13950605.00656879 0 0 0 0 0 112650788.3607016 5714321.539271242 5714321.539271242 12517399.33459667 0 0 0 0 0 112602612.878726 5886677.705748623 5886677.705748623 11095376.74954084 0 0 0 0 0 112550998.5522072 5965919.855133168 5965919.855133168 9703424.532729918 0 0 0 0 0 112499102.6835997 5963687.914518622 5963687.914518622 8351701.980599689 0 0 0 0 0 112429134.2620627 5882275.250258956 5882275.250258956 7055455.348953155 0 0 0 0 0 112347021.8133933 5735164.847911737 5735164.847911737 5822201.21765199 0 0 0 0 0 112243837.0257348 5544671.27391941 5544671.27391941 4678373.705474605 0 0 0 0 0 112113683.936536 5297901.286943092 5297901.286943092 3617039.368138843 0 0 0 0 0 111929629.7502152 4984537.782366412 4984537.782366412 2599850.799370499 0 0 0 0 0 111829922.3947841 4708215.733443131 4708215.733443131 1715458.756913235 0 0 0 0 0 112147808.9844304 4738027.797904131 4738027.797904131 1781453.712836116 0 0 0 0 0 111987456.1538817 4027822.898570754 4027822.898570754 -63546.39796702391 0 0 0 0 0 111717168.5989853 3648272.496285236 3648272.496285236 -764003.1083644659 0 0 0 0 0 111886753.8000171 3569231.614449959 3569231.614449959 -677518.5005386794 0 0 0 0 0 111676508.8507528 2798022.303934793 2798022.303934793 -2271746.106438934 0 0 0 0 0 102633700.4697755 -9220284.681365043 -9220284.681365043 -8653708.253043922 0 0 0 0 0 101542760.2976548 -9709220.417610304 -9709220.417610304 -8380993.74693315 0 0 0 0 0 103713088.3205194 -8659041.020869158 -8659041.020869158 -8855730.635479221 0 0 0 0 0 104759600.5529147 -8031640.214527019 -8031640.214527019 -8979823.963948458 0 0 0 0 0 105762365.0406034 -7343836.948419339 -7343836.948419339 -9020431.645662589 0 0 0 0 0 106711396.186897 -6604396.979104532 -6604396.979104532 -8974101.620526068 0 0 0 0 0 107596874.4351532 -5821982.487359819 -5821982.487359819 -8837813.995028451 0 0 0 0 0 108410676.3870008 -5006246.343482076 -5006246.343482076 -8610136.628729759 0 0 0 0 0 109144980.3613362 -4167790.868144052 -4167790.868144052 -8291601.766636577 0 0 0 0 0 109793116.0012857 -3318079.300346973 -3318079.300346973 -7885178.579815927 0 0 0 0 0 110351096.0083847 -2467865.348594717 -2467865.348594717 -7393670.125332259 0 0 0 0 0 110818271.9573812 -1626384.3733967 -1626384.3733967 -6820955.160295651 0 0 0 0 0 111186098.2431288 -810491.1493307247 -810491.1493307247 -6180347.19649506 0 0 0 0 0 111462478.4190496 -23786.79772647853 -23786.79772647853 -5471665.822201581 0 0 0 0 0 111646632.2723404 720672.7854413865 720672.7854413865 -4708730.15605915 0 0 0 0 0 111748384.2732686 1423160.898946575 1423160.898946575 -3893709.842566594 0 0 0 0 0 111762483.7738638 2065933.083467172 2065933.083467172 -3050569.528580487 0 0 0 0 0 111699808.5821154 2640111.989109205 2640111.989109205 -2184554.56467232 0 0 0 0 0 101481503.2516293 -9634372.20991631 -9634372.20991631 -7419332.599487366 0 0 0 0 0 100191887.4998503 -9831182.206761722 -9831182.206761722 -7658793.973012086 0 0 0 0 0 100180680.4082752 -9651995.775443407 -9651995.775443407 -6674897.282172051 0 0 0 0 0 97426589.21253364 -9991460.24692337 -9991460.24692337 -6040632.278512129 0 0 0 0 0 98204329.99511886 -9990546.825585777 -9990546.825585777 -6505190.339040713 0 0 0 0 0 99013679.46171373 -9808488.812956972 -9808488.812956972 -6932006.905330694 0 0 0 0 0 112852784.5949012 2739356.082074532 2739356.082074532 19820207.25475741 0 0 0 0 0 112728659.4332643 3559854.313274896 3559854.313274896 19023977.37889169 0 0 0 0 0 112638697.9946473 4269000.39441899 4269000.39441899 18010099.29088244 0 0 0 0 0 112583596.7782303 4864515.724005355 4864515.724005355 16873344.58462485 0 0 0 0 0 112521553.8961461 995811.4324971806 995811.4324971806 21231496.51294863 0 0 0 0 0 112515682.926279 1646662.372485113 1646662.372485113 20541322.65175347 0 0 0 0 0 112284945.7867982 495636.6763653088 495636.6763653088 20527859.11078978 0 0 0 0 0 112555559.6706959 5350655.943932389 5350655.943932389 15662568.80662552 0 0 0 0 0 112531493.1716546 5723561.454791522 5723561.454791522 14422183.19273173 0 0 0 0 0 112515180.6272003 5992385.006244526 5992385.006244526 13130904.29370013 0 0 0 0 0 112487572.9110593 6159069.201603574 6159069.201603574 11833571.01316882 0 0 0 0 0 112466674.7015935 6242023.679108717 6242023.679108717 10536815.40997447 0 0 0 0 0 112428265.9234424 6242683.689582265 6242683.689582265 9266753.946060296 0 0 0 0 0 112372147.2729717 6162664.851846242 6162664.851846242 8048175.661380727 0 0 0 0 0 112292322.533963 6023230.19511903 6023230.19511903 6860105.634271649 0 0 0 0 0 112188977.1345267 5833768.268612778 5833768.268612778 5718092.660187759 0 0 0 0 0 112073205.898865 5584645.189886721 5584645.189886721 4709205.183734685 0 0 0 0 0 111884130.3300031 5306299.388446609 5306299.388446609 3738312.86340175 0 0 0 0 0 111765777.4929669 5013937.319455301 5013937.319455301 2734781.834077568 0 0 0 0 0 111712600.4822242 4428568.090410605 4428568.090410605 974059.4802219783 0 0 0 0 0 111865099.6389894 4365594.7990245 4365594.7990245 1042670.790453876 0 0 0 0 0 111643479.2323068 4005898.61669311 4005898.61669311 275299.7948753408 0 0 0 0 0 111450805.4970627 3278291.936978543 3278291.936978543 -1371643.628584886 0 0 0 0 0 111570194.0442783 3151496.994043555 3151496.994043555 -1275029.052803502 0 0 0 0 0 103580953.0419703 -8781376.417283203 -8781376.417283203 -8058907.389633737 0 0 0 0 0 102533760.882947 -9250910.263058547 -9250910.263058547 -7772483.04356354 0 0 0 0 0 104597845.8273822 -8247319.669977002 -8247319.669977002 -8291000.430845651 0 0 0 0 0 105572957.5720125 -7652053.451461829 -7652053.451461829 -8455524.024558505 0 0 0 0 0 106496591.3477349 -7000974.885482464 -7000974.885482464 -8546388.908802569 0 0 0 0 0 107359643.1287401 -6302595.788038585 -6302595.788038585 -8560076.874460131 0 0 0 0 0 108154037.5251314 -5564669.741565995 -5564669.741565995 -8492086.279317988 0 0 0 0 0 108872610.4598435 -4796559.191203845 -4796559.191203845 -8340893.279638537 0 0 0 0 0 109509616.7523875 -4007816.541137099 -4007816.541137099 -8105327.286573144 0 0 0 0 0 110060985.1902441 -3208503.210391897 -3208503.210391897 -7785849.522501387 0 0 0 0 0 110523892.2643283 -2408814.86536583 -2408814.86536583 -7384572.566023994 0 0 0 0 0 110896097.5260113 -1618563.120098192 -1618563.120098192 -6905605.629642499 0 0 0 0 0 111180037.4373446 -848922.4164525572 -848922.4164525572 -6352567.001313558 0 0 0 0 0 111374927.1984597 -108816.029658261 -108816.029658261 -5734758.477721756 0 0 0 0 0 111484569.3468368 593974.4724486429 593974.4724486429 -5055448.314044167 0 0 0 0 0 111512622.5507103 1253879.81758805 1253879.81758805 -4326077.440877442 0 0 0 0 0 111467466.6409587 1861618.267559967 1861618.267559967 -3555331.755478461 0 0 0 0 0 111362442.4743139 2410608.595138084 2410608.595138084 -2757475.074361079 0 0 0 0 0 101225066.8670454 -9474155.777467005 -9474155.777467005 -7991930.179739015 0 0 0 0 0 101178142.5159279 -9381669.526760427 -9381669.526760427 -7061984.150855228 0 0 0 0 0 99979579.35943502 -9547603.577586193 -9547603.577586193 -7291376.610679675 0 0 0 0 0 98172222.39015962 -9510505.569549156 -9510505.569549156 -5606608.884241336 0 0 0 0 0 99085035.44186854 -9472057.842461724 -9472057.842461724 -6028027.73925302 0 0 0 0 0 100034957.2695461 -9335423.341973374 -9335423.341973374 -6389319.866033394 0 0 0 0 0 112298865.4395299 2490376.233356979 2490376.233356979 19490331.98823027 0 0 0 0 0 112149458.6317925 3238341.222816193 3238341.222816193 18409496.07045094 0 0 0 0 0 112029348.644582 3903583.858293177 3903583.858293177 17234824.08018414 0 0 0 0 0 111951566.7397659 4465980.571106563 4465980.571106563 15977364.782241 0 0 0 0 0 112042009.3467147 1032785.822654856 1032785.822654856 19637408.89997119 0 0 0 0 0 112056700.7364953 1898205.334730954 1898205.334730954 19318770.60755901 0 0 0 0 0 111796552.9817052 264454.0858549078 264454.0858549078 20217126.34134329 0 0 0 0 0 111900381.0261272 4920363.89496528 4920363.89496528 14652156.9020605 0 0 0 0 0 111860388.1890863 5269826.497895597 5269826.497895597 13319888.98721071 0 0 0 0 0 111831262.9003747 5522632.386450308 5522632.386450308 11983838.24419997 0 0 0 0 0 111804516.907936 5684165.431966283 5684165.431966283 10664401.49596093 0 0 0 0 0 111784231.1454614 5766553.784419588 5766553.784419588 9355229.954207515 0 0 0 0 0 111752501.1828315 5771895.348596553 5771895.348596553 8097058.14808287 0 0 0 0 0 111714168.1920362 5698940.356238235 5698940.356238235 6884283.188275538 0 0 0 0 0 111626357.7157495 5561559.203999375 5561559.203999375 5718790.442159253 0 0 0 0 0 111542673.6339624 5393129.004698583 5393129.004698583 4646619.961062591 0 0 0 0 0 111506922.72739 5193201.72264186 5193201.72264186 3673807.535110176 0 0 0 0 0 111271520.778757 4875882.731985676 4875882.731985676 2750055.829234643 0 0 0 0 0 111191823.8735389 4618384.642144028 4618384.642144028 1833922.782953107 0 0 0 0 0 111493869.7481757 4649441.352543554 4649441.352543554 1879143.200133044 0 0 0 0 0 111332278.0785196 3998894.324442535 3998894.324442535 192067.4294292576 0 0 0 0 0 111139747.8139798 3682440.474601537 3682440.474601537 -473315.481120258 0 0 0 0 0 111369275.9087 3604898.171462771 3604898.171462771 -371597.4730336597 0 0 0 0 0 111150311.7168861 2870727.65630039 2870727.65630039 -1949049.259578293 0 0 0 0 0 103267898.429365 -8524004.942886857 -8524004.942886857 -8486672.995573824 0 0 0 0 0 102242176.6529682 -9033679.955455247 -9033679.955455247 -8270243.103061272 0 0 0 0 0 104267835.1647334 -7951367.045076592 -7951367.045076592 -8632736.987846613 0 0 0 0 0 105229177.1043775 -7320316.087967499 -7320316.087967499 -8703639.353509529 0 0 0 0 0 106144321.1771885 -6638247.642583908 -6638247.642583908 -8694722.221430622 0 0 0 0 0 107003666.0509311 -5913223.689269516 -5913223.689269516 -8603572.575030509 0 0 0 0 0 107799366.7153018 -5153535.29464855 -5153535.29464855 -8427841.117548652 0 0 0 0 0 108524082.6530399 -4368527.428936578 -4368527.428936578 -8167374.08055441 0 0 0 0 0 109171707.6376617 -3568062.296300379 -3568062.296300379 -7823488.896348103 0 0 0 0 0 109737678.8253512 -2762001.947548899 -2762001.947548899 -7398762.338869583 0 0 0 0 0 110218535.9484725 -1960605.868895088 -1960605.868895088 -6897563.29493868 0 0 0 0 0 110612189.4831108 -1174021.472190503 -1174021.472190503 -6325303.501309093 0 0 0 0 0 110918466.854346 -412010.7614548832 -412010.7614548832 -5689643.520006768 0 0 0 0 0 111135782.016949 314512.474224276 314512.474224276 -4999707.565126479 0 0 0 0 0 111272793.3672929 1002611.673302553 1002611.673302553 -4255429.732899007 0 0 0 0 0 111329262.1234051 1644704.740722222 1644704.740722222 -3474555.355949173 0 0 0 0 0 111310283.2417881 2230237.849013733 2230237.849013733 -2673586.957100098 0 0 0 0 0 111227062.5810814 2742217.878483471 2742217.878483471 -1850893.022302992 0 0 0 0 0 102159645.2880595 -9039052.702670101 -9039052.702670101 -7410630.227617274 0 0 0 0 0 100928501.7033169 -9226990.644134089 -9226990.644134089 -7620319.945513028 0 0 0 0 0 100933642.7140172 -9102181.503221788 -9102181.503221788 -6752796.919110239 0 0 0 0 0 98302319.94496711 -9563713.887966696 -9563713.887966696 -6258131.848260587 0 0 0 0 0 99087195.13737252 -9455788.872519754 -9455788.872519754 -6631235.893010509 0 0 0 0 0 99881968.60341841 -9259125.919995442 -9259125.919995442 -6958816.760865583 0 0 0 0 0 111927602.4741514 2772525.660123676 2772525.660123676 18921597.49344039 0 0 0 0 0 111827891.8302519 3516931.330679114 3516931.330679114 18053782.36770999 0 0 0 0 0 111762837.9703632 4168205.348630161 4168205.348630161 17090383.14650407 0 0 0 0 0 111734778.4841955 4721314.129533392 4721314.129533392 16030699.75499006 0 0 0 0 0 111649722.4941016 1292401.548390963 1292401.548390963 20032190.49925943 0 0 0 0 0 111614745.4389839 1803338.610496592 1803338.610496592 19327543.23965755 0 0 0 0 0 111340785.2195995 557454.5098487516 557454.5098487516 19511881.98904886 0 0 0 0 0 111720710.3232636 5169734.747935503 5169734.747935503 14918764.6787752 0 0 0 0 0 111712833.3425778 5514191.279411795 5514191.279411795 13748955.62232264 0 0 0 0 0 111714279.0887241 5765692.404918863 5765692.404918863 12550925.65056951 0 0 0 0 0 111718016.7054254 5927195.392987258 5927195.392987258 11333516.46469901 0 0 0 0 0 111714675.5854881 6010836.00225819 6010836.00225819 10119032.66683545 0 0 0 0 0 111698602.9006413 6015356.816363689 6015356.816363689 8936856.355649624 0 0 0 0 0 111658843.4643518 5959771.894317004 5959771.894317004 7795698.284309088 0 0 0 0 0 111578277.9982331 5827675.396234938 5827675.396234938 6688277.489180529 0 0 0 0 0 111501783.1473615 5670155.029140946 5670155.029140946 5633690.525495868 0 0 0 0 0 111284669.3039181 5414114.729880696 5414114.729880696 4758540.860975457 0 0 0 0 0 111360908.2865711 5173074.602606171 5173074.602606171 3451450.859601766 0 0 0 0 0 111294522.9134955 4866396.848337006 4866396.848337006 2517737.66417198 0 0 0 0 0 111245095.7050492 4499451.504823294 4499451.504823294 1256084.088551092 0 0 0 0 0 111312441.6690005 4349580.607750854 4349580.607750854 1264323.649688272 0 0 0 0 0 111124845.1653059 4011739.328319042 4011739.328319042 565773.4821655111 0 0 0 0 0 110968643.4642333 3320280.126562745 3320280.126562745 -1070201.487677616 0 0 0 0 0 111063857.582016 3224611.153205281 3224611.153205281 -990161.9803988321 0 0 0 0 0 104125411.3305159 -8124391.427764491 -8124391.427764491 -7937373.218066917 0 0 0 0 0 103154532.7096118 -8610085.913245944 -8610085.913245944 -7694382.623486117 0 0 0 0 0 105058643.9611972 -7581355.800643396 -7581355.800643396 -8119111.065028462 0 0 0 0 0 105949374.2782328 -6982822.041698291 -6982822.041698291 -8232809.112902681 0 0 0 0 0 106786851.9166419 -6337395.927173303 -6337395.927173303 -8276201.883127708 0 0 0 0 0 107563427.5689929 -5652444.439757728 -5652444.439757728 -8245300.724592354 0 0 0 0 0 108272010.7367677 -4935899.130461941 -4935899.130461941 -8137684.595113126 0 0 0 0 0 108907027.0505983 -4196337.309123813 -4196337.309123813 -7951890.078170353 0 0 0 0 0 109464068.4078801 -3442682.091179577 -3442682.091179577 -7687710.924381682 0 0 0 0 0 109939898.4227367 -2684087.904096425 -2684087.904096425 -7346453.108038053 0 0 0 0 0 110332563.3121824 -1929945.386669717 -1929945.386669717 -6930778.947701865 0 0 0 0 0 110642096.8780394 -1189367.191792359 -1189367.191792359 -6444590.008153131 0 0 0 0 0 110868999.5006756 -471494.0715907922 -471494.0715907922 -5893132.721375792 0 0 0 0 0 111015804.7112262 215057.2856948791 215057.2856948791 -5282179.287180661 0 0 0 0 0 111082301.686335 862228.0770705619 862228.0770705619 -4621511.200539579 0 0 0 0 0 111076496.4902919 1468585.741941505 1468585.741941505 -3912028.046680802 0 0 0 0 0 111001229.8141826 2021645.66662103 2021645.66662103 -3176376.242628341 0 0 0 0 0 110865295.159198 2497638.97845995 2497638.97845995 -2458435.308511347 0 0 0 0 0 101884316.2987523 -8838327.264931353 -8838327.264931353 -7901351.613899412 0 0 0 0 0 101821704.5080744 -8812437.392031845 -8812437.392031845 -7075053.299167162 0 0 0 0 0 100729563.7248389 -8981033.544365332 -8981033.544365332 -7250253.827343017 0 0 0 0 0 99093051.92008986 -9080731.305532547 -9080731.305532547 -5775416.912727638 0 0 0 0 0 99880168.26181744 -9020134.902063457 -9020134.902063457 -6183505.294114028 0 0 0 0 0 100751108.8057003 -8871948.774029674 -8871948.774029674 -6474072.463732869 0 0 0 0 0 111442551.3707636 2518921.389349145 2518921.389349145 18479721.8407068 0 0 0 0 0 111299577.8792448 3219256.54930683 3219256.54930683 17472570.09729595 0 0 0 0 0 111209863.2924463 3832357.715085824 3832357.715085824 16367112.19079668 0 0 0 0 0 111157203.8431638 4349743.034582341 4349743.034582341 15177158.93969159 0 0 0 0 0 111246894.9876192 1180905.915133042 1180905.915133042 18749419.40627428 0 0 0 0 0 111215956.8559083 2075901.12063954 2075901.12063954 18862444.2396787 0 0 0 0 0 110862223.99776 259808.855290595 259808.855290595 18868424.18619861 0 0 0 0 0 111118316.7177787 4767326.163826579 4767326.163826579 13965536.52966898 0 0 0 0 0 111093063.4398591 5091405.995779812 5091405.995779812 12722350.03228067 0 0 0 0 0 111086151.9265781 5332085.110689153 5332085.110689153 11479931.61400308 0 0 0 0 0 111084566.8323595 5486002.153526987 5486002.153526987 10237342.31741092 0 0 0 0 0 111074138.8661975 5565844.063127048 5565844.063127048 9016250.058580577 0 0 0 0 0 111123848.5177918 5599341.741514645 5599341.741514645 7868170.003206329 0 0 0 0 0 111040520.8428061 5530851.004831061 5530851.004831061 6710649.773782869 0 0 0 0 0 110948594.4847101 5395284.108038651 5395284.108038651 5624953.03332013 0 0 0 0 0 110957835.1531071 5288778.63429899 5288778.63429899 4683693.17322324 0 0 0 0 0 111135166.237059 5342886.420794118 5342886.420794118 4300575.258520347 0 0 0 0 0 110671926.9770354 4978097.389211823 4978097.389211823 3806682.976170595 0 0 0 0 0 110738984.5224488 4747972.699787911 4747972.699787911 2687751.450353761 0 0 0 0 0 110739948.8373483 4487786.119431286 4487786.119431286 1900746.115347822 0 0 0 0 0 110805337.3834719 4027477.510288793 4027477.510288793 475601.3273812145 0 0 0 0 0 110692431.5018852 3713329.691018452 3713329.691018452 -198379.1857407265 0 0 0 0 0 110731093.9458113 3595942.037054911 3595942.037054911 -151086.7964482645 0 0 0 0 0 110562964.5178675 2888583.9253518 2888583.9253518 -1688486.52020379 0 0 0 0 0 102861246.64878 -8377399.754063881 -8377399.754063881 -8130221.413900641 0 0 0 0 0 103816481.1055421 -7856867.420509486 -7856867.420509486 -8294191.929423318 0 0 0 0 0 104735050.4859242 -7278186.297059881 -7278186.297059881 -8389390.604933746 0 0 0 0 0 105616910.1131705 -6649318.436931452 -6649318.436931452 -8412184.386452453 0 0 0 0 0 106449552.9869135 -5977965.089934045 -5977965.089934045 -8359804.69516726 0 0 0 0 0 107225792.876887 -5271062.593479232 -5271062.593479232 -8229388.34059684 0 0 0 0 0 107938510.8565351 -4537097.726823285 -4537097.726823285 -8020335.080754244 0 0 0 0 0 108581893.5738675 -3784724.10356904 -3784724.10356904 -7733057.77516102 0 0 0 0 0 109151104.558631 -3022814.184817037 -3022814.184817037 -7369205.120179382 0 0 0 0 0 109642553.0614446 -2260636.761859369 -2260636.761859369 -6931903.17197688 0 0 0 0 0 110053775.1396798 -1507544.486399943 -1507544.486399943 -6426127.552503962 0 0 0 0 0 110384220.9746284 -772292.5898610533 -772292.5898610533 -5857039.533185799 0 0 0 0 0 110633445.8772211 -64083.37058421647 -64083.37058421647 -5231804.472420173 0 0 0 0 0 110804248.1989844 609315.8431389364 609315.8431389364 -4558097.328475864 0 0 0 0 0 110899196.5634557 1239295.025401613 1239295.025401613 -3834433.062015014 0 0 0 0 0 110921702.6215475 1824204.507030907 1824204.507030907 -3076608.897451248 0 0 0 0 0 110893702.8815965 2355519.249960832 2355519.249960832 -2340038.663114097 0 0 0 0 0 110823602.5304394 2823261.492847552 2823261.492847552 -1578649.157845209 0 0 0 0 0 102763116.8827546 -8431340.539947677 -8431340.539947677 -7351069.358121756 0 0 0 0 0 101552914.8668977 -8625492.22947472 -8625492.22947472 -7561417.954327529 0 0 0 0 0 101542099.2731862 -8609332.186542306 -8609332.186542306 -6825189.09751486 0 0 0 0 0 99154531.6157074 -9102319.096044146 -9102319.096044146 -6394479.580517205 0 0 0 0 0 99873096.83795501 -8995811.144061681 -8995811.144061681 -6702436.144132907 0 0 0 0 0 100536113.2493305 -8728527.148598155 -8728527.148598155 -6938306.897390155 0 0 0 0 0 111094525.2219122 2789241.114506038 2789241.114506038 17982189.56409823 0 0 0 0 0 111013748.3094403 3468182.420257745 3468182.420257745 17159322.82841182 0 0 0 0 0 110976246.244207 4067017.702063187 4067017.702063187 16240007.18596192 0 0 0 0 0 110960705.3818101 4574649.153716022 4574649.153716022 15258996.41201831 0 0 0 0 0 110803909.4738578 1208514.909976949 1208514.909976949 19052188.08132866 0 0 0 0 0 110769430.6679399 1817922.206226822 1817922.206226822 18351675.70095488 0 0 0 0 0 110466079.2693963 472851.7330533216 472851.7330533216 18628593.43650897 0 0 0 0 0 110959611.9113642 4987000.480549276 4987000.480549276 14206315.36661592 0 0 0 0 0 110971127.809582 5307026.528561972 5307026.528561972 13121771.48632015 0 0 0 0 0 110994918.9503229 5546594.124755709 5546594.124755709 11987139.59271042 0 0 0 0 0 111013321.9693795 5700992.23742513 5700992.23742513 10858729.34525917 0 0 0 0 0 110982575.4232011 5795798.056843303 5795798.056843303 9601429.132733636 0 0 0 0 0 111088479.7293176 5811729.319153607 5811729.319153607 8504949.551543558 0 0 0 0 0 111020584.4090029 5711815.737627601 5711815.737627601 7586579.875993937 0 0 0 0 0 110971000.9255124 5628019.070698054 5628019.070698054 6599131.753294998 0 0 0 0 0 111074676.0139968 5541440.924763346 5541440.924763346 5562211.983728615 0 0 0 0 0 110455677.3743087 5143540.169961154 5143540.169961154 4841046.534501047 0 0 0 0 0 110764982.8801667 5151855.8775251 5151855.8775251 4037281.709980399 0 0 0 0 0 110849827.560494 4947676.578362767 4947676.578362767 3123140.443571847 0 0 0 0 0 110854253.4591331 4660326.728352913 4660326.728352913 2185017.004348181 0 0 0 0 0 110868782.4298328 4347629.433466707 4347629.433466707 1384219.308459654 0 0 0 0 0 110554795.5042585 3955531.348609127 3955531.348609127 665465.906148597 0 0 0 0 0 110597324.6509493 3495823.958900322 3495823.958900322 -525770.0373457143 0 0 0 0 0 110742244.1448815 3221482.339578555 3221482.339578555 -935632.4019458868 0 0 0 0 0 103692637.135261 -7990020.797259302 -7990020.797259302 -7598084.120450277 0 0 0 0 0 104583259.8927774 -7497579.775119502 -7497579.775119502 -7793717.539972891 0 0 0 0 0 105441208.2154026 -6946281.117192367 -6946281.117192367 -7923691.946849808 0 0 0 0 0 106251923.037795 -6350749.364642993 -6350749.364642993 -7992700.442152822 0 0 0 0 0 107009186.6021504 -5715497.483615885 -5715497.483615885 -7993444.373319061 0 0 0 0 0 107705769.9947335 -5047704.439494248 -5047704.439494248 -7923591.22576653 0 0 0 0 0 108336077.8404225 -4355074.672799742 -4355074.672799742 -7781267.003115552 0 0 0 0 0 108895320.2029313 -3645792.958369453 -3645792.958369453 -7566195.37761287 0 0 0 0 0 109380269.0047363 -2927878.710372881 -2927878.710372881 -7278520.44728586 0 0 0 0 0 109788461.4312805 -2210000.120115134 -2210000.120115134 -6920359.194540011 0 0 0 0 0 110119585.59787 -1500248.087325966 -1500248.087325966 -6494410.819411903 0 0 0 0 0 110373744.8095171 -807095.8069603941 -807095.8069603941 -6005120.347772762 0 0 0 0 0 110552373.5112858 -138717.3079242768 -138717.3079242768 -5457726.222143753 0 0 0 0 0 110658798.4923721 497524.831989379 497524.831989379 -4859054.69555035 0 0 0 0 0 110692435.9615455 1089470.111733828 1089470.111733828 -4219387.308068105 0 0 0 0 0 110665006.400777 1641845.642422464 1641845.642422464 -3532926.547428581 0 0 0 0 0 110600650.5788773 2156771.040502168 2156771.040502168 -2830461.548581209 0 0 0 0 0 110405463.4384031 2551291.775265168 2551291.775265168 -2217019.250225054 0 0 0 0 0 102490424.3970501 -8221566.470014485 -8221566.470014485 -7786388.476745973 0 0 0 0 0 102401458.6894194 -8233256.406883467 -8233256.406883467 -7064346.285817622 0 0 0 0 0 101313178.6258766 -8397428.139731452 -8397428.139731452 -7096001.348971223 0 0 0 0 0 99903929.38036272 -8641313.293458 -8641313.293458 -5916960.26520472 0 0 0 0 0 100476212.5582583 -8578674.040663719 -8578674.040663719 -6302142.756214214 0 0 0 0 0 100988730.1037815 -8547391.206954148 -8547391.206954148 -6655708.115400724 0 0 0 0 0 110615632.4160274 2538472.761837653 2538472.761837653 17545531.24255263 0 0 0 0 0 110524842.8819894 3187546.350288373 3187546.350288373 16597089.47222166 0 0 0 0 0 110469895.5124441 3752847.433675833 3752847.433675833 15548438.31823124 0 0 0 0 0 110433837.6407711 4229804.589453753 4229804.589453753 14451674.19904497 0 0 0 0 0 110403627.0313874 1024459.987551819 1024459.987551819 17903349.46607827 0 0 0 0 0 110435877.2569843 2045343.488067872 2045343.488067872 17751746.04426684 0 0 0 0 0 110099274.8727071 241059.0691459626 241059.0691459626 18103794.33140348 0 0 0 0 0 110410464.7080666 4617632.557656233 4617632.557656233 13317736.52199581 0 0 0 0 0 110402029.6525961 4916853.695201443 4916853.695201443 12167428.58810968 0 0 0 0 0 110423881.1228222 5149492.380591624 5149492.380591624 11001855.58211839 0 0 0 0 0 110438145.8181456 5291460.842719585 5291460.842719585 9821293.423828296 0 0 0 0 0 110494632.7602713 5419035.078160235 5419035.078160235 8820140.496760359 0 0 0 0 0 110513636.7122416 5433338.776296805 5433338.776296805 7519837.671320478 0 0 0 0 0 110505766.2133513 5370892.440496728 5370892.440496728 6532670.283352631 0 0 0 0 0 110402641.8708512 5228030.524474543 5228030.524474543 5625027.035496352 0 0 0 0 0 110525713.0524301 5289713.794853393 5289713.794853393 4970020.923733758 0 0 0 0 0 110107250.7290236 4969308.617482219 4969308.617482219 4442198.33221331 0 0 0 0 0 110223842.2628784 4783297.076619781 4783297.076619781 3454366.990696863 0 0 0 0 0 110272137.2473642 4542825.388875873 4542825.388875873 2472712.419863665 0 0 0 0 0 110308777.4833075 4250659.80487309 4250659.80487309 1495212.946920534 0 0 0 0 0 110354182.0251596 4003975.409030562 4003975.409030562 587549.6781768027 0 0 0 0 0 110404576.7360752 3855425.946206662 3855425.946206662 301595.4752898047 0 0 0 0 0 110127372.6869953 3197215.652459467 3197215.652459467 -805500.8252732928 0 0 0 0 0 110165972.779326 3637562.450641603 3637562.450641603 177570.7790409717 0 0 0 0 0 110118716.5065176 2847296.93770936 2847296.93770936 -1556132.758812223 0 0 0 0 0 103407327.3705574 -7750866.793521106 -7750866.793521106 -7963462.469230657 0 0 0 0 0 104278640.1004022 -7219217.549895498 -7219217.549895498 -8079295.665115382 0 0 0 0 0 105127581.4400518 -6640315.945823766 -6640315.945823766 -8129304.410079551 0 0 0 0 0 105932763.0748219 -6019041.88443299 -6019041.88443299 -8109961.17668327 0 0 0 0 0 106688413.3511508 -5361897.914764474 -5361897.914764474 -8019018.642370088 0 0 0 0 0 107387199.0968925 -4676380.024547801 -4676380.024547801 -7855334.82071863 0 0 0 0 0 108023446.2279253 -3970204.001621488 -3970204.001621488 -7618426.714836834 0 0 0 0 0 108592607.4014415 -3251476.068434326 -3251476.068434326 -7309324.887100586 0 0 0 0 0 109090807.1050462 -2528376.89035972 -2528376.89035972 -6930190.087916799 0 0 0 0 0 109515497.3759224 -1809380.367029867 -1809380.367029867 -6484760.549463741 0 0 0 0 0 109865278.3717012 -1102718.056470096 -1102718.056470096 -5978264.564544383 0 0 0 0 0 110140143.4528341 -416325.7847371775 -416325.7847371775 -5415227.001868919 0 0 0 0 0 110340366.1194246 241760.2027905035 241760.2027905035 -4803507.996480663 0 0 0 0 0 110469882.9589959 865814.7674081945 865814.7674081945 -4156561.634573676 0 0 0 0 0 110528339.2539929 1439377.96073997 1439377.96073997 -3459209.727343587 0 0 0 0 0 110511838.654157 1953252.139979622 1953252.139979622 -2746733.73416765 0 0 0 0 0 110423733.5152419 2431936.74725431 2431936.74725431 -2133088.184010714 0 0 0 0 0 110469123.252849 2805118.187400324 2805118.187400324 -1491459.774896211 0 0 0 0 0 103296979.4833309 -7841775.097435782 -7841775.097435782 -7250860.79583515 0 0 0 0 0 102173388.6583227 -8063234.855984865 -8063234.855984865 -7412789.965887967 0 0 0 0 0 101820477.696565 -8212146.597431325 -8212146.597431325 -6825954.681902825 0 0 0 0 0 99992135.25951251 -8658845.38940715 -8658845.38940715 -6468418.466570421 0 0 0 0 0 100944933.8971824 -8253399.58025639 -8253399.58025639 -6730936.165476888 0 0 0 0 0 110325506.2161227 2759904.569627034 2759904.569627034 17074748.62873358 0 0 0 0 0 110278986.2317834 3399480.314085106 3399480.314085106 16308934.71832754 0 0 0 0 0 110263766.9953696 3957501.913959044 3957501.913959044 15451544.68591366 0 0 0 0 0 110260509.3833621 4428015.740199635 4428015.740199635 14514935.43317661 0 0 0 0 0 110202387.0536709 1240701.013144454 1240701.013144454 18249838.17008641 0 0 0 0 0 110193915.8026072 1078732.751199279 1078732.751199279 18108403.48697984 0 0 0 0 0 110043811.9277994 1862763.626169987 1862763.626169987 17485883.51524197 0 0 0 0 0 109762403.9167733 445115.812612231 445115.812612231 17735033.02101003 0 0 0 0 0 110271940.2420829 4810035.925218107 4810035.925218107 13542251.49871473 0 0 0 0 0 110297151.5638231 5113113.077440456 5113113.077440456 12520640.37458619 0 0 0 0 0 110343715.7772273 5336663.368168652 5336663.368168652 11450383.63005586 0 0 0 0 0 110284495.0587811 5474818.844076156 5474818.844076156 10379904.28819692 0 0 0 0 0 110391491.4389032 5466028.341271541 5466028.341271541 8470512.074181687 0 0 0 0 0 110419796.2974637 5527968.315128541 5527968.315128541 8505318.602825645 0 0 0 0 0 110339190.4423521 5509079.549976313 5509079.549976313 7608162.903329037 0 0 0 0 0 110449504.5662898 5427958.31980601 5427958.31980601 6030104.20255839 0 0 0 0 0 109967852.7795953 5096660.042365707 5096660.042365707 5451457.554066442 0 0 0 0 0 110175882.1081591 5127927.674684052 5127927.674684052 4632511.863843556 0 0 0 0 0 110309196.8892348 4977671.070560702 4977671.070560702 3740658.502005768 0 0 0 0 0 110383769.8365916 4761145.033052496 4761145.033052496 2856752.095138125 0 0 0 0 0 110479216.7936015 4482409.085863314 4482409.085863314 2048688.64371197 0 0 0 0 0 110445101.9147644 4197973.738671427 4197973.738671427 1265814.293616089 0 0 0 0 0 109921975.6612152 3827290.923272917 3827290.923272917 708668.5408470001 0 0 0 0 0 110430468.7388707 3465544.889457531 3465544.889457531 -232613.7614476667 0 0 0 0 0 109808152.4601028 3413960.078145388 3413960.078145388 -309950.5236829083 0 0 0 0 0 110284290.4576638 3119794.17110788 3119794.17110788 -876617.1838914707 0 0 0 0 0 104140959.2745045 -7405156.724103909 -7405156.724103909 -7475690.1953596 0 0 0 0 0 104969388.3043042 -6893706.762840641 -6893706.762840641 -7619829.087943215 0 0 0 0 0 105753164.6124884 -6345225.598598779 -6345225.598598779 -7711796.076206105 0 0 0 0 0 106489771.117406 -5756509.602760805 -5756509.602760805 -7739262.454218294 0 0 0 0 0 107172230.5482248 -5134922.260347435 -5134922.260347435 -7702118.813241804 0 0 0 0 0 107795303.5628752 -4487019.499023432 -4487019.499023432 -7598026.379941769 0 0 0 0 0 108354180.7939495 -3820159.082210664 -3820159.082210664 -7426022.472110187 0 0 0 0 0 108844909.978814 -3142016.223462093 -3142016.223462093 -7186255.135421855 0 0 0 0 0 109265226.650911 -2460062.458870352 -2460062.458870352 -6879738.867355476 0 0 0 0 0 109613596.1379512 -1782054.461409614 -1782054.461409614 -6508615.923992882 0 0 0 0 0 109890910.3485304 -1114824.1984953 -1114824.1984953 -6075759.577505642 0 0 0 0 0 110096439.7530635 -467156.9160073065 -467156.9160073065 -5586902.042933309 0 0 0 0 0 110231866.4364067 154584.5470837876 154584.5470837876 -5046432.252445319 0 0 0 0 0 110299979.074087 744768.7858740529 744768.7858740529 -4462342.001184396 0 0 0 0 0 110271874.7972863 1267771.768155558 1267771.768155558 -3869381.220356428 0 0 0 0 0 110275101.9543812 1781930.71300488 1781930.71300488 -3208396.151547816 0 0 0 0 0 110375721.3466929 2397385.470300001 2397385.470300001 -2344680.30028597 0 0 0 0 0 109913536.1240175 2447463.586038283 2447463.586038283 -2056714.266915704 0 0 0 0 0 103024044.4454568 -7628222.222764423 -7628222.222764423 -7646289.925378094 0 0 0 0 0 102924182.3867283 -7643221.014048672 -7643221.014048672 -6919252.202749299 0 0 0 0 0 101918672.1548393 -7803141.509718942 -7803141.509718942 -6651714.445243228 0 0 0 0 0 100691913.8391551 -8191600.844002421 -8191600.844002421 -6007033.332332099 0 0 0 0 0 101547729.1339643 -7994480.342282183 -7994480.342282183 -6348911.227047428 0 0 0 0 0 109910316.7829245 2538668.781349381 2538668.781349381 16677972.47833659 0 0 0 0 0 109844962.5087295 3141678.795795753 3141678.795795753 15768980.34714539 0 0 0 0 0 109806620.9088893 3666941.45259637 3666941.45259637 14794724.46672128 0 0 0 0 0 109779341.2035777 4110585.161403197 4110585.161403197 13769624.41882726 0 0 0 0 0 109830472.8616345 1484930.225611094 1484930.225611094 17446526.67189503 0 0 0 0 0 109773130.9216109 834864.2770586816 834864.2770586816 17617084.34472453 0 0 0 0 0 109720759.4227294 2072452.953927355 2072452.953927355 16810553.9598525 0 0 0 0 0 109410111.3451312 228539.0759580094 228539.0759580094 17281647.91266065 0 0 0 0 0 109781941.5149555 4474716.799655292 4474716.799655292 12725959.49587149 0 0 0 0 0 109779500.6651678 4759362.5433177 4759362.5433177 11657951.08552936 0 0 0 0 0 109864800.9488381 4989463.835513092 4989463.835513092 10531658.99071295 0 0 0 0 0 109810936.117182 5159058.804344725 5159058.804344725 9350328.7525979 0 0 0 0 0 109895558.8936817 5293982.481010329 5293982.481010329 9417768.591329599 0 0 0 0 0 110023710.9789862 5273153.835793967 5273153.835793967 7519810.065848703 0 0 0 0 0 110060711.3234092 5362552.578108474 5362552.578108474 6853392.353262085 0 0 0 0 0 109836747.4512508 5173231.707348426 5173231.707348426 6582464.859815612 0 0 0 0 0 110000748.600894 5242062.290113917 5242062.290113917 5564993.392940538 0 0 0 0 0 109696806.0181417 4786994.843498301 4786994.843498301 4081681.576502327 0 0 0 0 0 109569687.8307958 4919424.760448796 4919424.760448796 5030686.555297687 0 0 0 0 0 109790149.0141033 4606592.577119027 4606592.577119027 3143253.36631752 0 0 0 0 0 109855328.1424473 4384446.343242574 4384446.343242574 2249520.865787494 0 0 0 0 0 109900933.4621165 4105124.112512555 4105124.112512555 1440832.644427184 0 0 0 0 0 109790473.2115844 3091754.807418501 3091754.807418501 -843451.9876328422 0 0 0 0 0 109677964.4061972 2725494.386899908 2725494.386899908 -1529711.048033333 0 0 0 0 0 103848511.6534072 -7143404.066224659 -7143404.066224659 -7777263.712910597 0 0 0 0 0 104673825.2146632 -6613026.947862005 -6613026.947862005 -7848533.148726172 0 0 0 0 0 105451264.8621785 -6039227.472438645 -6039227.472438645 -7857322.219594633 0 0 0 0 0 106185261.7589219 -5429085.666054966 -5429085.666054966 -7800506.10042428 0 0 0 0 0 106868530.9912968 -4789394.947833116 -4789394.947833116 -7676370.208215296 0 0 0 0 0 107495934.4710519 -4127216.245159023 -4127216.245159023 -7484244.970508398 0 0 0 0 0 108062166.5329191 -3450133.001424786 -3450133.001424786 -7224515.601963129 0 0 0 0 0 108563899.1537777 -2765412.593819218 -2765412.593819218 -6898055.297639435 0 0 0 0 0 108998037.8675133 -2080916.006677371 -2080916.006677371 -6507931.443846243 0 0 0 0 0 109362999.6613334 -1403903.07865194 -1403903.07865194 -6058142.702465335 0 0 0 0 0 109658659.5943176 -741441.9465201611 -741441.9465201611 -5553944.609436141 0 0 0 0 0 109884440.7083426 -102330.5257492366 -102330.5257492366 -4998651.869066583 0 0 0 0 0 110043221.3188889 506385.4578909547 506385.4578909547 -4397596.308702098 0 0 0 0 0 110148981.7581795 1078726.096135081 1078726.096135081 -3781565.146213145 0 0 0 0 0 110192958.438006 1622723.512809861 1622723.512809861 -3106596.035030968 0 0 0 0 0 110065809.2966301 2091747.99911145 2091747.99911145 -2485176.68247629 0 0 0 0 0 110115237.8010865 2702409.29328077 2702409.29328077 -1515453.931983634 0 0 0 0 0 103729892.4802395 -7295205.093995686 -7295205.093995686 -7215501.504338357 0 0 0 0 0 102367893.7754501 -7782696.222088949 -7782696.222088949 -7116671.277192258 0 0 0 0 0 102705911.7672075 -7506210.354619015 -7506210.354619015 -7381918.499783266 0 0 0 0 0 101397606.6847661 -7916644.895363477 -7916644.895363477 -6844191.520023584 0 0 0 0 0 100634212.6658162 -8171099.175493402 -8171099.175493402 -6547998.951799027 0 0 0 0 0 109650685.144949 2734138.340910798 2734138.340910798 16245279.53867433 0 0 0 0 0 109623565.5695345 3331881.600490555 3331881.600490555 15513786.62341097 0 0 0 0 0 109616378.553543 3850892.543943892 3850892.543943892 14686014.75907548 0 0 0 0 0 109634554.0277983 4280333.669901532 4280333.669901532 13855353.86591243 0 0 0 0 0 109520709.260332 1351087.430432543 1351087.430432543 17244296.56916852 0 0 0 0 0 109454780.1397776 1024861.596040246 1024861.596040246 17245348.22284178 0 0 0 0 0 109378441.9430463 1925023.051923614 1925023.051923614 16611156.32516803 0 0 0 0 0 109094152.3365441 423219.888603413 423219.888603413 16918630.27922435 0 0 0 0 0 109672992.631949 4638301.558422313 4638301.558422313 12932731.28124074 0 0 0 0 0 109696171.8942564 4938169.223441043 4938169.223441043 11911393.5142149 0 0 0 0 0 109784147.1754005 5139378.756664037 5139378.756664037 10969241.52439386 0 0 0 0 0 109663221.9848787 5218896.006624838 5218896.006624838 10133393.09195299 0 0 0 0 0 109758653.1518669 5320429.588234269 5320429.588234269 8927999.130838061 0 0 0 0 0 109987791.7146537 5428816.085157585 5428816.085157585 8095129.93688178 0 0 0 0 0 109610196.0767228 5179919.883111745 5179919.883111745 7608456.752459591 0 0 0 0 0 109817422.1438353 5268492.426233036 5268492.426233036 6496377.648017863 0 0 0 0 0 109425637.935612 4986184.595888157 4986184.595888157 6027315.543221451 0 0 0 0 0 104533023.9153359 -6823794.917753876 -6823794.917753876 -7335147.147550364 0 0 0 0 0 105287942.000446 -6323552.693431744 -6323552.693431744 -7439687.293594147 0 0 0 0 0 106003452.4388703 -5778201.382714598 -5778201.382714598 -7486345.724809999 0 0 0 0 0 106670334.8641626 -5200224.203956872 -5200224.203956872 -7476602.673299339 0 0 0 0 0 107283983.7098978 -4594724.000148139 -4594724.000148139 -7405417.276744352 0 0 0 0 0 107839588.5603736 -3968610.324203726 -3968610.324203726 -7271646.293533286 0 0 0 0 0 108333728.355361 -3328575.787676643 -3328575.787676643 -7074424.584925889 0 0 0 0 0 108762871.451638 -2681904.949839816 -2681904.949839816 -6814217.770709198 0 0 0 0 0 109125097.0446289 -2035800.907220394 -2035800.907220394 -6492996.255541092 0 0 0 0 0 109421276.9246255 -1395987.674135613 -1395987.674135613 -6111944.068370583 0 0 0 0 0 109651540.2976677 -769468.9100874768 -769468.9100874768 -5675333.798897655 0 0 0 0 0 109814892.9728662 -165827.2412943331 -165827.2412943331 -5190286.077851363 0 0 0 0 0 109906397.4508176 405483.8141764376 405483.8141764376 -4662218.117768112 0 0 0 0 0 109957454.7108437 948324.1864850747 948324.1864850747 -4109532.00655373 0 0 0 0 0 109796973.1916411 1375902.279439447 1375902.279439447 -3603027.486681074 0 0 0 0 0 109928062.0884656 2005417.301495151 2005417.301495151 -2678872.550123048 0 0 0 0 0 109554991.8955751 2348731.88676125 2348731.88676125 -2091292.714214421 0 0 0 0 0 103466135.6732384 -7062558.302606909 -7062558.302606909 -7484561.741437405 0 0 0 0 0 102577786.221435 -7325246.130681449 -7325246.130681449 -6878847.159191313 0 0 0 0 0 103387575.3198397 -7196670.751100937 -7196670.751100937 -6945968.712770339 0 0 0 0 0 102071131.3710218 -7521532.009201542 -7521532.009201542 -6416781.855241788 0 0 0 0 0 101357175.2844471 -7753036.563489444 -7753036.563489444 -6078039.821747024 0 0 0 0 0 109291773.1901049 2533828.830516032 2533828.830516032 15859497.24292506 0 0 0 0 0 109238513.8686312 3098272.628734977 3098272.628734977 15012602.32886644 0 0 0 0 0 109194864.3024843 3585309.688734348 3585309.688734348 14094170.99578999 0 0 0 0 0 109215055.8004995 4001292.838189161 4001292.838189161 13160143.59305691 0 0 0 0 0 109216205.1273091 1546074.001750021 1546074.001750021 16700205.22740098 0 0 0 0 0 109098114.2660298 820859.8561766285 820859.8561766285 16838608.03865419 0 0 0 0 0 109094158.2784422 2119793.059304829 2119793.059304829 16098824.44983279 0 0 0 0 0 108767146.8515529 218567.0153968571 218567.0153968571 16444360.37634897 0 0 0 0 0 109241288.1929161 4344704.500381034 4344704.500381034 12145689.01330361 0 0 0 0 0 109303433.883392 4656709.994709835 4656709.994709835 11239417.69884612 0 0 0 0 0 109340492.3128996 4845020.592444714 4845020.592444714 10062615.0614463 0 0 0 0 0 109234101.9017188 4915709.28858677 4915709.28858677 9390598.997336412 0 0 0 0 0 109444296.1533149 5066336.034888144 5066336.034888144 8478106.786708586 0 0 0 0 0 109556324.7463949 5238062.028326118 5238062.028326118 7419274.837148854 0 0 0 0 0 109254198.2864522 5000208.656692303 5000208.656692303 7014071.33528542 0 0 0 0 0 104261253.9236411 -6573573.418305826 -6573573.418305826 -7571935.936009943 0 0 0 0 0 105004858.6994461 -6042202.018652429 -6042202.018652429 -7604000.755628852 0 0 0 0 0 105715605.8572008 -5475514.702877302 -5475514.702877302 -7576532.04223936 0 0 0 0 0 106381474.7781763 -4878978.43070953 -4878978.43070953 -7487086.400251991 0 0 0 0 0 106997628.7704403 -4258757.173290559 -4258757.173290559 -7334494.652014449 0 0 0 0 0 107559046.9446648 -3621249.194808144 -3621249.194808144 -7118752.60632793 0 0 0 0 0 108061520.0218627 -2973830.889369273 -2973830.889369273 -6840489.629970797 0 0 0 0 0 108501909.3284391 -2323267.685923613 -2323267.685923613 -6500359.781122502 0 0 0 0 0 108878484.2614778 -1676416.411978601 -1676416.411978601 -6103218.688759085 0 0 0 0 0 109191010.1071723 -1039829.664723244 -1039829.664723244 -5650982.815374372 0 0 0 0 0 109438613.3603307 -419164.4497419634 -419164.4497419634 -5153464.271919395 0 0 0 0 0 109623431.5076149 168671.4131368587 168671.4131368587 -4614213.918532268 0 0 0 0 0 109772286.5818849 727175.7164547372 727175.7164547372 -4022601.977765106 0 0 0 0 0 109855450.0032529 1245812.077910063 1245812.077910063 -3452636.154101626 0 0 0 0 0 109993158.7516906 1656738.502365824 1656738.502365824 -3016323.860191276 0 0 0 0 0 109887033.8364938 2302742.509063357 2302742.509063357 -2014122.036076489 0 0 0 0 0 109619936.3430572 1715572.03313409 1715572.03313409 -2865952.245314594 0 0 0 0 0 104138523.6197323 -6745602.177229714 -6745602.177229714 -7036049.739252377 0 0 0 0 0 102745750.0909258 -7240777.950494125 -7240777.950494125 -6747886.666416081 0 0 0 0 0 103141033.6019373 -6958364.256472486 -6958364.256472486 -7177470.293703141 0 0 0 0 0 101259369.6534859 -7689061.033340472 -7689061.033340472 -6652494.553332944 0 0 0 0 0 101911457.3127029 -7419162.007010235 -7419162.007010235 -6732535.494555448 0 0 0 0 0 109051375.2536308 2714264.148795939 2714264.148795939 15456504.78973049 0 0 0 0 0 109024581.8888488 3274611.309522096 3274611.309522096 14724559.30950441 0 0 0 0 0 109041634.744482 3741882.688564645 3741882.688564645 13986502.58758615 0 0 0 0 0 109093781.8683758 4154155.737354596 4154155.737354596 13182763.7839831 0 0 0 0 0 108883434.9065443 1359896.539477051 1359896.539477051 16340685.36479517 0 0 0 0 0 108808793.8171414 997090.1312837871 997090.1312837871 16512202.66300371 0 0 0 0 0 108791151.1770511 1967413.444326686 1967413.444326686 15847566.46835851 0 0 0 0 0 108492709.2786767 384023.7350279415 384023.7350279415 16156087.23614671 0 0 0 0 0 109121644.0733941 4475657.046635567 4475657.046635567 12390423.52940044 0 0 0 0 0 109174366.2975233 4730094.339999218 4730094.339999218 10857162.03608452 0 0 0 0 0 109118284.8585969 4769321.856295988 4769321.856295988 10896050.00433651 0 0 0 0 0 109171473.1980231 5043254.662727917 5043254.662727917 9337625.493382946 0 0 0 0 0 109408425.1652767 5155643.466683714 5155643.466683714 8400316.858463449 0 0 0 0 0 109072527.2402677 4933412.534657414 4933412.534657414 8022255.168298851 0 0 0 0 0 104855857.5096939 -6291126.977720855 -6291126.977720855 -7169924.19558812 0 0 0 0 0 105548308.2461614 -5784293.363286256 -5784293.363286256 -7234054.763062802 0 0 0 0 0 106198561.2289164 -5246531.17219531 -5246531.17219531 -7248647.181816885 0 0 0 0 0 106801159.9558443 -4680840.488184816 -4680840.488184816 -7206207.194633591 0 0 0 0 0 107351083.8206584 -4093528.053105637 -4093528.053105637 -7105869.568852768 0 0 0 0 0 107845074.1443539 -3490252.279193139 -3490252.279193139 -6946633.001514984 0 0 0 0 0 108280038.8067808 -2877954.832975974 -2877954.832975974 -6728902.220625418 0 0 0 0 0 108653367.6543033 -2263245.204827384 -2263245.204827384 -6452917.499829746 0 0 0 0 0 108965464.6352639 -1650959.843720209 -1650959.843720209 -6118941.460591499 0 0 0 0 0 109214583.3525622 -1049214.026368744 -1049214.026368744 -5732305.853882074 0 0 0 0 0 109401711.1321425 -460857.0135717363 -460857.0135717363 -5292939.275866051 0 0 0 0 0 109552229.7295478 106486.8954438856 106486.8954438856 -4815254.947888841 0 0 0 0 0 109634195.0628597 622262.2072406424 622262.2072406424 -4314956.325284196 0 0 0 0 0 109727523.7437255 1156412.67282349 1156412.67282349 -3748227.331358904 0 0 0 0 0 109377450.0369955 1289513.837570521 1289513.837570521 -3445469.661509178 0 0 0 0 0 109398333.4868676 1985934.376720849 1985934.376720849 -2611508.019117185 0 0 0 0 0 109794482.2093659 1905759.090413336 1905759.090413336 -2557365.910117243 0 0 0 0 0 103884080.9571045 -6523574.904201419 -6523574.904201419 -7296498.272236286 0 0 0 0 0 102895533.6873143 -6856225.462907043 -6856225.462907043 -6577636.43215308 0 0 0 0 0 103756950.873008 -6656881.929830085 -6656881.929830085 -6756165.944707352 0 0 0 0 0 101959418.5574033 -7271688.184586465 -7271688.184586465 -6114947.892271645 0 0 0 0 0 102586763.4979534 -7105973.647053353 -7105973.647053353 -6376692.121942412 0 0 0 0 0 108756336.5141799 2546548.983437894 2546548.983437894 15126566.99115812 0 0 0 0 0 108658664.8281802 3060986.672121583 3060986.672121583 14287008.3320339 0 0 0 0 0 108709777.1806648 3530628.099774513 3530628.099774513 13529637.1772606 0 0 0 0 0 108777230.5103941 3947970.255925537 3947970.255925537 12682472.65450478 0 0 0 0 0 108618382.1871651 1539562.775699259 1539562.775699259 15968531.55682528 0 0 0 0 0 108485509.302091 794388.2808902749 794388.2808902749 16028298.90635682 0 0 0 0 0 108543625.6604884 2124131.843986847 2124131.843986847 15283753.10793277 0 0 0 0 0 108178309.0994298 188922.8698485983 188922.8698485983 15716046.2844477 0 0 0 0 0 108813965.4259448 4297951.645113592 4297951.645113592 11572623.47944296 0 0 0 0 0 108804606.1939695 4423440.446416735 4423440.446416735 11682651.54899087 0 0 0 0 0 108875824.2020619 4714001.275502592 4714001.275502592 10103988.40310159 0 0 0 0 0 108858367.012147 4813934.133396966 4813934.133396966 8948953.47420188 0 0 0 0 0 108669479.9079929 4614780.212453849 4614780.212453849 9955731.947713135 0 0 0 0 0 104586730.6419601 -6031044.925685408 -6031044.925685408 -7350842.042280164 0 0 0 0 0 105275519.6772825 -5503908.624951261 -5503908.624951261 -7349374.569442864 0 0 0 0 0 105924251.9535991 -4947789.583586549 -4947789.583586549 -7290423.85215054 0 0 0 0 0 106527714.976466 -4367328.6569615 -4367328.6569615 -7172526.904945821 0 0 0 0 0 107081713.4056947 -3768003.191437642 -3768003.191437642 -6995724.409144763 0 0 0 0 0 107582804.3730816 -3155974.564577146 -3155974.564577146 -6760520.049246717 0 0 0 0 0 108027554.5749267 -2538261.794673855 -2538261.794673855 -6467234.740074649 0 0 0 0 0 108412480.0251032 -1921698.619758943 -1921698.619758943 -6117815.716606179 0 0 0 0 0 108739404.0983106 -1311184.754891181 -1311184.754891181 -5716046.969331858 0 0 0 0 0 109007400.7344006 -716054.724663084 -716054.724663084 -5259732.630449081 0 0 0 0 0 109198721.363516 -128154.0697996299 -128154.0697996299 -4797887.3962386 0 0 0 0 0 109383269.4340648 413034.5056190075 413034.5056190075 -4285216.379958108 0 0 0 0 0 109468106.9988991 910560.7620804206 910560.7620804206 -3702543.566692308 0 0 0 0 0 109597864.4161571 1518010.813252312 1518010.813252312 -3019423.61953136 0 0 0 0 0 109231864.5909801 1577953.730551244 1577953.730551244 -3018423.567477146 0 0 0 0 0 104448450.9236295 -6250190.873846952 -6250190.873846952 -6898813.424835721 0 0 0 0 0 102901755.2750833 -6808226.97594983 -6808226.97594983 -6940239.145723052 0 0 0 0 0 102519653.6966124 -7013667.68533272 -7013667.68533272 -6758567.541785914 0 0 0 0 0 103496330.4445261 -6460062.885637474 -6460062.885637474 -7031060.812943132 0 0 0 0 0 101863324.6076842 -7199070.644776577 -7199070.644776577 -6601462.461126288 0 0 0 0 0 108536661.3869748 2695821.185490775 2695821.185490775 14699194.33383119 0 0 0 0 0 108471129.7486666 3214768.193083542 3214768.193083542 14060253.16696705 0 0 0 0 0 108542000.6899345 3669483.858649896 3669483.858649896 13168513.30783959 0 0 0 0 0 108642843.6743578 4054240.298215945 4054240.298215945 12378652.90878366 0 0 0 0 0 108258356.1093345 1342083.729226799 1342083.729226799 15602066.95422931 0 0 0 0 0 108253547.8143482 935757.3470233639 935757.3470233639 15772800.87826424 0 0 0 0 0 108358081.4981642 2075233.5064082 2075233.5064082 15287699.63996791 0 0 0 0 0 107923874.8354312 343632.8625987106 343632.8625987106 15453835.77585761 0 0 0 0 0 108565631.8963907 4042562.569908991 4042562.569908991 12391163.67899016 0 0 0 0 0 108582027.6520646 4401175.80840095 4401175.80840095 10944855.10578278 0 0 0 0 0 108473483.2568725 4374811.391748837 4374811.391748837 10902127.99554189 0 0 0 0 0 105122741.2846386 -5774911.148643259 -5774911.148643259 -6980247.575919122 0 0 0 0 0 105755910.2121007 -5275026.888617538 -5275026.888617538 -7018619.164597204 0 0 0 0 0 106345653.0857943 -4747718.016011616 -4747718.016011616 -7002791.910398608 0 0 0 0 0 106888095.3894766 -4197273.987167642 -4197273.987167642 -6931846.033928166 0 0 0 0 0 107379656.2060995 -3629319.041036389 -3629319.041036389 -6805820.031917593 0 0 0 0 0 107817604.2798603 -3049688.702712001 -3049688.702712001 -6625095.447595901 0 0 0 0 0 108198899.5885741 -2465454.083722798 -2465454.083722798 -6390786.864671229 0 0 0 0 0 108524212.5920783 -1881412.184216514 -1881412.184216514 -6101966.163275273 0 0 0 0 0 108794905.2737948 -1302027.084157112 -1302027.084157112 -5759533.42487437 0 0 0 0 0 108999068.9607394 -742850.6058941524 -742850.6058941524 -5373334.205082472 0 0 0 0 0 109194368.0417714 -145044.8967434087 -145044.8967434087 -4891792.092861845 0 0 0 0 0 109265239.593192 338357.4457563874 338357.4457563874 -4460176.9065891 0 0 0 0 0 109196331.0370949 745728.3111758347 745728.3111758347 -4042933.353972771 0 0 0 0 0 108997213.3745475 1156088.217689547 1156088.217689547 -3515648.547784506 0 0 0 0 0 104189771.4715867 -6002800.134537517 -6002800.134537517 -7099741.246926951 0 0 0 0 0 103462910.3062115 -6556010.373067602 -6556010.373067602 -6623273.839993702 0 0 0 0 0 102807446.3196943 -6670099.293491443 -6670099.293491443 -6425699.483347049 0 0 0 0 0 104077700.5374658 -6156447.762224264 -6156447.762224264 -6623871.201337939 0 0 0 0 0 102503268.5849277 -6804687.47664297 -6804687.47664297 -6119566.04040963 0 0 0 0 0 108263598.8847655 2523274.201198655 2523274.201198655 14270641.5352737 0 0 0 0 0 108226858.9889402 3064746.811093209 3064746.811093209 13736753.96501845 0 0 0 0 0 108348641.975438 3595500.555906595 3595500.555906595 13064645.52800672 0 0 0 0 0 108053310.4766241 1494897.702070938 1494897.702070938 15297547.88041759 0 0 0 0 0 107927222.3054841 726559.6636831955 726559.6636831955 15177488.71211064 0 0 0 0 0 108061007.1086219 2086637.957420584 2086637.957420584 14298243.15101907 0 0 0 0 0 107654624.1805011 179996.2691667185 179996.2691667185 15102992.79265033 0 0 0 0 0 108355984.7413773 4032353.046904031 4032353.046904031 11692943.71125972 0 0 0 0 0 108257691.1240868 4039394.377525701 4039394.377525701 11712617.98661712 0 0 0 0 0 104864555.8702238 -5515798.716909349 -5515798.716909349 -7120956.426863264 0 0 0 0 0 105494766.5933909 -4997968.946225218 -4997968.946225218 -7089366.705981491 0 0 0 0 0 106084992.9287612 -4455212.87105633 -4455212.87105633 -7001684.719435927 0 0 0 0 0 106630080.3136047 -3892480.769753368 -3892480.769753368 -6859046.776105056 0 0 0 0 0 107126932.0774832 -3314961.365529519 -3314961.365529519 -6661824.10935468 0 0 0 0 0 107572500.4962688 -2728674.849002571 -2728674.849002571 -6411882.560576611 0 0 0 0 0 107962744.340966 -2139736.99789699 -2139736.99789699 -6109081.130665467 0 0 0 0 0 108300839.2001448 -1555767.833568043 -1555767.833568043 -5751920.486313041 0 0 0 0 0 108590042.4513088 -983885.6244264442 -983885.6244264442 -5350196.214544793 0 0 0 0 0 108806040.1349545 -413155.6061706844 -413155.6061706844 -4853982.137082992 0 0 0 0 0 108882240.90476 89769.77765468485 89769.77765468485 -4480172.839953962 0 0 0 0 0 109234943.1538252 611499.2176502066 611499.2176502066 -3869933.964745057 0 0 0 0 0 109278457.2854189 1082683.541140958 1082683.541140958 -3404811.832999855 0 0 0 0 0 104724845.100751 -5749476.758214288 -5749476.758214288 -6741248.025360728 0 0 0 0 0 103248483.4994931 -6324074.367766192 -6324074.367766192 -6732836.401326097 0 0 0 0 0 102443166.460311 -6758615.029745776 -6758615.029745776 -6571603.965988103 0 0 0 0 0 103854154.7796093 -5962224.911114302 -5962224.911114302 -6857953.525561621 0 0 0 0 0 108098695.2062733 2546220.77063028 2546220.77063028 14638328.38647905 0 0 0 0 0 108004631.9965227 3145259.795186285 3145259.795186285 13054318.46861305 0 0 0 0 0 108148188.7941815 3628518.27006604 3628518.27006604 12406235.31416587 0 0 0 0 0 107761361.1547534 1298625.160218014 1298625.160218014 14747361.79918713 0 0 0 0 0 107709131.5924551 805215.6911416111 805215.6911416111 15227865.9144064 0 0 0 0 0 107849296.2267708 1970383.754108365 1970383.754108365 14893228.6704561 0 0 0 0 0 107454067.5669018 317542.4487623942 317542.4487623942 14740962.10758939 0 0 0 0 0 108052319.3161743 3647508.376972295 3647508.376972295 12454888.6494228 0 0 0 0 0 105340517.8519962 -5288980.742642948 -5288980.742642948 -6793129.428916144 0 0 0 0 0 105917190.8763286 -4796597.963419972 -4796597.963419972 -6796935.464085928 0 0 0 0 0 106450138.6321205 -4281752.044639613 -4281752.044639613 -6752186.686163909 0 0 0 0 0 106937025.987195 -3747959.035875157 -3747959.035875157 -6655572.604610923 0 0 0 0 0 107374622.3564076 -3200367.508300854 -3200367.508300854 -6507246.280144714 0 0 0 0 0 107758492.9077599 -2645322.973316742 -2645322.973316742 -6308548.900221394 0 0 0 0 0 108077007.1616712 -2092167.272194334 -2092167.272194334 -6062779.926994896 0 0 0 0 0 108337833.4156189 -1550275.570736573 -1550275.570736573 -5783708.802131989 0 0 0 0 0 108530099.9798244 -1030341.356501237 -1030341.356501237 -5476033.754499371 0 0 0 0 0 108610936.4903142 -539462.9455317995 -539462.9455317995 -5112959.835470889 0 0 0 0 0 109091577.3547234 255429.7092926847 255429.7092926847 -4236478.410405815 0 0 0 0 0 108798962.566865 351380.94817934 351380.94817934 -4358493.261426786 0 0 0 0 0 108757796.0054183 773104.3082600606 773104.3082600606 -3901873.630150005 0 0 0 0 0 104489907.2699197 -5517525.122985544 -5517525.122985544 -6893917.037169482 0 0 0 0 0 103710371.7983883 -6065717.180633285 -6065717.180633285 -6389404.628238392 0 0 0 0 0 103004361.4229781 -6350100.874536609 -6350100.874536609 -6090617.771533862 0 0 0 0 0 104356498.149523 -5711429.610934852 -5711429.610934852 -6485680.967101996 0 0 0 0 0 107741438.5965616 2434050.376066247 2434050.376066247 13514637.81891164 0 0 0 0 0 107736025.6993594 2708587.552746527 2708587.552746527 13820200.18345443 0 0 0 0 0 107873532.1723847 3192671.272324686 3192671.272324686 13150974.07291911 0 0 0 0 0 107555254.9071184 1404422.120968242 1404422.120968242 14185064.62027849 0 0 0 0 0 107458472.5576073 731819.0845000112 731819.0845000112 14409446.72956124 0 0 0 0 0 107502732.925524 1833094.868929739 1833094.868929739 13849864.63128819 0 0 0 0 0 107319856.6997209 306213.8351566103 306213.8351566103 14834293.9557182 0 0 0 0 0 105095898.9491047 -5032852.495247134 -5032852.495247134 -6882846.702482475 0 0 0 0 0 105668190.7680531 -4524093.064783104 -4524093.064783104 -6825036.02310382 0 0 0 0 0 106203278.7290786 -3996682.14320446 -3996682.14320446 -6712446.023330962 0 0 0 0 0 106694516.6884516 -3453042.64370307 -3453042.64370307 -6548025.203802134 0 0 0 0 0 107139991.3180809 -2899476.943439668 -2899476.943439668 -6332290.156607171 0 0 0 0 0 107536855.0370796 -2343606.499538714 -2343606.499538714 -6066124.423170036 0 0 0 0 0 107865862.2077506 -1783838.464954305 -1783838.464954305 -5755844.692740154 0 0 0 0 0 108230184.5067473 -1246563.92486964 -1246563.92486964 -5366269.571968653 0 0 0 0 0 108496952.6614515 -706137.2134559961 -706137.2134559961 -4906382.07560706 0 0 0 0 0 108703272.9700058 -152971.7956037831 -152971.7956037831 -4476290.126950938 0 0 0 0 0 108588197.5062433 -51025.56013108933 -51025.56013108933 -4648088.403522148 0 0 0 0 0 108979442.610662 681264.5609749957 681264.5609749957 -3756902.844364852 0 0 0 0 0 104947834.3045445 -5296676.767004413 -5296676.767004413 -6563959.499406744 0 0 0 0 0 103495108.8094083 -5900436.893323614 -5900436.893323614 -6611507.440214839 0 0 0 0 0 102860871.2856875 -6268604.470696611 -6268604.470696611 -6498415.975369564 0 0 0 0 0 104117743.6914411 -5503533.114249302 -5503533.114249302 -6682440.396025884 0 0 0 0 0 107585096.1738954 2168203.079583393 2168203.079583393 14253722.71412094 0 0 0 0 0 107386701.9019252 955688.6277896719 955688.6277896719 14807901.2622429 0 0 0 0 0 107454007.1384745 1549491.791265983 1549491.791265983 14539988.8617333 0 0 0 0 0 105514000.9136699 -4832900.096624633 -4832900.096624633 -6586918.056031348 0 0 0 0 0 106036836.794406 -4348177.307751209 -4348177.307751209 -6569539.86787761 0 0 0 0 0 106517722.1410309 -3847571.55872651 -3847571.55872651 -6498984.392912203 0 0 0 0 0 106955682.5929136 -3331013.647141181 -3331013.647141181 -6379404.686214086 0 0 0 0 0 107346652.3393611 -2805764.831095733 -2805764.831095733 -6212384.642358897 0 0 0 0 0 107693514.622691 -2277604.362236867 -2277604.362236867 -5999731.76332913 0 0 0 0 0 107991042.170948 -1730342.012031539 -1730342.012031539 -5719762.379366373 0 0 0 0 0 108144986.4518016 -1304440.298274153 -1304440.298274153 -5504872.399026591 0 0 0 0 0 108208929.7106877 -886602.7449015902 -886602.7449015902 -5257487.492675724 0 0 0 0 0 108235115.0080621 -409864.9278182358 -409864.9278182358 -4895048.20754002 0 0 0 0 0 108726577.382969 294620.3422808295 294620.3422808295 -4012397.649959861 0 0 0 0 0 108511647.8936048 408543.1888101838 408543.1888101838 -4194449.30282136 0 0 0 0 0 104721706.0590151 -5057703.837277049 -5057703.837277049 -6684360.268133444 0 0 0 0 0 104037453.3575167 -5592999.004113995 -5592999.004113995 -6211514.549064049 0 0 0 0 0 103418197.495719 -5917790.601176573 -5917790.601176573 -6044998.898604251 0 0 0 0 0 104612049.8993317 -5247831.980057338 -5247831.980057338 -6322318.590343527 0 0 0 0 0 105286113.321149 -4576153.470049601 -4576153.470049601 -6642040.285468913 0 0 0 0 0 105800793.2848585 -4081781.061019224 -4081781.061019224 -6559331.347548544 0 0 0 0 0 106283887.0058575 -3569840.931239834 -3569840.931239834 -6425552.648603457 0 0 0 0 0 106728031.8724746 -3046817.629781475 -3046817.629781475 -6243607.909669144 0 0 0 0 0 107125089.8680349 -2516150.359870579 -2516150.359870579 -6017567.26027772 0 0 0 0 0 107476447.3708042 -1975273.046897641 -1975273.046897641 -5730528.370108271 0 0 0 0 0 107700422.9858274 -1520205.001830706 -1520205.001830706 -5464850.229717888 0 0 0 0 0 108156058.126891 -1013495.366738393 -1013495.366738393 -5054262.551522108 0 0 0 0 0 108310259.5468353 -548980.7981949002 -548980.7981949002 -4687168.543870626 0 0 0 0 0 108447823.1403905 -68695.03905564744 -68695.03905564744 -4259635.714113194 0 0 0 0 0 108250012.4981731 37046.32245222973 37046.32245222973 -4433803.333797161 0 0 0 0 0 105147045.1976592 -4853936.919920614 -4853936.919920614 -6381077.738756394 0 0 0 0 0 103239975.3441285 -5803443.17606548 -5803443.17606548 -6431299.530844457 0 0 0 0 0 103821324.9397546 -5452960.389190067 -5452960.389190067 -6519476.034104127 0 0 0 0 0 104366565.295014 -5066709.948520074 -5066709.948520074 -6545007.312671304 0 0 0 0 0 105646355.6639713 -4406918.477055897 -4406918.477055897 -6385446.844796138 0 0 0 0 0 106119777.1721067 -3929817.689629972 -3929817.689629972 -6339502.235218669 0 0 0 0 0 106555690.9455799 -3441911.624050071 -3441911.624050071 -6245613.004787879 0 0 0 0 0 106946102.2932666 -2945801.736204134 -2945801.736204134 -6106921.081075048 0 0 0 0 0 107289738.1297365 -2441410.017052998 -2441410.017052998 -5922500.19635616 0 0 0 0 0 107563572.6657306 -1943897.49473013 -1943897.49473013 -5697388.551173649 0 0 0 0 0 107949473.716909 -1317910.409207 -1317910.409207 -5211124.519486177 0 0 0 0 0 107797867.8432362 -1213151.018635624 -1213151.018635624 -5403428.134355863 0 0 0 0 0 107915560.1985639 -767124.310916707 -767124.310916707 -5065774.180493793 0 0 0 0 0 107955339.6563209 -335177.3427632519 -335177.3427632519 -4689860.385697035 0 0 0 0 0 104932275.4603943 -4629783.166762348 -4629783.166762348 -6478486.520185518 0 0 0 0 0 103804324.4588246 -5468692.812359447 -5468692.812359447 -5968447.475884637 0 0 0 0 0 104348191.7124887 -5142576.138151302 -5142576.138151302 -6089075.297722439 0 0 0 0 0 104849666.2258443 -4811723.11233157 -4811723.11233157 -6172814.899017844 0 0 0 0 0 105438611.9781153 -4147950.818433753 -4147950.818433753 -6405867.252955189 0 0 0 0 0 105898658.8563274 -3667348.483172036 -3667348.483172036 -6295075.495588676 0 0 0 0 0 106338186.1347156 -3175708.079029599 -3175708.079029599 -6141259.042753203 0 0 0 0 0 106735656.2804869 -2674212.537492148 -2674212.537492148 -5941330.30693579 0 0 0 0 0 107087096.5872127 -2171516.022902056 -2171516.022902056 -5700940.265429839 0 0 0 0 0 107434779.2020654 -1600392.287995647 -1600392.287995647 -5369619.435307679 0 0 0 0 0 107544273.3857589 -1533302.3952355 -1533302.3952355 -5487768.308125479 0 0 0 0 0 107985663.7261337 -887026.1891945556 -887026.1891945556 -4862892.613390246 0 0 0 0 0 108098486.3291821 -452146.0187995672 -452146.0187995672 -4493515.698481559 0 0 0 0 0 105282194.6283139 -4472084.458403586 -4472084.458403586 -6245553.594230281 0 0 0 0 0 103611368.912666 -5345363.728835117 -5345363.728835117 -6302306.522765286 0 0 0 0 0 104137813.4345023 -5009045.606343957 -5009045.606343957 -6376410.783450987 0 0 0 0 0 104590554.491788 -4642276.977828893 -4642276.977828893 -6382127.044403316 0 0 0 0 0 105697292.7560908 -4034902.966175548 -4034902.966175548 -6242520.008666695 0 0 0 0 0 106177403.6061917 -3535968.343421976 -3535968.343421976 -6102675.943082265 0 0 0 0 0 106567963.7859298 -3068377.422818108 -3068377.422818108 -5993014.73054578 0 0 0 0 0 106921489.2902009 -2590711.478075361 -2590711.478075361 -5837031.092339606 0 0 0 0 0 107240854.3823965 -2108511.324521897 -2108511.324521897 -5643451.777436519 0 0 0 0 0 107458058.9634244 -1619505.059704619 -1619505.059704619 -5399975.101250915 0 0 0 0 0 107671039.0943996 -1204750.40649799 -1204750.40649799 -4952220.854980805 0 0 0 0 0 107616710.5322725 -1090387.788442123 -1090387.788442123 -5178462.602696638 0 0 0 0 0 107657356.8710897 -685595.5056179978 -685595.5056179978 -4874920.146964202 0 0 0 0 0 105141759.6124826 -4205981.513769021 -4205981.513769021 -6131073.118473788 0 0 0 0 0 104124377.1524609 -5039531.520016812 -5039531.520016812 -5876067.94652327 0 0 0 0 0 104637182.024716 -4710102.291617255 -4710102.291617255 -5951531.688065098 0 0 0 0 0 105075571.1835207 -4372134.274155418 -4372134.274155418 -5964372.080812235 0 0 0 0 0 105520648.9744321 -3757811.483537076 -3757811.483537076 -6147242.348418222 0 0 0 0 0 105963617.9553408 -3281898.623906688 -3281898.623906688 -6035188.305825663 0 0 0 0 0 106360855.3418464 -2808693.079777461 -2808693.079777461 -5865447.763415675 0 0 0 0 0 106718286.180887 -2321258.873655304 -2321258.873655304 -5644590.63638514 0 0 0 0 0 107018654.9421016 -1823811.474729292 -1823811.474729292 -5362755.706162837 0 0 0 0 0 107125029.5684417 -1442774.698837129 -1442774.698837129 -5298269.125003606 0 0 0 0 0 107785541.5310663 -806840.6507383009 -806840.6507383009 -4680648.549717443 0 0 0 0 0 104946983.9015465 -4272517.688308838 -4272517.688308838 -6234793.452123841 0 0 0 0 0 103931166.6943229 -4916909.696503313 -4916909.696503313 -6170597.384089559 0 0 0 0 0 104430219.675429 -4583146.341901267 -4583146.341901267 -6191534.986978943 0 0 0 0 0 105798063.0403691 -3609976.096416153 -3609976.096416153 -5917172.057210755 0 0 0 0 0 106194783.5811424 -3172294.819927673 -3172294.819927673 -5878353.632282761 0 0 0 0 0 106540823.9302435 -2724676.644432929 -2724676.644432929 -5749556.975421608 0 0 0 0 0 106837670.6044757 -2274483.843406392 -2274483.843406392 -5593518.033777311 0 0 0 0 0 107075776.9364295 -1821053.743636488 -1821053.743636488 -5387037.223200827 0 0 0 0 0 107478179.6348722 -1140162.432806602 -1140162.432806602 -4834238.875671695 0 0 0 0 0 107349009.1101879 -1024163.907125351 -1024163.907125351 -5023675.212717515 0 0 0 0 0 105305131.9993749 -3931194.189048397 -3931194.189048397 -5850766.587895927 0 0 0 0 0 104416091.8457952 -4622692.380997882 -4622692.380997882 -5760073.84363341 0 0 0 0 0 104880866.5392232 -4299002.338730678 -4299002.338730678 -5824999.104788225 0 0 0 0 0 105587977.0376424 -3376796.589116489 -3376796.589116489 -5926025.870869623 0 0 0 0 0 105172089.6419692 -3845858.276436744 -3845858.276436744 -6072495.346987336 0 0 0 0 0 105997285.3207985 -2929817.242997285 -2929817.242997285 -5780257.327912782 0 0 0 0 0 106375672.1592263 -2468842.692681263 -2468842.692681263 -5577224.340369668 0 0 0 0 0 106687080.8380702 -1992315.924892442 -1992315.924892442 -5313998.340731557 0 0 0 0 0 106943214.8026277 -1482517.237376149 -1482517.237376149 -4981169.59888569 0 0 0 0 0 107036256.0615898 -1344555.143256162 -1344555.143256162 -5127070.875672364 0 0 0 0 0 104645561.6346234 -4156228.991313951 -4156228.991313951 -6066960.702484041 0 0 0 0 0 104206446.0625748 -4490271.188689601 -4490271.188689601 -6034463.589938211 0 0 0 0 0 105844162.2795244 -3254949.046881153 -3254949.046881153 -5750410.760507345 0 0 0 0 0 105520649.1187564 -3574365.557883278 -3574365.557883278 -5689806.735417609 0 0 0 0 0 106177762.3507315 -2840851.103144131 -2840851.103144131 -5654157.764331593 0 0 0 0 0 106431973.0308101 -2449908.949468189 -2449908.949468189 -5564523.907808837 0 0 0 0 0 106631101.7797772 -2036488.522678073 -2036488.522678073 -5401995.642540614 0 0 0 0 0 106727587.8554669 -1599566.576430988 -1599566.576430988 -5167134.637109506 0 0 0 0 0 105066475.5820684 -3864690.116908175 -3864690.116908175 -5649891.401954865 0 0 0 0 0 104661012.4712371 -4214599.373112857 -4214599.373112857 -5629433.006759932 0 0 0 0 0 105633827.3492503 -3036344.143480694 -3036344.143480694 -5686913.816107147 0 0 0 0 0 105294367.1765458 -3437386.041730683 -3437386.041730683 -5807642.599165521 0 0 0 0 0 104945458.7662136 -3775979.310191863 -3775979.310191863 -5897266.082637866 0 0 0 0 0 106032382.9458712 -2616636.590272492 -2616636.590272492 -5489322.836951639 0 0 0 0 0 106380791.7922791 -2180991.795645215 -2180991.795645215 -5262089.603482896 0 0 0 0 0 106660826.9502161 -1725651.491449499 -1725651.491449499 -4991593.921606526 0 0 0 0 0 104421581.9320538 -4061192.764969888 -4061192.764969888 -5869697.740811969 0 0 0 0 0 105846984.3223689 -2927212.959729748 -2927212.959729748 -5546922.096784106 0 0 0 0 0 105534353.3683965 -3322115.985433883 -3322115.985433883 -5665121.119498387 0 0 0 0 0 105178314.5436423 -3467288.883990184 -3467288.883990184 -5566013.582232781 0 0 0 0 0 106106369.438865 -2590344.248529374 -2590344.248529374 -5477338.764715886 0 0 0 0 0 106273527.303446 -2246145.953953895 -2246145.953953895 -5388864.795666398 0 0 0 0 0 106405695.3625086 -1858537.837316371 -1858537.837316371 -5211319.033917199 0 0 0 0 0 104844039.3366536 -3819776.161427575 -3819776.161427575 -5491969.28773872 0 0 0 0 0 105391263.292642 -3107733.940550453 -3107733.940550453 -5553563.481167754 0 0 0 0 0 105655941.9196519 -2753397.63073273 -2753397.63073273 -5454002.456081026 0 0 0 0 0 105033965.9494866 -3502928.259916399 -3502928.259916399 -5618961.795037908 0 0 0 0 0 106068665.6854093 -2379249.429142811 -2379249.429142811 -5232492.83997263 0 0 0 0 0 106333266.0702495 -1970325.081471915 -1970325.081471915 -5021953.207812694 0 0 0 0 0 104646052.996092 -3648652.274056645 -3648652.274056645 -5580624.129703033 0 0 0 0 0 105510417.8671149 -3038677.498244101 -3038677.498244101 -5414380.208993416 0 0 0 0 0 105909367.559912 -2572899.654643207 -2572899.654643207 -5186200.765797914 0 0 0 0 0 105176714.706207 -3216911.574065082 -3216911.574065082 -5341042.118276102 0 0 0 0 0 105876190.9550145 -2481168.312461473 -2481168.312461473 -5414620.080124522 0 0 0 0 0 106076013.6401175 -2106499.012703702 -2106499.012703702 -5250626.182312793 0 0 0 0 0 104965512.4915006 -3486486.838601934 -3486486.838601934 -5350712.128023797 0 0 0 0 0 105510152.2515651 -2786649.205778568 -2786649.205778568 -5252432.521064365 0 0 0 0 0 105278724.0246832 -3175301.126913334 -3175301.126913334 -5497754.868579609 0 0 0 0 0 105524824.8988282 -2739280.417660739 -2739280.417660739 -5405434.314271904 0 0 0 0 0 104760083.3015555 -3372068.966037735 -3372068.966037735 -5538063.302516964 0 0 0 0 0 106019586.9521131 -2210187.491362266 -2210187.491362266 -5037199.329174302 0 0 0 0 0 105273270.2841844 -2921778.432569113 -2921778.432569113 -5326086.339981702 0 0 0 0 0 105725597.0989502 -2453747.719323822 -2453747.719323822 -5025157.485640077 0 0 0 0 0 105109368.526111 -3126486.987154009 -3126486.987154009 -5183431.375903998 0 0 0 0 0 105751642.8807897 -2343020.646621498 -2343020.646621498 -5249829.686582236 0 0 0 0 0 105357095.5729839 -2874967.450577545 -2874967.450577545 -5235905.857128873 0 0 0 0 0 105433484.9044874 -2576951.265530137 -2576951.265530137 -5213663.937906784 0 0 0 0 0 104911317.3336882 -3021583.009942154 -3021583.009942154 -5305849.95254502 0 0 0 0 0 105266316.7517915 -2662029.281833115 -2662029.281833115 -5059245.024842362 0 0 0 0 0 105176504.3489267 -2807613.907580333 -2807613.907580333 -5022616.290854687 0 0 0 0 0 105114027.7600601 -2749981.608400104 -2749981.608400104 -5174202.527514716 0 0 0 0 0 </DataArray>
        <DataArray type="Float64" Name="von_mises_stress" format="ascii" NumberOfComponents="3">99328420.63894223 0 0 73534728.4758243 0 0 70627630.62385137 0 0 66044342.44166392 0 0 91747915.9093633 0 0 67518891.47673981 0 0 55096943.79492788 0 0 63373054.21406298 0 0 54186002.63492394 0 0 46722745.83798177 0 0 39247824.99102144 0 0 84865018.44490026 0 0 64677612.44683094 0 0 50742351.79727478 0 0 45255915.5309711 0 0 33644074.59876881 0 0 28990366.9874879 0 0 54621308.88133515 0 0 45822573.47094417 0 0 44608947.30220904 0 0 38993769.72194382 0 0 33754377.76311503 0 0 25808660.41260097 0 0 72648453.8940728 0 0 58415867.21387365 0 0 49478975.56709439 0 0 42279165.12099189 0 0 32500724.57456691 0 0 24447984.218248 0 0 28663928.37628072 0 0 44472242.05894928 0 0 41874047.44083398 0 0 40733664.2346791 0 0 34879461.02003289 0 0 29378466.73429801 0 0 22801594.54534701 0 0 25612318.3495023 0 0 56593480.9536747 0 0 53141821.45217389 0 0 46727958.3197938 0 0 44987541.09901609 0 0 47265282.53623743 0 0 39383194.84115949 0 0 33581431.91544788 0 0 22407868.97101708 0 0 27320680.77208473 0 0 30091707.04571458 0 0 40668892.31108314 0 0 47530645.99262651 0 0 40376160.44340729 0 0 44163153.69371065 0 0 34918496.12154307 0 0 30262223.56801253 0 0 23819953.69966107 0 0 24806723.54130129 0 0 23286267.06342501 0 0 40474605.8585179 0 0 41584341.85212424 0 0 42728388.72294538 0 0 47077482.99552567 0 0 45778609.24357098 0 0 50426829.76099257 0 0 53141240.99781544 0 0 40095805.18788603 0 0 34703688.17775792 0 0 22341085.95566346 0 0 29646560.69925692 0 0 23425901.75143788 0 0 18183037.96529147 0 0 36338532.18885142 0 0 45575468.68154116 0 0 53939763.55682468 0 0 43517436.91534892 0 0 48602574.72744723 0 0 52832931.02339433 0 0 37968723.4404518 0 0 32758289.14775759 0 0 28214749.1825665 0 0 27871689.8711766 0 0 26080886.72146627 0 0 20695104.13638074 0 0 38640909.42322642 0 0 45439104.99475706 0 0 52840906.70005932 0 0 55425412.92830796 0 0 48430713.32275477 0 0 53972057.92807596 0 0 58786904.22936372 0 0 62039435.43570163 0 0 42528007.9309497 0 0 37089902.52289437 0 0 26792324.39050749 0 0 33361220.72627924 0 0 28124538.5250811 0 0 29287649.32430336 0 0 16481384.64063872 0 0 35690204.1478055 0 0 53808566.55469644 0 0 57800621.41109785 0 0 64625692.90961426 0 0 47337118.54870114 0 0 53184473.90755833 0 0 58697282.02005129 0 0 63486248.43638363 0 0 41522035.2702241 0 0 36295216.59366064 0 0 31327443.76103634 0 0 32476459.5680706 0 0 30090336.41749407 0 0 31575716.24641671 0 0 24717002.53502909 0 0 44636606.83822995 0 0 58421962.99211084 0 0 66649334.82754835 0 0 68047472.87285307 0 0 57367530.83775575 0 0 51281897.20077775 0 0 63113999.84408899 0 0 68188218.20371073 0 0 72578461.43007158 0 0 45337793.42016886 0 0 40144288.34580342 0 0 35533522.45938917 0 0 34366335.69058683 0 0 32965854.95751417 0 0 32706153.81441107 0 0 34951488.26777673 0 0 47816402.09664742 0 0 68603263.23934087 0 0 72500848.40963545 0 0 76368320.91753867 0 0 57158364.74606106 0 0 51010020.7565113 0 0 63325935.34655137 0 0 69258151.75359687 0 0 75023599.44611093 0 0 45238963.85067802 0 0 40261738.9871872 0 0 36292880.75238416 0 0 33637073.83725791 0 0 34879249.43759653 0 0 34608267.47234793 0 0 36468890.57929563 0 0 46606497.16859628 0 0 61023065.36360963 0 0 64425258.28105312 0 0 76699723.15906689 0 0 80115747.62451039 0 0 80815054.83327538 0 0 66361313.56867427 0 0 60215562.02578609 0 0 54140793.79538665 0 0 72235829.95499681 0 0 77698959.7644235 0 0 82706356.68750447 0 0 48595379.26301256 0 0 43967329.87000377 0 0 40207906.7792172 0 0 38192475.30578927 0 0 36459280.21531446 0 0 38580365.08945662 0 0 39840287.53242539 0 0 62382183.83680664 0 0 61694417.18328108 0 0 72360459.8245789 0 0 83521925.08842875 0 0 86255450.17263703 0 0 87283735.57768528 0 0 66843416.04466968 0 0 60480537.71425242 0 0 54394736.08404107 0 0 73240211.43311645 0 0 79561232.4552055 0 0 85863747.27568635 0 0 48871950.41162662 0 0 44157366.09754959 0 0 40377854.19161015 0 0 38936201.10702937 0 0 38302618.71230613 0 0 39437610.06481037 0 0 41772212.47964195 0 0 73038553.58256423 0 0 74697302.3888479 0 0 76928711.09149556 0 0 81777770.2319569 0 0 91451749.61041158 0 0 91733886.79468368 0 0 92097418.79908322 0 0 74956259.54281932 0 0 68806395.05776207 0 0 62666756.08668146 0 0 56825534.55616468 0 0 80905622.59702973 0 0 86540901.08091998 0 0 91783318.7752324 0 0 51567499.66262772 0 0 47131234.008563 0 0 44049093.98979024 0 0 41901239.92137346 0 0 42664611.12602986 0 0 43200363.21185164 0 0 42202839.97535877 0 0 83038531.77362856 0 0 85089878.58505698 0 0 86978135.59967959 0 0 88260618.05824248 0 0 96159469.97421569 0 0 98117086.13154344 0 0 96775039.329855 0 0 76014789.25452645 0 0 69549205.37455109 0 0 63288479.48274155 0 0 57434168.373663 0 0 82531132.89544368 0 0 88987719.52986513 0 0 95401058.65772124 0 0 52187595.90195059 0 0 47786186.94059774 0 0 44510132.61929252 0 0 42469075.87278289 0 0 41878845.21836326 0 0 44517242.91679654 0 0 43638112.02957104 0 0 101137758.7427158 0 0 95108697.27061304 0 0 99967343.00486463 0 0 94069978.44147207 0 0 98089616.83111911 0 0 104179633.2910983 0 0 101690095.363256 0 0 101682895.3877108 0 0 76836375.23262475 0 0 82911762.44297589 0 0 70733751.36314298 0 0 64815320.73159948 0 0 59310116.18946271 0 0 88797228.94049858 0 0 94412808.92834122 0 0 99750835.29396795 0 0 54441615.59641489 0 0 50523183.62340159 0 0 47746486.70921385 0 0 46165748.90078307 0 0 45958960.32640827 0 0 46264057.20991643 0 0 46222694.23083714 0 0 106980121.211165 0 0 100134227.4569398 0 0 102850412.6471691 0 0 106261974.8631173 0 0 101848793.5228902 0 0 106612042.3998296 0 0 107812273.4068881 0 0 104841403.8308088 0 0 77997325.89725643 0 0 84442712.03876762 0 0 71692315.19094342 0 0 65690407.09352547 0 0 60158590.11561206 0 0 90889747.59319916 0 0 97312925.44288257 0 0 103616041.1245362 0 0 55282462.10523953 0 0 51250399.95273 0 0 48258611.35935452 0 0 46262372.11732598 0 0 46142445.20327397 0 0 48342590.61992674 0 0 46283240.62898948 0 0 130286163.6800591 0 0 115610598.476754 0 0 112941034.5274942 0 0 114769101.5932262 0 0 107662704.8639637 0 0 110898335.9668196 0 0 113862665.5562508 0 0 109734266.9220359 0 0 109688221.2574294 0 0 78197247.15281908 0 0 84167289.61011133 0 0 90069898.75193146 0 0 72320050.28425489 0 0 66721102.46770454 0 0 61591184.0050307 0 0 95791633.23485909 0 0 101248067.4254845 0 0 106417799.6445111 0 0 57141791.1390112 0 0 53538186.96933952 0 0 50941485.42232337 0 0 49632727.23141727 0 0 49352132.28916056 0 0 49251347.03369638 0 0 47962485.78696954 0 0 49793057.38585249 0 0 129620705.8309331 0 0 115596153.470456 0 0 112767607.9382794 0 0 114508409.1840818 0 0 117737937.9747682 0 0 111735858.636135 0 0 114338497.8822937 0 0 115413382.9607034 0 0 111299246.7761425 0 0 79457990.9559314 0 0 85677229.32592486 0 0 91968098.48999867 0 0 73442913.54465288 0 0 67781569.72875038 0 0 62625013.94864215 0 0 98228540.09055708 0 0 104381970.9500744 0 0 110288568.4930549 0 0 58125477.90930001 0 0 54438595.04600437 0 0 51689779.2521141 0 0 49927586.51831984 0 0 49368721.23644234 0 0 51221102.2717748 0 0 50589193.28483602 0 0 49335134.2969188 0 0 51916351.61466131 0 0 54411439.24407577 0 0 158911183.4669576 0 0 136298342.3330739 0 0 127180212.7789938 0 0 124686083.8092515 0 0 124798153.6047577 0 0 116997745.431422 0 0 119842316.6837335 0 0 120940756.7458563 0 0 115813034.9282548 0 0 115896978.7301946 0 0 84972987.77306633 0 0 79236678.90728876 0 0 90732252.72688366 0 0 96383112.78456099 0 0 73674515.88040431 0 0 68446140.70273802 0 0 63723014.62876154 0 0 101815923.4744581 0 0 106954815.0798024 0 0 111797357.6575926 0 0 59661665.58061974 0 0 56419528.22910599 0 0 54079774.61123821 0 0 52631450.15232731 0 0 52025830.10072415 0 0 50935134.07725241 0 0 51799745.53802288 0 0 52980963.83186801 0 0 55939394.50744267 0 0 56942476.48519979 0 0 149913836.294394 0 0 131179033.8273443 0 0 123574137.0569773 0 0 121898979.086843 0 0 122498596.7729356 0 0 125680392.7365269 0 0 118990546.3104914 0 0 120113742.5785618 0 0 121174305.9380018 0 0 116303023.7861911 0 0 86489896.15344241 0 0 80581717.42961153 0 0 92517058.11044839 0 0 98544005.42197587 0 0 74919220.48329759 0 0 69639534.67346491 0 0 64872861.24312623 0 0 104464301.3121729 0 0 110159192.7391877 0 0 115574366.6823179 0 0 60750309.16560115 0 0 57389460.30443556 0 0 54859493.96364906 0 0 53235731.72228226 0 0 52518344.62772454 0 0 53044221.22866464 0 0 52635417.03353768 0 0 54276485.88678224 0 0 55971287.7792424 0 0 58073102.10703369 0 0 59135672.58652326 0 0 64916712.44182067 0 0 63826752.26864363 0 0 63100044.74454672 0 0 61268182.84185784 0 0 183708448.4951378 0 0 157838051.1076957 0 0 141977755.3446867 0 0 134970117.2823097 0 0 132248372.2680597 0 0 131402535.6184181 0 0 123522237.838499 0 0 126080102.7754139 0 0 125938646.8898295 0 0 120459171.6248023 0 0 120675686.0419949 0 0 85506528.20122534 0 0 91025791.84165458 0 0 80076535.25517836 0 0 96504324.55625564 0 0 101835131.0198662 0 0 74872321.44825894 0 0 70037970.02845289 0 0 65712761.91381576 0 0 106909497.8259231 0 0 111666981.4971116 0 0 116099511.9014394 0 0 62030913.14625483 0 0 59086376.27168559 0 0 56945119.30393262 0 0 55620581.82857388 0 0 55029525.78167086 0 0 54737338.86477645 0 0 56379000.74001377 0 0 57085290.27332804 0 0 58492491.83196507 0 0 60164209.37889566 0 0 66283740.38358278 0 0 64639751.3183 0 0 62944335.69797292 0 0 66646576.81231175 0 0 68209219.23227996 0 0 178588472.3414537 0 0 144841344.8703015 0 0 134002571.3521099 0 0 129602028.6918152 0 0 128064743.558522 0 0 127864878.0814735 0 0 130896168.2201427 0 0 124124212.9698661 0 0 124226895.7945586 0 0 125270351.1646807 0 0 120172093.3038 0 0 87033926.042004 0 0 92741383.49860072 0 0 81480856.57813182 0 0 98486281.71861832 0 0 104159277.9178803 0 0 76201645.38406962 0 0 71314780.95917842 0 0 66936638.36745597 0 0 109635309.5894693 0 0 114824944.3022453 0 0 119695839.8664988 0 0 63172002.96197152 0 0 60104820.4493745 0 0 57795250.11084314 0 0 56272017.16490842 0 0 55485950.97260265 0 0 55317196.50888287 0 0 55625653.45081497 0 0 58203292.88168962 0 0 59278921.55712015 0 0 61032250.25403363 0 0 65806712.8878166 0 0 62061913.43598243 0 0 64525177.67527606 0 0 67270050.81223717 0 0 69240909.42040652 0 0 69634689.17349733 0 0 70966819.62937884 0 0 213373840.3702306 0 0 175257532.5982986 0 0 165541521.5396686 0 0 153993469.160534 0 0 143767415.258469 0 0 138976129.1408108 0 0 136559904.8482578 0 0 135145132.5972455 0 0 127845133.7115224 0 0 130228077.6810995 0 0 129301489.6789327 0 0 123848344.8925121 0 0 124162852.2871159 0 0 85884662.25399823 0 0 91108616.06821114 0 0 96350419.00354357 0 0 80796231.46064489 0 0 101498545.9747633 0 0 106457958.8081781 0 0 75967939.81960215 0 0 71524240.88825114 0 0 67583167.40200892 0 0 111136711.1665788 0 0 115469197.5278802 0 0 119447289.0896265 0 0 64241759.53030032 0 0 61574310.9496538 0 0 59633659.51960667 0 0 58417153.28280032 0 0 57856954.67476772 0 0 57836258.48552289 0 0 58620889.8835608 0 0 60444508.6633555 0 0 61225333.4233859 0 0 66705300.82352376 0 0 67928259.69166969 0 0 63574132.11836916 0 0 65491430.31289168 0 0 68767389.84980053 0 0 70036079.29290497 0 0 71719305.5425078 0 0 72288709.88063028 0 0 194197484.7796901 0 0 171068525.792521 0 0 154085611.8792719 0 0 143353374.9120976 0 0 136676519.1525503 0 0 133475790.6412408 0 0 131926915.6984199 0 0 131188597.0039313 0 0 133944520.8043825 0 0 127603107.6906709 0 0 127074986.6621664 0 0 128078778.8430236 0 0 123053067.831015 0 0 87416099.72753805 0 0 92774368.84677838 0 0 98206345.23783743 0 0 82236601.05805998 0 0 103597507.0855349 0 0 108871410.9346281 0 0 77345072.03236499 0 0 72846651.51831205 0 0 68840046.13502781 0 0 113866181.8680413 0 0 118533098.8132021 0 0 122812280.3815024 0 0 65406664.87691037 0 0 62610022.17603101 0 0 60491494.83568448 0 0 59041619.57738958 0 0 58245243.42431888 0 0 58004493.29335731 0 0 60307531.7104828 0 0 60853057.75275598 0 0 62921417.71784632 0 0 66333678.30868924 0 0 67522819.63301209 0 0 63311340.32466913 0 0 65567735.81459062 0 0 69575909.26478159 0 0 70663980.25882915 0 0 71335059.93766515 0 0 72290705.33325028 0 0 234367294.9082486 0 0 197436753.4430599 0 0 176137183.5871324 0 0 161393709.5359971 0 0 151390070.2437274 0 0 144723390.1557583 0 0 140937225.4904412 0 0 138664020.0202768 0 0 136968008.1142721 0 0 130536587.5550731 0 0 132720475.9636866 0 0 131358639.1094521 0 0 126204799.0777251 0 0 126617676.6702518 0 0 86179368.16988492 0 0 91081280.90195678 0 0 96045107.93884324 0 0 100968555.7057516 0 0 81446651.39724597 0 0 105752951.9592061 0 0 110321373.5937119 0 0 76992930.98166156 0 0 72923257.44915582 0 0 69332929.13853046 0 0 114619551.0992686 0 0 118532510.7472202 0 0 122005849.8016752 0 0 66297956.91998854 0 0 63875929.11858055 0 0 62084306.80981235 0 0 60908684.55842493 0 0 60298358.14141152 0 0 60587344.0249234 0 0 62645974.5281025 0 0 63026615.46785708 0 0 68896073.69724014 0 0 67653083.06013398 0 0 64875562.93421788 0 0 67022802.46889823 0 0 69091986.93918717 0 0 70280843.44380912 0 0 72034948.98183565 0 0 72915400.68845649 0 0 208223851.0937729 0 0 180155905.5855031 0 0 163803204.5664555 0 0 150431525.516784 0 0 142860261.2662784 0 0 138205130.2875621 0 0 135572069.3225116 0 0 134052429.2818267 0 0 132975107.1516366 0 0 135471421.4673122 0 0 129798651.4735453 0 0 128841550.9334814 0 0 129829114.2265311 0 0 125047313.9811908 0 0 87704353.73943557 0 0 92704304.4366315 0 0 97802108.76092865 0 0 102898155.3276412 0 0 82900312.65568788 0 0 107894776.37726 0 0 112720177.1970412 0 0 78389052.50808427 0 0 74261977.93745129 0 0 70599250.3351443 0 0 117256211.0345039 0 0 121393915.0624931 0 0 125049838.8394377 0 0 67466506.97584552 0 0 64911848.34520651 0 0 62956777.29730935 0 0 61600186.72666883 0 0 60823383.57986178 0 0 62717546.07687928 0 0 62917952.10933679 0 0 64711080.26623292 0 0 68376600.30811217 0 0 67480524.70957673 0 0 65128919.70368797 0 0 67071527.41496487 0 0 70441921.60953796 0 0 71221174.15130371 0 0 71546975.03623796 0 0 72547417.69751361 0 0 249417411.1972895 0 0 211118613.845836 0 0 185175301.5553061 0 0 168224628.4836102 0 0 156951314.8878126 0 0 149272931.5195714 0 0 144432180.0096976 0 0 141370612.493564 0 0 139249477.3484505 0 0 137527237.6295938 0 0 131979380.1910132 0 0 134000271.2016329 0 0 132427151.9037245 0 0 127673056.2221725 0 0 128177191.6084642 0 0 91006613.10755348 0 0 86434265.24375916 0 0 95672664.1208794 0 0 100338359.8968718 0 0 104918717.651655 0 0 82054308.77095987 0 0 109319308.0870755 0 0 113472046.2538291 0 0 77959972.67731673 0 0 74238971.89507197 0 0 70967121.48788296 0 0 117333193.1026025 0 0 120784136.0735262 0 0 123795491.7622947 0 0 68209233.58175749 0 0 65998391.24458349 0 0 64354968.73359954 0 0 63272264.53919359 0 0 63200008.03581676 0 0 64864246.50563081 0 0 65078348.12304406 0 0 69577838.732748 0 0 68764519.99846683 0 0 66719899.83928233 0 0 68580667.70623371 0 0 70174920.80512883 0 0 70789705.55618833 0 0 72587414.65112394 0 0 73392172.08620632 0 0 228046986.6009994 0 0 187401360.0503909 0 0 169070614.8713531 0 0 156160243.2041008 0 0 147530453.0804881 0 0 142030038.6122797 0 0 138530323.4617256 0 0 136354019.8978849 0 0 134863914.9164589 0 0 133652764.4425496 0 0 135968349.7286443 0 0 130947564.9520527 0 0 129771824.7504113 0 0 130762842.2820275 0 0 126361562.1885142 0 0 92587633.45436157 0 0 87942177.60006587 0 0 97350712.00124817 0 0 102140507.8204599 0 0 106877373.5261118 0 0 83502416.48710254 0 0 111450860.2723773 0 0 115787373.086476 0 0 79353131.50463296 0 0 75572206.546042 0 0 72225891.5282945 0 0 119781253.8542 0 0 123353316.9345206 0 0 126455739.5894301 0 0 69363174.55676086 0 0 67027705.60563546 0 0 65226279.30567591 0 0 63963076.63925603 0 0 65430700.50168527 0 0 65386065.85478007 0 0 66871183.90529097 0 0 69543711.2076831 0 0 68926311.07250744 0 0 67074648.22205686 0 0 68889188.60501336 0 0 71965088.22167352 0 0 71562046.13116992 0 0 72275809.72544141 0 0 72964687.87888473 0 0 270966114.8948905 0 0 220169581.4128995 0 0 188131488.6390151 0 0 203986522.0797198 0 0 171364506.7029665 0 0 159818166.0640761 0 0 152017947.1843258 0 0 146704184.2814876 0 0 143153149.4517699 0 0 140694636.7453406 0 0 138810690.4008751 0 0 137191973.269625 0 0 132520618.262425 0 0 134377736.8159823 0 0 132748223.0725796 0 0 128480556.8166632 0 0 129027338.798054 0 0 95285745.01084957 0 0 90922076.00044358 0 0 86676286.17125823 0 0 99678628.72474395 0 0 104022648.0990854 0 0 108260148.1811419 0 0 82636962.88209434 0 0 112266479.6865367 0 0 115994811.1720787 0 0 78878241.51073204 0 0 75472216.07448103 0 0 72488792.8023638 0 0 119379026.9304983 0 0 122371338.9973824 0 0 124933678.0570959 0 0 69976874.52187237 0 0 67962871.79038219 0 0 66455216.15591718 0 0 66128751.27146009 0 0 67415052.07441713 0 0 67404642.7588806 0 0 70487081.96045604 0 0 70106852.92323731 0 0 68722903.26686747 0 0 70393170.24698235 0 0 71761248.43621814 0 0 71878358.45868544 0 0 73945217.61872803 0 0 73416308.27289128 0 0 237308713.8841577 0 0 206283351.48691 0 0 171939624.8073442 0 0 188024429.8875824 0 0 159525164.2008033 0 0 150496394.9075343 0 0 144604360.603624 0 0 140621199.1759084 0 0 137979879.4284337 0 0 136156987.5957603 0 0 134761882.6899013 0 0 133551618.0597683 0 0 135654112.6263639 0 0 131343382.1392484 0 0 130084478.3248321 0 0 131056557.181332 0 0 127066046.0607354 0 0 96892117.93417507 0 0 92459288.43316548 0 0 88156278.86815341 0 0 101370163.4237377 0 0 105824422.2511979 0 0 110196133.8063586 0 0 84063151.87597704 0 0 114321520.6250102 0 0 118147780.2939123 0 0 80253956.74003695 0 0 76789082.98445216 0 0 73729202.58361338 0 0 121615211.7015324 0 0 124673965.5739454 0 0 127255187.5583442 0 0 71111896.70303726 0 0 68970914.406984 0 0 67314809.92236114 0 0 68380948.59649497 0 0 68118828.82420437 0 0 69250557.56761914 0 0 71675254.0421401 0 0 70620791.16680656 0 0 69248289.51238148 0 0 70971657.92623775 0 0 73162739.40802228 0 0 73127313.73287357 0 0 73695264.89642109 0 0 73230943.35985908 0 0 282785931.9932168 0 0 236071362.8968737 0 0 207438575.8357146 0 0 170915654.7194718 0 0 183050558.2216883 0 0 160361119.6507071 0 0 152814457.2132458 0 0 147563710.2775813 0 0 143873735.3924638 0 0 141266920.3615389 0 0 139314009.3175514 0 0 137705340.8063504 0 0 136243043.2527967 0 0 132381469.9749203 0 0 134101572.2594053 0 0 132510806.6899081 0 0 128721165.584014 0 0 129328625.9678555 0 0 94915543.63404253 0 0 99036501.98580772 0 0 90849980.5813513 0 0 86919101.56302671 0 0 103135285.7627751 0 0 107140565.2279508 0 0 110993932.44795 0 0 83196428.17366661 0 0 114634999.9292972 0 0 117906475.1036688 0 0 79745266.76660475 0 0 76626643.42255329 0 0 73906246.72231768 0 0 120865128.020402 0 0 123427003.7189227 0 0 125590823.849233 0 0 71618570.95111673 0 0 69779133.67345378 0 0 69231882.71474686 0 0 70152009.23619215 0 0 69936715.79528736 0 0 72178386.13117579 0 0 71999152.11228584 0 0 70945331.76486716 0 0 72506874.17655982 0 0 73188346.02138782 0 0 73633582.29248159 0 0 74804521.08335713 0 0 74673675.39875159 0 0 245102597.7098587 0 0 211580537.3766499 0 0 187016413.7795924 0 0 160025316.3253637 0 0 173104778.4448225 0 0 151767082.8858407 0 0 145809642.9533015 0 0 141675270.976443 0 0 138810198.6492563 0 0 136789590.4421592 0 0 135277860.1496911 0 0 134031332.7875214 0 0 132891893.057117 0 0 134811479.6632648 0 0 131173962.4582736 0 0 129909612.1598599 0 0 130868505.3274304 0 0 127305717.4747555 0 0 96458337.54544239 0 0 100640038.8205746 0 0 92340502.05485587 0 0 88362350.8746902 0 0 104811463.7931819 0 0 108900779.6952261 0 0 112854098.4311434 0 0 84593461.46211761 0 0 116546688.3141333 0 0 119886997.8511758 0 0 81093664.85004301 0 0 77914043.00117996 0 0 75111325.15467487 0 0 122877588.8876282 0 0 125457961.1548465 0 0 127577213.7840326 0 0 72724605.79536098 0 0 70761028.70099203 0 0 71452903.72136058 0 0 70986085.67922688 0 0 71807533.08148752 0 0 73446211.09209108 0 0 72578486.20558219 0 0 71626593.7724724 0 0 73209735.24398626 0 0 74425049.86700663 0 0 74800482.30479677 0 0 74618175.98882845 0 0 74423468.21056855 0 0 287397364.9903161 0 0 243132955.2217958 0 0 211618528.7693893 0 0 188040803.2821815 0 0 168294008.7345982 0 0 159037238.0862112 0 0 169701101.7896062 0 0 152000258.3926123 0 0 147077456.935557 0 0 143535139.5760563 0 0 140970661.8761596 0 0 139056676.8346909 0 0 137526046.4211729 0 0 136184181.1247748 0 0 134906521.7083724 0 0 131766923.7637672 0 0 133360970.574383 0 0 131854267.9063269 0 0 128571620.2180813 0 0 129203921.9394621 0 0 94581182.75092532 0 0 98433355.96319738 0 0 102288760.9208381 0 0 90803194.01041454 0 0 87168870.31274544 0 0 106077457.8949289 0 0 109752378.7437246 0 0 113219104.2698401 0 0 83739048.44488478 0 0 116438186.3076604 0 0 119332496.4941159 0 0 80574769.24390458 0 0 77727897.94465034 0 0 75239230.94564559 0 0 121879109.5613075 0 0 124066044.6206972 0 0 125842224.3981343 0 0 73148127.69373758 0 0 72412185.14902243 0 0 73009712.31997788 0 0 72611190.55459957 0 0 73990827.44930942 0 0 73937161.13430388 0 0 73335051.39926744 0 0 74710254.47599517 0 0 75281487.13488559 0 0 75331821.11687799 0 0 75913399.82912542 0 0 257614136.1566809 0 0 213276286.4415718 0 0 189492863.6561411 0 0 172281289.75781 0 0 157770402.1456141 0 0 151660036.9110901 0 0 169736930.355784 0 0 145776323.6372618 0 0 141695942.6360243 0 0 138806323.850168 0 0 136730217.3380002 0 0 135188862.5358961 0 0 133958396.1974555 0 0 132882762.5067338 0 0 131858982.0324395 0 0 133621781.16217 0 0 130602871.2078578 0 0 129380961.7119891 0 0 130321672.9746745 0 0 127192085.1387219 0 0 96062324.03106397 0 0 99958521.66645211 0 0 103863422.4363556 0 0 92243682.57765858 0 0 88568936.95341182 0 0 107708071.4171115 0 0 111446695.5848245 0 0 114955372.3204739 0 0 85098197.27976529 0 0 118216084.420723 0 0 121125228.6215248 0 0 81883160.90548106 0 0 78971169.97587433 0 0 76404449.11553575 0 0 123683680.828458 0 0 125831469.9746087 0 0 127530352.2477165 0 0 74214927.46323422 0 0 74569628.3005428 0 0 73931954.49233972 0 0 74452076.64436148 0 0 75315751.836482 0 0 74618883.51090676 0 0 74125746.6272503 0 0 75494508.32852532 0 0 75677284.31383179 0 0 76611702.13162659 0 0 75837506.35047148 0 0 299791507.5598899 0 0 246687918.6326091 0 0 226333184.7547371 0 0 212384135.871608 0 0 189997555.4630503 0 0 172512444.1717514 0 0 157427098.1002318 0 0 149984757.4924709 0 0 159781591.9454478 0 0 145534641.1897657 0 0 142259404.0340202 0 0 139866478.66917 0 0 138087040.3511117 0 0 136697104.594848 0 0 135517273.0473747 0 0 134424119.3345505 0 0 133336892.8615709 0 0 130823716.4355584 0 0 132303660.4968469 0 0 130933660.6879128 0 0 128107015.8035233 0 0 128762603.8936257 0 0 94289756.00231957 0 0 97881654.36491902 0 0 101498263.1163304 0 0 105076596.3951517 0 0 90785475.07368445 0 0 87425497.39772612 0 0 108558820.740998 0 0 111873502.1337515 0 0 114984175.2372624 0 0 84268610.00529978 0 0 117813922.8448891 0 0 120340948.7024653 0 0 81368959.38843285 0 0 78767763.19596128 0 0 76495193.45727506 0 0 122522764.7676141 0 0 124344679.4605821 0 0 125771066.1859048 0 0 75598705.05314402 0 0 75896252.50066113 0 0 75353555.48849189 0 0 75915418.31842685 0 0 76017543.89893831 0 0 75753825.02069032 0 0 76987592.30655834 0 0 76865771.73247784 0 0 77033893.46066627 0 0 77046039.9036852 0 0 258474925.9674826 0 0 246258424.6665213 0 0 210951599.6283092 0 0 192928386.0507622 0 0 174749857.5968052 0 0 162215045.7317381 0 0 149859075.3722653 0 0 144618177.256497 0 0 159110028.9551331 0 0 140792360.5871479 0 0 138004404.3112342 0 0 135995248.0524237 0 0 134508226.3493241 0 0 133349395.4965979 0 0 132371476.7369397 0 0 131471738.7596082 0 0 130583306.7731332 0 0 132219166.0464355 0 0 129738623.5492189 0 0 128602578.9010588 0 0 129521179.9189558 0 0 126797765.5156741 0 0 95710934.77233465 0 0 99335223.38349895 0 0 102986223.7195981 0 0 106599933.3167541 0 0 92173433.22950886 0 0 88778028.77448998 0 0 110120968.42828 0 0 113463217.8868331 0 0 116597834.421139 0 0 85580277.73370966 0 0 119434486.0533379 0 0 121963169.672369 0 0 82628518.3133671 0 0 79962806.44939499 0 0 77612321.89243555 0 0 124115745.8590079 0 0 125868915.7960846 0 0 127200182.1910696 0 0 77658191.98346269 0 0 76879927.86904871 0 0 77092190.57256861 0 0 77245520.67802255 0 0 76772881.13265027 0 0 76635676.02476791 0 0 77829258.09290747 0 0 77138686.09385978 0 0 78536184.66365975 0 0 78279897.76507944 0 0 77221805.46379054 0 0 226443248.9878611 0 0 209980562.3484795 0 0 192055116.4362178 0 0 173205866.4281082 0 0 163728057.5210186 0 0 156720145.1600265 0 0 147146987.8611738 0 0 151866441.007789 0 0 143168787.0119158 0 0 140221560.4071565 0 0 138066848.2776543 0 0 136488368.3413714 0 0 135285188.9054407 0 0 134302297.1798594 0 0 133412817.4265781 0 0 132544569.7776251 0 0 131643017.2497356 0 0 129656576.3035122 0 0 131047197.3356879 0 0 129816609.6471719 0 0 127420661.3986302 0 0 128089910.8924138 0 0 97387546.4312266 0 0 94044998.64447145 0 0 100773077.3388382 0 0 104142534.418236 0 0 107438352.4773478 0 0 90793421.79597232 0 0 87690608.38135847 0 0 110601038.3150782 0 0 113578236.9755043 0 0 116335095.7308479 0 0 84788624.75889374 0 0 118824783.320197 0 0 121001084.3663068 0 0 82131904.79033527 0 0 79742471.93038458 0 0 122849067.7344802 0 0 124337186.9897197 0 0 125457626.7679642 0 0 78737278.36020373 0 0 78708838.39614457 0 0 78044368.54336354 0 0 77949561.6645027 0 0 78131253.70459583 0 0 78217386.72072546 0 0 79268949.21762981 0 0 78592726.3777066 0 0 79212012.48288259 0 0 78489025.58941449 0 0 194313578.910728 0 0 177108002.5381629 0 0 172717343.4048897 0 0 158069537.8063876 0 0 152275561.8281401 0 0 142510921.0326268 0 0 146694081.1880784 0 0 139056208.4244958 0 0 136499294.5935796 0 0 134637154.4819147 0 0 133275809.6858984 0 0 132239121.6840368 0 0 131391149.6257759 0 0 130640492.8647348 0 0 129910564.5848022 0 0 129158732.1033095 0 0 130687453.4755079 0 0 128680698.9000141 0 0 127648520.0390662 0 0 128549508.4429572 0 0 126198050.4821422 0 0 98774813.81552227 0 0 95405012.72731149 0 0 102183778.776392 0 0 105574638.5152775 0 0 108889811.8419491 0 0 92129782.18882243 0 0 88985063.79491936 0 0 112071383.4739247 0 0 115061390.9658901 0 0 117814287.6761424 0 0 86046373.19338888 0 0 120295878.3263501 0 0 122443444.222648 0 0 83335497.74483277 0 0 80898496.78717035 0 0 124233178.7088196 0 0 125637464.3633027 0 0 126643487.9567499 0 0 80617201.45266004 0 0 79753421.15196104 0 0 79702020.61401162 0 0 79221118.63366707 0 0 78954770.64142098 0 0 79131256.8923077 0 0 80140390.21734728 0 0 78723518.42996633 0 0 79587082.14376561 0 0 79208879.12339254 0 0 185553992.2501599 0 0 164413507.0843683 0 0 151225928.5144313 0 0 156006443.6896148 0 0 146746034.5057726 0 0 139955100.7467363 0 0 143049546.2772084 0 0 137523178.5874928 0 0 135700589.3658567 0 0 134364154.7244691 0 0 133380300.1529414 0 0 132609046.995242 0 0 131940408.9219494 0 0 131297319.1739104 0 0 130624487.3450515 0 0 129897993.6276489 0 0 128359599.9281835 0 0 129669953.2831501 0 0 128589935.3246789 0 0 126565187.4438588 0 0 127244925.5714465 0 0 100115148.9011693 0 0 96945922.27085316 0 0 93820045.82670915 0 0 103282204.3637955 0 0 106395495.7213494 0 0 109401957.4568683 0 0 90804047.94113523 0 0 87937479.14332452 0 0 112256261.9594074 0 0 114923050.2189096 0 0 117354217.7221909 0 0 85262549.51461656 0 0 119515251.7449431 0 0 121371976.2781882 0 0 82820060.84917602 0 0 122912778.3466961 0 0 124108458.701199 0 0 124954962.2078136 0 0 81734949.60430311 0 0 81459645.23708841 0 0 80700104.83356088 0 0 80090892.77225409 0 0 80275272.07929374 0 0 80654223.79255907 0 0 81559540.54598291 0 0 80060945.55617802 0 0 80669326.83711314 0 0 172685774.650034 0 0 166664604.4356912 0 0 147353166.0402374 0 0 152461232.4944653 0 0 142866616.53755 0 0 136564503.0511966 0 0 139414455.8562227 0 0 134363501.1978548 0 0 132735220.646116 0 0 131556197.0334253 0 0 130678133.3111742 0 0 129992869.3663856 0 0 129405273.9912786 0 0 128850350.0486395 0 0 128280989.8875644 0 0 127665580.9508397 0 0 129102539.8922369 0 0 127495020.8536261 0 0 126570921.4088263 0 0 127455804.481002 0 0 125452004.4371452 0 0 101454391.3233535 0 0 98276202.38759542 0 0 95126239.58392468 0 0 104635527.6599235 0 0 107758896.9092802 0 0 110774633.1952677 0 0 92089916.54594219 0 0 89179986.58656667 0 0 113635838.3768833 0 0 116295718.9348073 0 0 118709190.5260863 0 0 86470640.63581581 0 0 120838161.7590669 0 0 122642241.1130434 0 0 83977605.75557421 0 0 124096430.7262479 0 0 125198368.4669267 0 0 125928480.8535304 0 0 83478422.46928737 0 0 82524633.6212775 0 0 82260959.91796717 0 0 81181409.33268361 0 0 81085282.454394 0 0 81584912.56314081 0 0 82442017.19156551 0 0 80295786.27858815 0 0 80965249.0762469 0 0 157239636.2592738 0 0 141783945.8996774 0 0 144547527.3866374 0 0 146913879.3757633 0 0 138736892.9807312 0 0 136328077.506522 0 0 134385097.679086 0 0 132906136.8388734 0 0 131842672.2872083 0 0 131085750.1492204 0 0 130530650.1419305 0 0 130083762.7536067 0 0 129664100.244038 0 0 129222616.7119935 0 0 128728255.180115 0 0 128156594.8377784 0 0 126981070.2007134 0 0 128227523.6570174 0 0 127286691.9539732 0 0 125606533.8930472 0 0 126292978.226641 0 0 102496896.4461958 0 0 99507731.44685659 0 0 96538541.10010636 0 0 93603086.37989002 0 0 105433840.0764126 0 0 108290137.7689464 0 0 111023606.2535799 0 0 90822711.9517663 0 0 88190395.4072962 0 0 113591677.0105049 0 0 115954946.0063318 0 0 118079181.7394463 0 0 85724389.98908755 0 0 119934005.9053288 0 0 121499406.5021019 0 0 122759032.5093427 0 0 123698968.3930319 0 0 124310495.3083053 0 0 84587559.40099895 0 0 84117456.22590199 0 0 83273647.32792288 0 0 81934839.94758232 0 0 82390154.76766871 0 0 83051114.99454172 0 0 83786131.22337018 0 0 81670473.72206962 0 0 82300967.22779179 0 0 154470626.4025206 0 0 138873585.7609568 0 0 142239050.7090343 0 0 145429009.8539084 0 0 135878601.1747504 0 0 133573662.6216523 0 0 131753992.2014427 0 0 130412541.2565825 0 0 129434000.8225849 0 0 128746650.3824237 0 0 128234678.8483112 0 0 127822669.6832959 0 0 127448717.8164563 0 0 127066246.8251608 0 0 126635222.6762664 0 0 126142626.2852755 0 0 127501012.6583925 0 0 126234994.1753605 0 0 125436151.5883445 0 0 126303291.4387507 0 0 124598768.2752375 0 0 103776630.1183114 0 0 100792882.3473202 0 0 97809822.28567481 0 0 94859381.83674648 0 0 106716491.4172966 0 0 109573236.6462889 0 0 112304234.2578787 0 0 92035630.12754087 0 0 89388471.49582693 0 0 114861409.9442755 0 0 117203448.2505007 0 0 119296731.5371389 0 0 86885500.57434136 0 0 121103568.1914033 0 0 122601962.973834 0 0 123768957.9007769 0 0 124604305.7631757 0 0 125100102.7612568 0 0 86184756.09081429 0 0 85176249.15886654 0 0 84753879.28195775 0 0 83229032.45418757 0 0 83230919.46115565 0 0 84000745.52183583 0 0 84694007.11410654 0 0 81979354.64694004 0 0 82814532.53914991 0 0 147163504.9378702 0 0 134549402.789574 0 0 136450949.1419945 0 0 138666568.41717 0 0 142176448.758905 0 0 132570523.492719 0 0 131023801.7534897 0 0 129853924.1265206 0 0 129052907.6145968 0 0 128509932.2883421 0 0 128169569.2533209 0 0 127929311.4292582 0 0 127726563.3804936 0 0 127502329.5644859 0 0 127231615.3253248 0 0 126884700.5502953 0 0 126449912.8694302 0 0 125580576.8745734 0 0 126767112.0752791 0 0 125967365.6983858 0 0 124569648.4348591 0 0 125261976.381487 0 0 104550866.3184225 0 0 101774676.3618618 0 0 98945036.0785457 0 0 96168062.54974453 0 0 93482418.99700034 0 0 107257450.6145603 0 0 109864828.5562359 0 0 112333177.6131436 0 0 90890122.37657899 0 0 88445666.75070921 0 0 114624925.5151678 0 0 116708707.3107811 0 0 118554413.1544652 0 0 120135935.5458054 0 0 121436911.9199443 0 0 122445440.6631144 0 0 123154405.636959 0 0 123563524.3063042 0 0 87283487.00112957 0 0 86660025.47903119 0 0 85758776.62004651 0 0 83980414.10016431 0 0 84488137.55497725 0 0 85360144.68993165 0 0 85940635.16182831 0 0 83387154.40484738 0 0 84127001.2793768 0 0 132216870.1640639 0 0 134517133.6210387 0 0 136778061.0683551 0 0 138993745.0599663 0 0 130343514.0599965 0 0 128871490.6500865 0 0 127796285.2002919 0 0 127032600.1435314 0 0 126532036.2518969 0 0 126192663.7923254 0 0 125958377.0510817 0 0 125759740.4097828 0 0 125561589.3650055 0 0 125319129.4183119 0 0 125014403.9748345 0 0 124635209.7119068 0 0 125924978.8536454 0 0 124952137.1075637 0 0 124251527.7272478 0 0 125104910.6612977 0 0 123676509.5752905 0 0 105761858.46604 0 0 102992234.5492583 0 0 100179925.8133094 0 0 97370866.03844631 0 0 94668296.63215053 0 0 108464133.5734181 0 0 111061216.5942036 0 0 113511885.829227 0 0 92059509.96607518 0 0 89593118.04129082 0 0 115777694.8790039 0 0 117826619.7085761 0 0 119624011.4099078 0 0 121146047.2649958 0 0 122371344.8444965 0 0 123290719.5389546 0 0 123900108.4489624 0 0 124196419.537947 0 0 88750118.32804109 0 0 87709507.1517397 0 0 87120191.20037426 0 0 85112207.50463049 0 0 85339300.61032476 0 0 86316911.57070111 0 0 86848389.63638283 0 0 83740710.44804944 0 0 84652872.14568791 0 0 128905190.7704066 0 0 130197769.8103642 0 0 131903274.8459659 0 0 134411492.4299207 0 0 127625036.2181854 0 0 126717547.8183133 0 0 126125343.4754127 0 0 125783390.2899462 0 0 125624723.7890558 0 0 125569262.6883637 0 0 125560708.0061053 0 0 125539856.0525854 0 0 125477336.8014167 0 0 125341428.0342112 0 0 125119029.0098426 0 0 124802088.7456044 0 0 124185472.4875172 0 0 125321365.4388738 0 0 124642758.4034608 0 0 123500984.6223139 0 0 124188541.4357512 0 0 106305540.8862059 0 0 103739982.467076 0 0 101099290.5988405 0 0 98465397.61967447 0 0 95886154.14489415 0 0 93393787.58169577 0 0 108785532.2456161 0 0 111152342.0072399 0 0 113365080.3609906 0 0 91001431.20526595 0 0 115396153.4035154 0 0 117220307.4386182 0 0 118807851.1084455 0 0 120139589.7481937 0 0 121205375.9218564 0 0 121997412.8187082 0 0 122508963.4232462 0 0 122743630.3558164 0 0 89836338.39681429 0 0 89052453.86830392 0 0 88120195.16193786 0 0 85877432.8821377 0 0 86446575.02937491 0 0 87565879.26791689 0 0 87994001.60428683 0 0 85079597.54984081 0 0 85918967.93587215 0 0 127033463.4949094 0 0 128690003.5071225 0 0 130130304.1270957 0 0 131986339.2458327 0 0 125891408.1698442 0 0 125023456.7413543 0 0 124462964.3571554 0 0 124127419.9779186 0 0 123956276.4857755 0 0 123884018.6094783 0 0 123853751.2654043 0 0 123825412.2608998 0 0 123761543.6113583 0 0 123638033.8663806 0 0 123442043.8230862 0 0 123169003.0960923 0 0 124393320.5788024 0 0 123659526.8580549 0 0 123064239.5521463 0 0 123894704.7392701 0 0 122709680.0416996 0 0 107440371.4594196 0 0 104884136.8613152 0 0 102262565.4945637 0 0 99628167.17984866 0 0 97030702.3989009 0 0 94528160.89288515 0 0 109906523.3687315 0 0 112249713.6163261 0 0 114436385.587975 0 0 92114725.62928791 0 0 116433345.0283372 0 0 118209695.1471761 0 0 119742733.2044531 0 0 121009445.1763046 0 0 121997307.2211262 0 0 122699021.0166393 0 0 123114010.0739735 0 0 123243317.4723328 0 0 91136091.81651594 0 0 90087430.57844073 0 0 89354106.97987837 0 0 86984598.66269143 0 0 87346212.1115125 0 0 88514982.36526255 0 0 88899323.54725496 0 0 85482525.95771003 0 0 86477003.57620858 0 0 124318448.5066742 0 0 125171530.904717 0 0 126123674.6560446 0 0 128144681.0721732 0 0 123614838.3697083 0 0 123195771.0458328 0 0 123009201.6837822 0 0 122996030.3503208 0 0 123095516.6663508 0 0 123250778.8793871 0 0 123407666.0078028 0 0 123529309.1887336 0 0 123587276.2571518 0 0 123562590.0755756 0 0 123443666.7537791 0 0 123229271.7128054 0 0 122818135.3000401 0 0 123905092.3182519 0 0 123337617.7631998 0 0 122418029.8969295 0 0 123098454.49442 0 0 107781243.7979024 0 0 105415828.5199435 0 0 102973723.5777801 0 0 100512448.4317871 0 0 98067176.28292754 0 0 95668516.19722758 0 0 93349621.04269536 0 0 110043644.5079764 0 0 112175806.4044662 0 0 114152424.6023055 0 0 115947723.5128079 0 0 117530039.3899779 0 0 118880613.6514891 0 0 119990832.0320624 0 0 120847398.0366837 0 0 121448641.597835 0 0 121791548.6717263 0 0 121879486.1172613 0 0 92196503.34191 0 0 91285444.05813134 0 0 90339166.21992923 0 0 87838694.25641316 0 0 88352448.69725786 0 0 89650243.58945988 0 0 89932371.18690382 0 0 86794158.48344821 0 0 87697479.18007287 0 0 122940720.6404186 0 0 124025282.9696655 0 0 124894983.877831 0 0 126092929.4863746 0 0 122249832.4028033 0 0 121837726.3007064 0 0 121642893.1096296 0 0 121607050.7947726 0 0 121675934.3083212 0 0 121793845.5509131 0 0 121919720.7847622 0 0 122017950.2383646 0 0 122064233.0635795 0 0 122041362.9155865 0 0 121940055.4966367 0 0 121758956.3229809 0 0 122923170.831412 0 0 122387640.2656869 0 0 121888466.3628544 0 0 122697481.0440899 0 0 121723093.5846516 0 0 108836106.9975914 0 0 106488345.3626907 0 0 104065991.0392727 0 0 101612448.4861495 0 0 99169154.80542573 0 0 96761674.09779523 0 0 94430144.67800564 0 0 111074620.3985282 0 0 113177863.7413015 0 0 115118783.9372553 0 0 116866114.6847981 0 0 118399470.4859406 0 0 119691423.0731274 0 0 120733527.6631379 0 0 121512788.3438661 0 0 122026059.7924383 0 0 122274799.4364062 0 0 122265447.2647592 0 0 93336029.29169181 0 0 92293820.48125041 0 0 91447879.2728972 0 0 88627810.84815788 0 0 89328221.36684434 0 0 90586438.65554057 0 0 90804718.9517514 0 0 87190414.61873655 0 0 88124984.29430199 0 0 120690622.4737678 0 0 121220648.8023951 0 0 121569696.4120272 0 0 123090629.7420684 0 0 120384881.805543 0 0 120294322.5148543 0 0 120383538.8107646 0 0 120594310.1511977 0 0 120875242.564957 0 0 121176093.6714846 0 0 121455271.361287 0 0 121682060.555461 0 0 121833641.470727 0 0 121897209.3836767 0 0 121866055.5143877 0 0 121741622.6374932 0 0 121495753.1088084 0 0 122536902.7743576 0 0 122066724.5093569 0 0 121337505.6530077 0 0 122010293.5301583 0 0 106845789.8245162 0 0 109003797.1199182 0 0 104599088.5800892 0 0 102304859.5026965 0 0 100005964.3789757 0 0 97725116.24233745 0 0 95491240.20193219 0 0 111056769.3824795 0 0 112971094.7651326 0 0 114726171.5984767 0 0 116292832.7223022 0 0 117659896.9812991 0 0 118805419.3737626 0 0 119717177.9933382 0 0 120391124.4591846 0 0 120826501.8445222 0 0 121023425.1759975 0 0 120988824.5176276 0 0 94364275.76054345 0 0 93344746.20556642 0 0 92404363.9062548 0 0 89553114.48178796 0 0 90270405.78271827 0 0 91620392.40424505 0 0 91798207.04182205 0 0 88507983.43451092 0 0 119586340.880795 0 0 120197048.8870879 0 0 121404568.4597697 0 0 121101465.158069 0 0 119279491.8836566 0 0 119175795.7373789 0 0 119238304.5833892 0 0 119412875.6329878 0 0 119650102.8090357 0 0 119906853.893711 0 0 120147024.976052 0 0 120343474.341962 0 0 120477740.7180147 0 0 120537615.6190194 0 0 120516550.6748726 0 0 120410994.5681168 0 0 121523952.253117 0 0 121149498.0071624 0 0 120738916.7747045 0 0 121527793.6982915 0 0 120733943.5343789 0 0 107849048.9146799 0 0 109980264.8194971 0 0 105622038.0182685 0 0 103340769.4444113 0 0 101050639.5733139 0 0 98772271.18606089 0 0 96532270.21796873 0 0 112002903.968314 0 0 113883128.0361978 0 0 115594263.9751148 0 0 117112820.4210273 0 0 118421167.7991486 0 0 119504663.2951264 0 0 120346596.9120003 0 0 120943684.6939239 0 0 121295278.8378877 0 0 121404955.5998197 0 0 121281214.5267563 0 0 95347659.51087067 0 0 94321873.24790573 0 0 93372344.87235589 0 0 89721081.82542536 0 0 91006043.06885333 0 0 92512323.89123982 0 0 92648193.91014183 0 0 88927129.85403068 0 0 117797235.3816279 0 0 118149500.6744876 0 0 118870479.1558345 0 0 118438921.4077766 0 0 119438649.6410227 0 0 117732227.1022888 0 0 117869106.2898547 0 0 118144394.2455236 0 0 118509698.2181778 0 0 118915017.1789197 0 0 119318441.6533363 0 0 119684472.3555745 0 0 119987569.2528308 0 0 120212670.3022819 0 0 120348359.4543296 0 0 120390304.5233466 0 0 120338314.6002077 0 0 120225084.9665618 0 0 121223653.7380795 0 0 120842279.5148809 0 0 120272859.7820852 0 0 120937678.7451948 0 0 105985500.4568496 0 0 108049502.8273654 0 0 110015356.7912086 0 0 103865992.9055693 0 0 101716690.4079887 0 0 99562643.06674278 0 0 97431469.97271042 0 0 111862685.8536265 0 0 113574049.2556998 0 0 115118606.0452187 0 0 116483970.2968644 0 0 117652604.0013981 0 0 118608787.6324873 0 0 119343970.737967 0 0 119858946.2146944 0 0 120151345.9759234 0 0 120225408.1663032 0 0 120089215.1021977 0 0 96339729.66842884 0 0 95232228.92594828 0 0 94306059.06627624 0 0 90210911.22358634 0 0 91181606.74401288 0 0 92274330.39930348 0 0 93374721.9896366 0 0 93244016.08214794 0 0 116888605.8253168 0 0 117194076.642678 0 0 117579472.6263079 0 0 117457134.388818 0 0 117351527.6511512 0 0 116816605.8538847 0 0 116930040.7962446 0 0 117170404.3126092 0 0 117491514.1982996 0 0 117849070.6620907 0 0 118203483.2246928 0 0 118526816.6701027 0 0 118798097.73231 0 0 119001657.236746 0 0 119128744.323628 0 0 119172639.9478078 0 0 119133792.371804 0 0 120196778.3153508 0 0 119956993.8459898 0 0 119623558.9476079 0 0 120392133.4722831 0 0 119754747.6386784 0 0 106941301.3255851 0 0 108978584.0190821 0 0 110915288.1481744 0 0 104840710.3023687 0 0 102703804.0744134 0 0 100556709.173383 0 0 98427310.25000992 0 0 112728994.0701896 0 0 114397782.3265652 0 0 115894946.0873408 0 0 117208837.2776164 0 0 118315556.4602975 0 0 119208388.3239223 0 0 119875727.3629676 0 0 120314274.9701139 0 0 120527286.7805906 0 0 120520752.9853055 0 0 120304171.3958425 0 0 97182255.06238915 0 0 96180813.20697713 0 0 95141585.36164479 0 0 90581128.86739647 0 0 91541360.24630798 0 0 92576079.19002721 0 0 94354089.65050414 0 0 94064507.77867334 0 0 115377637.2509649 0 0 115479777.6655211 0 0 116015602.7874824 0 0 115709812.474418 0 0 116072794.6302345 0 0 115520933.3939989 0 0 115812097.5102706 0 0 116218590.6733465 0 0 116688724.5945572 0 0 117179536.4926151 0 0 117651689.6712729 0 0 118077911.356416 0 0 118438068.495811 0 0 118718694.3671036 0 0 118911771.1029686 0 0 119012238.036768 0 0 119021892.1123389 0 0 119015643.3232875 0 0 119971908.2692093 0 0 119668884.2776029 0 0 119237333.6196987 0 0 119891245.9323955 0 0 107174064.008686 0 0 105219050.1173798 0 0 109055100.8588682 0 0 110836869.084504 0 0 103217514.9541811 0 0 101193558.8967525 0 0 99172658.67116511 0 0 112494336.2737335 0 0 114009434.1519512 0 0 115363456.8170951 0 0 116541494.9439108 0 0 117529748.7930181 0 0 118319032.8679079 0 0 118898873.811471 0 0 119272699.7029631 0 0 119442309.1631808 0 0 119412998.2962878 0 0 119193426.1254086 0 0 98129464.4261121 0 0 96978734.78155585 0 0 96036956.59312528 0 0 91852688.66008119 0 0 92959863.93948527 0 0 95067367.92760934 0 0 94178965.51958993 0 0 114622265.6047333 0 0 114684898.669322 0 0 114896237.1199377 0 0 114555127.7547314 0 0 114446392.2153283 0 0 114750148.5519121 0 0 115013654.3161383 0 0 115380361.2318269 0 0 115803496.4921136 0 0 116242179.6968275 0 0 116665721.1645155 0 0 117049998.8091259 0 0 117377052.4630411 0 0 117634862.9738173 0 0 117814481.5608598 0 0 117911877.2159953 0 0 117930010.6607492 0 0 118944657.3029007 0 0 118815913.9047638 0 0 118552704.8505416 0 0 119300007.5789153 0 0 118795967.6438809 0 0 108061338.4695061 0 0 106130220.053495 0 0 109911832.1623404 0 0 111661571.6432081 0 0 104145259.5700992 0 0 102133722.6085931 0 0 100118877.2328981 0 0 113279831.0233866 0 0 114750735.6733631 0 0 116056716.3247709 0 0 117178873.3384949 0 0 118105306.7920928 0 0 118826994.6873536 0 0 119340318.4847036 0 0 119642822.9907296 0 0 119739202.9442489 0 0 119636274.6633236 0 0 119344803.9305519 0 0 98830710.09487717 0 0 97874467.17644502 0 0 96823239.20110402 0 0 92211191.27063039 0 0 93290188.35707664 0 0 95908180.46494192 0 0 94948438.64344621 0 0 95566804.24341267 0 0 113241906.4748358 0 0 113385109.2810158 0 0 113655831.6917412 0 0 113211177.2036954 0 0 113386611.0978988 0 0 113645055.7993543 0 0 114054852.0759358 0 0 114551605.148798 0 0 115091463.5088356 0 0 115637051.5260275 0 0 116154412.3670876 0 0 116621705.3468323 0 0 117022513.2049613 0 0 117345877.0050442 0 0 117582567.3237777 0 0 117730046.9186004 0 0 117790624.6582051 0 0 117871516.874237 0 0 118787218.3732084 0 0 118552730.8092327 0 0 118235474.7239505 0 0 118878456.4886922 0 0 106378509.5227183 0 0 108172411.5058413 0 0 104524789.0713963 0 0 109882292.9592671 0 0 111487414.0016997 0 0 102633266.4723861 0 0 100726764.8896263 0 0 112965898.8409323 0 0 114302197.7814169 0 0 115480348.3262259 0 0 116487455.504086 0 0 117313777.2416093 0 0 117950563.2624172 0 0 118395286.8102313 0 0 118648582.2112265 0 0 118713890.2622313 0 0 118598103.5472834 0 0 118310703.4567688 0 0 99731228.44284232 0 0 98527986.85269187 0 0 97687081.36042985 0 0 93431856.67578252 0 0 94489074.66914083 0 0 96758554.57266821 0 0 95345080.38823125 0 0 96161884.01406924 0 0 112610434.151765 0 0 112743478.3933591 0 0 112675503.6204476 0 0 112332288.9661276 0 0 112154011.0077977 0 0 112993076.9378797 0 0 113369745.3584902 0 0 113822966.3683894 0 0 114313808.3847444 0 0 114806364.6945868 0 0 115277345.3250948 0 0 115705568.6430036 0 0 116072807.3674541 0 0 116370664.4564779 0 0 116592587.6484097 0 0 116732793.0119697 0 0 116800485.8463706 0 0 117774183.7899704 0 0 117729023.0883515 0 0 117524945.849987 0 0 118255037.7766733 0 0 117863630.071509 0 0 107223107.7074438 0 0 108988994.6454526 0 0 105391475.8746286 0 0 110667549.6565361 0 0 112235790.8813981 0 0 103516783.3746464 0 0 101622188.0017443 0 0 113675098.9294507 0 0 114966945.7144014 0 0 116093951.2413271 0 0 117043565.1428312 0 0 117807628.5155095 0 0 118379791.6875664 0 0 118759138.2656028 0 0 118945230.6821361 0 0 118943243.1995881 0 0 118761149.9505378 0 0 118409671.0334233 0 0 100309476.1659844 0 0 99391029.25169472 0 0 98285017.36438702 0 0 93844438.94586326 0 0 94845505.9153398 0 0 97509650.11489613 0 0 96192399.46679839 0 0 96756568.43788557 0 0 111511340.0192645 0 0 111505703.9921116 0 0 111676279.6318024 0 0 111241005.3507351 0 0 111116270.7279645 0 0 112056934.7749987 0 0 112547047.6498248 0 0 113102688.0277403 0 0 113685101.6934397 0 0 114261508.903609 0 0 114807446.5426145 0 0 115302817.8922851 0 0 115730072.0883299 0 0 116083851.1714917 0 0 116355967.3300982 0 0 116538900.3022987 0 0 116642932.5458686 0 0 116785188.3976396 0 0 117668565.1628933 0 0 117490912.497747 0 0 117269721.2898391 0 0 117902251.4832481 0 0 105651025.702283 0 0 107359217.8498308 0 0 108998227.0044475 0 0 103893410.4127515 0 0 110546532.8056498 0 0 111985251.2032739 0 0 102106837.5511207 0 0 113300262.2003973 0 0 114471202.9284057 0 0 115486790.4973771 0 0 116338444.1611095 0 0 117020907.532763 0 0 117525301.1765196 0 0 117851183.9270799 0 0 118000154.8170507 0 0 117977317.9076225 0 0 117790014.3977904 0 0 117447925.7027101 0 0 101165107.0677091 0 0 99940975.939603 0 0 99092131.72708495 0 0 94986313.1067709 0 0 98116524.46663581 0 0 96322345.25776091 0 0 97451243.21596828 0 0 110758572.4911027 0 0 110977004.8233503 0 0 111147943.7530749 0 0 110425813.996971 0 0 110167366.434687 0 0 111501643.0754759 0 0 111952165.9721014 0 0 112460109.9037852 0 0 112993699.670013 0 0 113523885.5928138 0 0 114025899.9537223 0 0 114484325.9336729 0 0 114872963.940258 0 0 115201893.4871723 0 0 115457082.9150125 0 0 115633647.8165153 0 0 115738862.3665897 0 0 116669638.8658168 0 0 116696962.6417665 0 0 116548016.1375658 0 0 117253827.5114257 0 0 116963421.6721913 0 0 106455189.8142889 0 0 108137878.2229147 0 0 109747586.5037453 0 0 104718535.1304288 0 0 111261354.1078505 0 0 112661767.5780667 0 0 102948988.7500941 0 0 113931957.472943 0 0 115056877.0279509 0 0 116023484.3436082 0 0 116820530.7365127 0 0 117440583.1332393 0 0 117883695.369215 0 0 118147305.249674 0 0 118233999.8037247 0 0 118149907.31717 0 0 117903269.2267049 0 0 117504955.184886 0 0 101635989.79109 0 0 100753426.2509926 0 0 99600061.50528242 0 0 95400808.87919982 0 0 98843416.65118134 0 0 97019701.42680046 0 0 97936697.26771168 0 0 109762761.5412805 0 0 109913712.7303779 0 0 110262729.3271349 0 0 109255102.5662437 0 0 109410778.2379099 0 0 110712654.5005101 0 0 111247246.1526801 0 0 111831049.8352948 0 0 112437326.793016 0 0 113033495.5122641 0 0 113595047.7086385 0 0 114112756.3695445 0 0 114548657.281074 0 0 114922123.009173 0 0 115223942.4276874 0 0 115432448.2400918 0 0 115571425.8797379 0 0 115764558.883977 0 0 116613248.1732687 0 0 116484223.5613361 0 0 116350500.7317329 0 0 116967555.3962394 0 0 104985339.8857607 0 0 106610806.6666996 0 0 108179114.2885583 0 0 109670439.7732368 0 0 103321581.6692826 0 0 111067069.6407391 0 0 112351180.3356436 0 0 113510666.3126442 0 0 114532409.1908024 0 0 115403831.6110035 0 0 116117792.1983021 0 0 116669707.2299902 0 0 117056806.0206216 0 0 117278897.8997844 0 0 117338616.3875499 0 0 117241602.0629127 0 0 116995921.9654594 0 0 116611294.6200612 0 0 102436999.3565707 0 0 101213769.5931088 0 0 100372385.6630659 0 0 96316112.67896026 0 0 99322160.86946741 0 0 97559357.36877811 0 0 98596753.62306641 0 0 109443999.834159 0 0 109496976.6489436 0 0 109812909.8933194 0 0 109076699.9410269 0 0 108704031.9277427 0 0 110227525.3103235 0 0 110722206.2893334 0 0 111264112.8226177 0 0 111822925.8612873 0 0 112374920.3893089 0 0 112899395.9176737 0 0 113368750.6427339 0 0 113767043.8049645 0 0 114116617.5618142 0 0 114390888.4590186 0 0 114601477.989675 0 0 114736400.6892791 0 0 115635157.8951854 0 0 115720164.3415992 0 0 115627094.0708849 0 0 116306694.4615959 0 0 116099331.2090729 0 0 105751377.6450061 0 0 107353543.9238146 0 0 108893791.4220665 0 0 110352533.3590801 0 0 104106882.1588194 0 0 111713835.6360757 0 0 112958162.6318896 0 0 114072076.9680671 0 0 115045523.2328294 0 0 115865982.9430972 0 0 116526448.2315404 0 0 117021870.0208484 0 0 117351620.4807298 0 0 117515825.3129022 0 0 117518855.8822839 0 0 117366986.911212 0 0 117068462.3010131 0 0 116634448.1177434 0 0 102804563.4576319 0 0 101976421.8087987 0 0 100841996.2285661 0 0 96870760.78025536 0 0 100034235.7967572 0 0 98189519.0504517 0 0 99046864.82099971 0 0 108485725.801189 0 0 108088381.8888985 0 0 108690770.0462816 0 0 109068489.2094373 0 0 108049724.4105185 0 0 107888667.7198979 0 0 109552877.0406742 0 0 110112849.6905961 0 0 110714861.490679 0 0 111329778.4237592 0 0 111932979.8449492 0 0 112499679.4675107 0 0 113032823.6211729 0 0 113463542.7177011 0 0 113848794.8034527 0 0 114163577.2320387 0 0 114401034.8585595 0 0 114565512.8729197 0 0 114797351.129114 0 0 115617105.7775058 0 0 115541221.9102421 0 0 115474512.3231284 0 0 116076463.0132822 0 0 105921985.8255315 0 0 104377343.3946223 0 0 107421191.7278347 0 0 108854785.6532718 0 0 110206043.1125193 0 0 111459818.9020257 0 0 112601389.5309391 0 0 113618775.874568 0 0 114502204.4279505 0 0 115242058.8520453 0 0 115832787.8345287 0 0 116270610.3232337 0 0 116555568.0465887 0 0 116688455.7830738 0 0 116672812.36982 0 0 116514292.2691689 0 0 116221515.1860334 0 0 115804314.8610559 0 0 103552145.347425 0 0 102339303.0872953 0 0 101586382.5284315 0 0 97630860.80813742 0 0 100512355.4218296 0 0 98849257.55369635 0 0 99801332.64108075 0 0 108117928.3086128 0 0 107979052.5366383 0 0 108323444.210984 0 0 108674816.7895235 0 0 107317063.1614378 0 0 107289933.5315706 0 0 109127814.8165822 0 0 109645728.9541997 0 0 110211055.7366595 0 0 110787007.6327706 0 0 111347906.0362576 0 0 111866435.3315979 0 0 112314943.3784318 0 0 112750545.3907814 0 0 113116256.1832816 0 0 113411402.9382662 0 0 113647893.2570266 0 0 113813924.6789403 0 0 114658988.4832986 0 0 114800960.6038323 0 0 114749141.074683 0 0 115412246.3543224 0 0 115273442.269351 0 0 106631572.673831 0 0 105107444.8475497 0 0 108104721.2047349 0 0 109507960.697029 0 0 110825098.0476376 0 0 112040224.3265189 0 0 113140949.1606578 0 0 114113830.5335271 0 0 114949385.1565174 0 0 115639255.4078175 0 0 116178369.8248195 0 0 116564237.3033922 0 0 116795737.8415538 0 0 116875104.038972 0 0 116807567.4156915 0 0 116599776.3078588 0 0 116260975.0433258 0 0 115801523.9686356 0 0 103822788.9191819 0 0 103051230.7500061 0 0 101929201.5046213 0 0 98091119.81202203 0 0 101280533.4312514 0 0 99408894.11010882 0 0 100133829.476978 0 0 107324992.5161081 0 0 107175772.7640876 0 0 107620431.3050889 0 0 108038136.1473636 0 0 106896019.7893477 0 0 106565907.6778203 0 0 108550202.5439879 0 0 109118053.7952166 0 0 109729335.9734755 0 0 110349384.7233973 0 0 110955616.4014571 0 0 111506988.5009644 0 0 112004573.1096244 0 0 112462857.8478827 0 0 112860649.4284694 0 0 113187140.915292 0 0 113448811.9259338 0 0 113641766.8358813 0 0 113906121.6291168 0 0 114681868.6048586 0 0 114650605.0963832 0 0 114641843.9253067 0 0 115232800.5537528 0 0 106721046.5791261 0 0 105287970.9318079 0 0 108097371.2083299 0 0 109401941.6911425 0 0 110620637.1481298 0 0 111740435.0158878 0 0 112749527.4334625 0 0 113637226.5926703 0 0 114395499.7600326 0 0 115017279.7290373 0 0 115498381.6683078 0 0 115836532.3868661 0 0 116032494.7391156 0 0 116089196.6933197 0 0 116009792.7066734 0 0 115800609.3230701 0 0 115470058.3650142 0 0 115027571.6558003 0 0 104516970.3881101 0 0 103317073.7646946 0 0 102605174.5852534 0 0 98875350.51816288 0 0 101658820.6320835 0 0 99902108.21760108 0 0 100853742.2055618 0 0 107039177.4859386 0 0 106913371.2359517 0 0 107307636.0609899 0 0 107697179.7525221 0 0 106218590.5153466 0 0 106084167.0107484 0 0 108171731.4594914 0 0 108713166.1142114 0 0 109285017.9062264 0 0 109863766.1577722 0 0 110402453.1804297 0 0 110923946.3881021 0 0 111389890.1604373 0 0 111830772.8898977 0 0 112207131.8333091 0 0 112516852.457332 0 0 112766538.8112013 0 0 112953863.0700086 0 0 113759094.1666153 0 0 113939978.4065267 0 0 113921762.7733053 0 0 114569555.4032135 0 0 114480198.1231759 0 0 107375671.8604776 0 0 105967170.0656331 0 0 108723395.063529 0 0 109995414.5900853 0 0 111178558.9511373 0 0 112260040.8104838 0 0 113227808.7398994 0 0 114072044.6227516 0 0 114783915.0982972 0 0 115358272.1334607 0 0 115790691.1682432 0 0 116079714.6136865 0 0 116226295.3937742 0 0 116233061.7131721 0 0 116107109.3291815 0 0 115853306.4686287 0 0 115483495.0567863 0 0 115002909.0384939 0 0 104702031.2394747 0 0 103982349.3555539 0 0 102852576.8905159 0 0 99339150.91491279 0 0 102304978.0768784 0 0 100443562.814538 0 0 100895366.0163018 0 0 106379448.389374 0 0 106211269.7818039 0 0 106715185.5882362 0 0 107155202.9761995 0 0 105892215.0737994 0 0 105533256.8663466 0 0 107676052.6072648 0 0 108255706.4909838 0 0 108864289.9081731 0 0 109480259.2791076 0 0 110055849.5357035 0 0 110602677.7823597 0 0 111098269.8958788 0 0 111563434.6842971 0 0 111967214.5008046 0 0 112301949.4235268 0 0 112573613.9573052 0 0 112784197.1936087 0 0 113073615.0400281 0 0 113812000.4750475 0 0 113817125.4330759 0 0 113844252.4314263 0 0 114422673.5615751 0 0 107395347.8320941 0 0 106074878.5101513 0 0 108652551.8674933 0 0 109833789.7594827 0 0 110928491.4491486 0 0 111924572.3642014 0 0 112811868.6995207 0 0 113581750.0421499 0 0 114227198.2873679 0 0 114742954.8897317 0 0 115125917.3666434 0 0 115376626.9191018 0 0 115495691.4966742 0 0 115488617.1878052 0 0 115354972.4361547 0 0 115103899.6070733 0 0 114742037.8751897 0 0 114281827.5991547 0 0 105355292.9777736 0 0 104159245.2119483 0 0 103572166.843331 0 0 100025492.2100578 0 0 102593839.7870064 0 0 102048571.7498866 0 0 101053889.5047827 0 0 106138902.5321878 0 0 105966518.7830367 0 0 106445755.9736523 0 0 106856554.9961748 0 0 105222075.0680626 0 0 105176583.3285036 0 0 107347434.9263061 0 0 107894786.4790598 0 0 108466326.7522102 0 0 109024885.6584931 0 0 109557738.4612848 0 0 110071463.5408644 0 0 110557782.0779136 0 0 110991216.7006442 0 0 111372480.5002476 0 0 111690630.230379 0 0 111948942.1912671 0 0 112158581.1305863 0 0 112923726.1762749 0 0 113128082.2915949 0 0 113135073.3758754 0 0 113763559.2768131 0 0 113731524.2881518 0 0 107994809.9713246 0 0 106701538.2525939 0 0 109221365.417608 0 0 110370192.5175082 0 0 111429708.543392 0 0 112387422.4030013 0 0 113233936.0081173 0 0 113960693.334486 0 0 114561728.5566128 0 0 115032843.0495446 0 0 115371603.2291744 0 0 115577289.1326104 0 0 115653083.0566321 0 0 115597597.9926786 0 0 115421729.1654662 0 0 115129683.045026 0 0 114735632.3721005 0 0 114241895.283347 0 0 105478605.1221942 0 0 104804809.8220107 0 0 103715333.7091108 0 0 100484435.6807439 0 0 103271194.3955007 0 0 102120525.2211721 0 0 101333043.6060393 0 0 105586948.8513887 0 0 105375895.5282209 0 0 105939398.5773278 0 0 106393809.4775213 0 0 104968915.8904497 0 0 104680962.1637543 0 0 106921205.1370974 0 0 107498525.6497006 0 0 108094461.9383256 0 0 108690630.2004487 0 0 109247661.023366 0 0 109781055.4050608 0 0 110288385.8687932 0 0 110745868.8397646 0 0 111149395.1617386 0 0 111484206.6729455 0 0 111763249.5961694 0 0 111991598.9058514 0 0 112294429.0404668 0 0 112998692.3909299 0 0 113029980.4208874 0 0 113101000.5461779 0 0 113659223.184731 0 0 107954647.6317302 0 0 106744092.9586899 0 0 109096648.0249988 0 0 110164299.9648055 0 0 111144298.8481911 0 0 112025822.4821862 0 0 112801374.2419282 0 0 113463809.3142752 0 0 114007888.6915383 0 0 114429390.456301 0 0 114726658.0005658 0 0 114901090.6023897 0 0 114951308.4218293 0 0 114887726.7488705 0 0 114709766.6295671 0 0 114426660.1033713 0 0 114042115.5793155 0 0 113569706.0179531 0 0 106083131.3402158 0 0 104946665.3935505 0 0 104316009.6753049 0 0 101089554.1972732 0 0 103255086.3816712 0 0 102230825.5509233 0 0 105364639.9735043 0 0 105142981.7797503 0 0 105701349.0282638 0 0 106131144.527123 0 0 104438079.7498161 0 0 104237225.4172242 0 0 106630959.6121988 0 0 107176688.0089759 0 0 107726889.6710885 0 0 108264245.8365758 0 0 108798703.8060414 0 0 109318971.5802803 0 0 109792430.8685085 0 0 110224136.1443676 0 0 110607907.0988872 0 0 110924360.2975007 0 0 111185143.8099612 0 0 111427976.0148321 0 0 112154635.0315908 0 0 112358189.7448626 0 0 112399752.862685 0 0 113007351.358905 0 0 113015498.9064286 0 0 108499751.3595391 0 0 107320734.722182 0 0 109612967.8075084 0 0 110647817.9002354 0 0 111591886.0227563 0 0 112435917.9455324 0 0 113171367.7958581 0 0 113792384.2556104 0 0 114294081.1207502 0 0 114673102.3620097 0 0 114928480.6127427 0 0 115060173.0645771 0 0 115074129.8892922 0 0 114969093.0638973 0 0 114752014.8432769 0 0 114430736.0353974 0 0 114016115.2033719 0 0 113517119.5979899 0 0 106150364.1843212 0 0 105526512.6636308 0 0 104480994.0126021 0 0 101509110.9288249 0 0 103851183.2713393 0 0 102492598.349783 0 0 104591630.9838241 0 0 104867540.8587143 0 0 105268932.3868304 0 0 105734645.0114416 0 0 104399612.2125416 0 0 103993822.6325157 0 0 106261521.534126 0 0 106832073.9657371 0 0 107399957.6959128 0 0 107967802.2499876 0 0 108519722.6377778 0 0 109054742.0909101 0 0 109547498.5143431 0 0 110001457.797861 0 0 110397815.4387691 0 0 110730505.1250342 0 0 110988908.2455155 0 0 111281339.8916952 0 0 111570001.4738669 0 0 112236272.4137127 0 0 112279078.1989793 0 0 112397189.8929939 0 0 112933568.6147691 0 0 108405563.4562193 0 0 107308011.5718642 0 0 109445058.3709082 0 0 110405867.8310865 0 0 111278317.9867634 0 0 112055118.8829618 0 0 112728886.9251291 0 0 113294428.1529873 0 0 113747419.979876 0 0 114085369.9636467 0 0 114307486.3172367 0 0 114416068.239001 0 0 114410159.1305402 0 0 114296589.4208817 0 0 114080737.240921 0 0 113771939.8999281 0 0 113375051.1343082 0 0 112900595.28888 0 0 106700189.3502993 0 0 105614283.6020769 0 0 105018578.3541342 0 0 102060940.4086212 0 0 103076082.9072208 0 0 104051642.5070507 0 0 104471710.2460302 0 0 104704978.841111 0 0 105061310.2936574 0 0 105504050.8116462 0 0 103565681.948377 0 0 103820221.4656962 0 0 103561911.2887913 0 0 106004950.0428465 0 0 106520720.900649 0 0 107062535.3936983 0 0 107592565.6376546 0 0 108127819.6633285 0 0 108632665.1118295 0 0 109095449.7114524 0 0 109522269.2461879 0 0 109907482.7484034 0 0 110219640.5248448 0 0 110445670.6201839 0 0 110764758.5410557 0 0 111492940.7039133 0 0 111603872.9686445 0 0 111721745.8211312 0 0 112286579.0445183 0 0 112345827.4120904 0 0 108903842.1941066 0 0 107829789.7308756 0 0 109912354.4917033 0 0 110839892.196798 0 0 111677065.5382205 0 0 112416826.2682502 0 0 113052029.7406511 0 0 113577865.6877675 0 0 113990576.6138799 0 0 114288414.3794854 0 0 114471138.4721578 0 0 114539494.4580821 0 0 114498019.5327077 0 0 114350363.7685599 0 0 114100962.5519164 0 0 113758115.3972861 0 0 113332860.172231 0 0 112843739.4070685 0 0 106717607.0766377 0 0 106138841.8596551 0 0 105126302.277211 0 0 102425493.4818842 0 0 103540467.2021662 0 0 104634706.5316863 0 0 104022939.643379 0 0 104322845.8230176 0 0 104702062.5580672 0 0 105164506.4102568 0 0 103643740.1626582 0 0 103807181.5032377 0 0 103185300.4445199 0 0 105685519.2448641 0 0 106223872.7859871 0 0 106776281.9222547 0 0 107324649.6052502 0 0 107875979.2553644 0 0 108394011.3601604 0 0 108884390.6325889 0 0 109304955.86087 0 0 109691933.2769795 0 0 110084257.4458333 0 0 110246242.3231926 0 0 110576019.9144757 0 0 110859159.0175039 0 0 111451797.6303721 0 0 111559638.0347967 0 0 111730139.6897509 0 0 112247722.7045648 0 0 108768834.37024 0 0 107760147.4787386 0 0 109709138.6748035 0 0 110569303.7959758 0 0 111343205.8815661 0 0 112023740.6055277 0 0 112605171.6550855 0 0 113083117.1772519 0 0 113454685.1178207 0 0 113718550.8509751 0 0 113874814.1606912 0 0 113924784.7279413 0 0 113872183.2911489 0 0 113719401.5313628 0 0 113473664.2125924 0 0 113142441.1301994 0 0 112737069.4431968 0 0 112264482.0328213 0 0 107208634.6450319 0 0 106156258.7688065 0 0 105656679.9291849 0 0 102917894.7996463 0 0 103863140.3540169 0 0 104771596.0479667 0 0 103879866.6754145 0 0 104161444.139327 0 0 104523036.8498489 0 0 104963468.8489554 0 0 103127937.9426549 0 0 103363062.0621653 0 0 102985183.3852344 0 0 105439699.0687518 0 0 105943735.2676315 0 0 106466980.340265 0 0 106998134.591192 0 0 107519810.0817101 0 0 108012797.7376358 0 0 108464594.3347898 0 0 108857999.6756226 0 0 109236768.3010103 0 0 109386043.9089471 0 0 110041309.5494008 0 0 110379549.1755123 0 0 110896578.2274251 0 0 110941785.5746388 0 0 111060622.9919372 0 0 111655795.8692424 0 0 111701953.6184934 0 0 109222720.3368497 0 0 108241269.0465614 0 0 110130160.7255795 0 0 110957601.9968926 0 0 111696931.7672431 0 0 112341528.9469432 0 0 112885884.8310324 0 0 113326155.608922 0 0 113659876.2366529 0 0 113886052.3969733 0 0 114005152.947116 0 0 114019704.7747219 0 0 113932860.5463535 0 0 113749525.0399174 0 0 113473497.0242235 0 0 113111876.6436012 0 0 112677438.7762881 0 0 112198161.0028004 0 0 107155107.9442085 0 0 106635299.1878759 0 0 105694384.8284049 0 0 103307652.7198077 0 0 104287975.3370903 0 0 105266822.6185264 0 0 103540088.4666513 0 0 103823349.5115585 0 0 104208409.6545439 0 0 104670819.0619175 0 0 103178395.4955267 0 0 103149911.1667151 0 0 102736834.5546456 0 0 105160219.6924938 0 0 105678424.1962275 0 0 106216542.7192018 0 0 106759833.6833575 0 0 107285696.8068541 0 0 107843100.6642094 0 0 108266555.2322899 0 0 108648411.6473394 0 0 109077033.5446956 0 0 109440459.9850478 0 0 109159597.2719637 0 0 109728472.0067447 0 0 110076706.2074826 0 0 110788138.1242361 0 0 110978282.8877457 0 0 110981621.8898843 0 0 111529081.1233185 0 0 108135857.8477224 0 0 109054666.5008729 0 0 109897187.9116535 0 0 110665287.1375291 0 0 111348548.8830588 0 0 111941272.4728591 0 0 112438902.0458188 0 0 112838248.2166583 0 0 113137252.5114827 0 0 113335359.5330022 0 0 113433532.104197 0 0 113434100.7188328 0 0 113340001.7720158 0 0 113157094.4098853 0 0 112885684.5559296 0 0 112535929.8101154 0 0 112156275.2804601 0 0 111728362.6218673 0 0 107624243.1877234 0 0 106589168.9705594 0 0 106173381.6077047 0 0 103706840.5436546 0 0 104554890.0375388 0 0 105269948.8763563 0 0 103397144.3595611 0 0 103680561.3213405 0 0 104052063.5371767 0 0 104473672.997907 0 0 102634384.2325645 0 0 102877405.8079753 0 0 102433501.5979876 0 0 104938735.2383531 0 0 105428306.9450413 0 0 105949733.742087 0 0 106460837.7675128 0 0 106978979.1567037 0 0 107561662.1879151 0 0 107882965.9505838 0 0 108262750.4102191 0 0 108824738.2828023 0 0 108482898.8275928 0 0 109167836.350774 0 0 109657089.1797547 0 0 110074417.1736717 0 0 110440218.7443279 0 0 110436288.8340642 0 0 111026374.2047204 0 0 111352898.1370263 0 0 108578453.4565368 0 0 109462933.3489645 0 0 110276332.0049782 0 0 111011667.1990329 0 0 111661246.1205646 0 0 112219297.1038925 0 0 112681612.7501888 0 0 113045286.3318067 0 0 113308711.2854022 0 0 113471694.8183217 0 0 113535961.5507108 0 0 113504126.9972507 0 0 113380052.830302 0 0 113169871.6249314 0 0 112877073.4167251 0 0 112509037.5125431 0 0 112104956.5974848 0 0 111618008.5754311 0 0 107544073.1224314 0 0 107064105.2253565 0 0 106043303.6485899 0 0 104071850.1382821 0 0 104829302.5513657 0 0 105519416.499248 0 0 103063986.4297842 0 0 103379373.7745953 0 0 103778461.0786402 0 0 104221894.4448997 0 0 102645236.7210629 0 0 102778052.695362 0 0 102257309.7474308 0 0 104696623.327498 0 0 105194448.5648326 0 0 105731540.0950918 0 0 106265681.6406573 0 0 106772554.4588182 0 0 107365407.6516223 0 0 107790731.8333629 0 0 108080355.8718895 0 0 108513881.4315649 0 0 108297292.8007949 0 0 108853636.8017499 0 0 109340290.213708 0 0 109815897.1447066 0 0 110279860.3470299 0 0 110456131.2512249 0 0 110670959.6049906 0 0 110257455.1399293 0 0 111014566.23288 0 0 108444457.060433 0 0 109261882.9723297 0 0 110021768.1580749 0 0 110703744.0850533 0 0 111303676.6091109 0 0 111816299.3923001 0 0 112237968.7475761 0 0 112566582.7421892 0 0 112800841.4359859 0 0 112941133.4888916 0 0 112989250.3771693 0 0 112947464.5292461 0 0 112819618.2382176 0 0 112615699.7425931 0 0 112325580.5380932 0 0 111961614.8773862 0 0 111585113.2493471 0 0 111328423.8743585 0 0 107964407.4756141 0 0 106989662.791592 0 0 106354799.4090331 0 0 104460448.6677745 0 0 105446644.8084273 0 0 102967641.9866963 0 0 103264576.5396664 0 0 103634398.1813993 0 0 104050281.4785501 0 0 102328221.8788483 0 0 102365367.4864747 0 0 102477280.6720971 0 0 102060135.3917176 0 0 104495800.7252162 0 0 104974610.6705756 0 0 105493170.1471775 0 0 105903685.8865004 0 0 106829728.5088141 0 0 106852195.1689301 0 0 107164324.4143978 0 0 107971391.5282265 0 0 107708355.2164878 0 0 108299035.1305797 0 0 108829288.5074766 0 0 109295032.4406287 0 0 109744215.9082398 0 0 110058115.4874859 0 0 109769709.691248 0 0 110709801.670417 0 0 110122326.8943838 0 0 110856978.2673882 0 0 108831337.0726483 0 0 109631440.0774255 0 0 110360935.6968008 0 0 111011404.9625537 0 0 111578515.7094195 0 0 112057971.9035694 0 0 112446412.7175578 0 0 112741566.3467241 0 0 112942872.7742627 0 0 113050707.6101686 0 0 113067795.0686401 0 0 112996425.835802 0 0 112840064.6566231 0 0 112604876.2304053 0 0 112278066.1553243 0 0 111956348.4615065 0 0 111643788.6282279 0 0 111037140.0421942 0 0 107864454.3836247 0 0 107371682.6222171 0 0 106265055.3801255 0 0 104790804.0714361 0 0 105776663.9266107 0 0 102687320.446413 0 0 103014775.2104894 0 0 103402894.2793978 0 0 103827629.9715784 0 0 102262255.2121791 0 0 102121057.6815336 0 0 102419032.4582523 0 0 101875401.7764218 0 0 104292921.4189419 0 0 104764484.136152 0 0 105350918.1642309 0 0 105825089.8824443 0 0 105900122.9387706 0 0 106854225.7743697 0 0 107202196.0448717 0 0 107073481.2303216 0 0 107709879.1021436 0 0 108032624.247694 0 0 107481234.4692706 0 0 108546398.7993223 0 0 109012851.177035 0 0 109418912.688374 0 0 110344638.5444266 0 0 110551600.8252011 0 0 108654227.3902397 0 0 109411797.9054235 0 0 110089455.1960968 0 0 110692734.2053996 0 0 111215947.1263347 0 0 111655799.2193029 0 0 112009073.394761 0 0 112274332.1801257 0 0 112451179.7309471 0 0 112540731.6388562 0 0 112545791.8118628 0 0 112467249.9433991 0 0 112310036.7469347 0 0 112103188.7039699 0 0 111813969.3008613 0 0 111388139.8136378 0 0 110979483.7556565 0 0 108259305.8505716 0 0 106958227.4389579 0 0 107378737.5807972 0 0 105878808.2572794 0 0 105020828.1885057 0 0 102607516.1265552 0 0 102910793.4253283 0 0 103276763.3283437 0 0 103670846.8886714 0 0 102024606.0606695 0 0 101947614.7660269 0 0 102145919.2522129 0 0 101698514.4472089 0 0 104122961.1217547 0 0 104602359.9117502 0 0 105108867.5933067 0 0 105352541.5077485 0 0 105979558.7047821 0 0 106587504.5294694 0 0 106389914.8022956 0 0 107107071.2867301 0 0 106889391.580221 0 0 109029423.1663936 0 0 109745938.4122483 0 0 110392565.9992996 0 0 110964492.6708016 0 0 111456316.5464578 0 0 111864537.0475213 0 0 112186813.9495804 0 0 112421116.8070805 0 0 112567438.0443654 0 0 112627682.0915822 0 0 112604418.4006263 0 0 112500235.5302944 0 0 112312302.6530008 0 0 112080782.1866959 0 0 111667533.163079 0 0 111345873.548784 0 0 110690247.6970793 0 0 108098555.7976694 0 0 106939774.5008872 0 0 107753145.1282717 0 0 106227959.896442 0 0 105387860.9004851 0 0 102382438.0930632 0 0 102699925.2826 0 0 103061711.0931487 0 0 103498130.4621908 0 0 101932891.2163315 0 0 101739364.5837815 0 0 102068116.3947111 0 0 101549231.2974401 0 0 103975936.9538872 0 0 104451486.650507 0 0 105008432.3754623 0 0 105199768.5997473 0 0 105825588.1516971 0 0 106428930.8836796 0 0 106274957.3478282 0 0 108843182.7048644 0 0 109507181.5844979 0 0 110109466.5252186 0 0 110638940.8091792 0 0 111092177.7096641 0 0 111465922.1523731 0 0 111757814.6055001 0 0 111966125.1048541 0 0 112092434.755193 0 0 112137819.4629636 0 0 112106571.4784935 0 0 112002227.7420734 0 0 111844949.8134042 0 0 111642678.3691459 0 0 111568824.1329109 0 0 110979505.5786305 0 0 111120381.5284334 0 0 108459998.9664018 0 0 107017878.9234041 0 0 107587811.0959135 0 0 105587442.4835666 0 0 106219238.2014802 0 0 102311556.3887925 0 0 102615800.0425203 0 0 102968899.7418066 0 0 103386904.2786731 0 0 101729732.1326817 0 0 101579112.8130651 0 0 101853802.5060049 0 0 101386941.3115144 0 0 103774211.3061907 0 0 104492668.7201568 0 0 104426074.3343301 0 0 105178432.8252552 0 0 105836880.9100185 0 0 105637023.8548159 0 0 109163648.0373437 0 0 109802974.9737263 0 0 110376861.0834981 0 0 110877316.3471337 0 0 111300684.1635255 0 0 111644621.2823447 0 0 111907544.8516811 0 0 112087878.4749014 0 0 112186649.082336 0 0 112205340.7506827 0 0 112144743.0157916 0 0 112037643.9129411 0 0 111859304.3487573 0 0 111666800.1214577 0 0 111162687.3611438 0 0 110780601.9800523 0 0 111144270.4914397 0 0 108308828.2142668 0 0 106998079.6449777 0 0 107912427.6523989 0 0 105901957.0123961 0 0 106631866.8993182 0 0 102132749.3319553 0 0 102403738.7881676 0 0 102798146.375699 0 0 103249823.9523336 0 0 101614869.2173164 0 0 101435038.7316227 0 0 101832674.5834835 0 0 101239875.7071492 0 0 103781302.7465319 0 0 103742473.7091786 0 0 104511344.0555085 0 0 105002767.8715543 0 0 104356010.0734731 0 0 108951090.6345547 0 0 109551524.8978326 0 0 110085294.1592456 0 0 110548146.8903673 0 0 110937555.4368555 0 0 111251789.470499 0 0 111488768.6956368 0 0 111646853.2707714 0 0 111730248.1615377 0 0 111737040.3578122 0 0 111675211.7088032 0 0 111589898.6552503 0 0 111376716.9421725 0 0 111169439.391104 0 0 110805636.0082063 0 0 108604040.2578576 0 0 107192149.0216746 0 0 106754008.0575907 0 0 107767399.8126009 0 0 106054905.4724237 0 0 102091498.4541545 0 0 102320815.8983493 0 0 102790243.7555931 0 0 103251910.7319862 0 0 101388587.161356 0 0 101305365.7677367 0 0 101644289.3873333 0 0 101088576.0722388 0 0 103168841.1684258 0 0 103824578.3428266 0 0 103731278.2638951 0 0 109239856.0405883 0 0 109814897.6413427 0 0 110321239.9449826 0 0 110756031.7648556 0 0 111117200.4623037 0 0 111403462.2674443 0 0 111613420.0116966 0 0 111747791.559127 0 0 111808753.4845566 0 0 111790042.7651071 0 0 111720897.3386789 0 0 111563755.3912808 0 0 111280392.8960133 0 0 110814971.1137545 0 0 108414648.6941001 0 0 107529756.6660819 0 0 106792982.265142 0 0 108070098.7752715 0 0 106351097.7637018 0 0 101974348.6392037 0 0 102192190.0186992 0 0 102632156.0359457 0 0 101307878.9772868 0 0 101203561.9271742 0 0 101732986.9494073 0 0 100954488.1697538 0 0 103244968.6175258 0 0 103140109.793332 0 0 109019682.3414158 0 0 109554712.6580628 0 0 110024405.2596322 0 0 110425791.7273051 0 0 110757334.5753569 0 0 111018171.216314 0 0 111205052.1578162 0 0 111320956.7739724 0 0 111374611.316661 0 0 111314734.785306 0 0 111190151.3957592 0 0 111225460.2383757 0 0 111035864.3218822 0 0 108710087.8968329 0 0 107334604.526529 0 0 106527183.7770092 0 0 107942523.2988975 0 0 101669435.3545264 0 0 102250510.4082809 0 0 102702151.7284793 0 0 101221831.335733 0 0 100969846.1521494 0 0 101285250.4691704 0 0 100895979.9092112 0 0 102589284.5650045 0 0 109280753.2575182 0 0 109788815.5589054 0 0 110231553.7873342 0 0 110606025.6272869 0 0 110910296.8565447 0 0 111141727.1136295 0 0 111291398.4939587 0 0 111374781.6180296 0 0 111383431.6588988 0 0 111259490.8327325 0 0 111271199.5275194 0 0 111044048.33239 0 0 110768384.7354605 0 0 108523457.4448332 0 0 107562502.8268427 0 0 106748890.5542963 0 0 108199015.7167902 0 0 101747483.0608192 0 0 101642142.1658436 0 0 102086162.0750789 0 0 101240248.3194816 0 0 101035365.1996398 0 0 101340212.890269 0 0 100726733.8812424 0 0 109049847.9086209 0 0 109521409.4119272 0 0 109931785.7803359 0 0 110276948.7260738 0 0 110556492.5741814 0 0 110769050.1619863 0 0 110898960.1730868 0 0 111031634.2229867 0 0 111038212.8592762 0 0 111009442.4648908 0 0 110985299.548514 0 0 110911905.4603247 0 0 108766590.3564686 0 0 107441396.7082467 0 0 106812486.1009854 0 0 108036044.0207283 0 0 101283447.387545 0 0 100815405.7115456 0 0 101007908.7681071 0 0 109277969.9944186 0 0 109728313.4652245 0 0 110113261.5206492 0 0 110434665.6696591 0 0 110690528.6584007 0 0 110885456.7483881 0 0 111002009.9889983 0 0 111022838.9083835 0 0 110941781.7222159 0 0 110766067.4180178 0 0 110788458.926614 0 0 110670766.0676764 0 0 108572810.1672506 0 0 107714667.9095683 0 0 107061147.068874 0 0 108294333.3043023 0 0 109047790.0067282 0 0 109456831.4784942 0 0 109812186.7935945 0 0 110109367.0133995 0 0 110343198.5507542 0 0 110506233.4733029 0 0 110565570.8183927 0 0 110783613.9163792 0 0 110732355.0428612 0 0 110639220.9747439 0 0 110533647.3723973 0 0 108803735.4468181 0 0 107074092.0381783 0 0 107644953.67084 0 0 108144864.2070576 0 0 109246457.0423912 0 0 109638831.4487737 0 0 109973491.4908258 0 0 110244763.7353039 0 0 110451205.7891527 0 0 110573731.4227846 0 0 110670653.3251121 0 0 110618581.5550931 0 0 110543527.6199845 0 0 110376549.3806584 0 0 108613351.9854009 0 0 107332337.1736374 0 0 107890426.8977383 0 0 108389260.4053266 0 0 109020081.960977 0 0 109367007.411455 0 0 109676025.664915 0 0 109924545.7348783 0 0 110112626.7134892 0 0 110252583.8243006 0 0 110422449.9048405 0 0 110508074.0390033 0 0 110416620.050435 0 0 108815861.2185338 0 0 107302116.3900091 0 0 107817623.2886193 0 0 108222354.6571521 0 0 109176671.2386696 0 0 109527892.307311 0 0 109816006.7013901 0 0 110047786.0718769 0 0 110231553.7717114 0 0 110292943.5640714 0 0 110250361.3915659 0 0 110313321.0823545 0 0 110182133.1998988 0 0 108582145.5372144 0 0 107538117.1527618 0 0 108044746.6879813 0 0 108445866.086899 0 0 108919329.7441788 0 0 109254449.7571247 0 0 109519657.3133953 0 0 109723287.3004695 0 0 109843731.8271885 0 0 109898433.332477 0 0 110209303.8184443 0 0 108451962.0369423 0 0 107487715.9062363 0 0 107951863.9808759 0 0 109056701.7327599 0 0 109390712.3861033 0 0 109630464.2651587 0 0 109812082.9948113 0 0 109913657.39914 0 0 109992745.5268292 0 0 109961267.5485542 0 0 108562797.0630997 0 0 107710031.7569217 0 0 108167934.2393798 0 0 108829518.1773521 0 0 108540649.261135 0 0 109120479.0248017 0 0 109354723.7177401 0 0 109495272.6600513 0 0 109548889.110539 0 0 109714415.2978112 0 0 108047234.1635945 0 0 107632317.4630001 0 0 108979288.8679831 0 0 108654045.7536479 0 0 109225655.6043398 0 0 109402825.5102169 0 0 109488976.7390943 0 0 109437785.7298149 0 0 108209552.3981839 0 0 107833616.044516 0 0 108716305.5786792 0 0 108478529.6375981 0 0 108212718.3683246 0 0 108975158.8238623 0 0 109172422.7242658 0 0 109283069.0009675 0 0 107706653.0365811 0 0 108844766.2418279 0 0 108630417.4536125 0 0 108235615.9559338 0 0 109040694.4948941 0 0 109137214.7997121 0 0 109152216.495545 0 0 107898130.7757129 0 0 108408632.2556939 0 0 108590586.9216477 0 0 108123540.8954307 0 0 108857369.244742 0 0 108984543.4756997 0 0 107730534.4459827 0 0 108446936.2992709 0 0 108686786.2086588 0 0 108090086.8286907 0 0 108769636.6634145 0 0 108857554.8774201 0 0 107909665.6700415 0 0 108339565.5885401 0 0 108272246.0751817 0 0 108432586.7587308 0 0 107794367.750489 0 0 108693250.8166629 0 0 108153287.1737183 0 0 108408968.7202165 0 0 107930529.852071 0 0 108547768.4486241 0 0 108184880.8523905 0 0 108226701.0600034 0 0 107789471.4161039 0 0 107983427.8568332 0 0 107885277.2772317 0 0 107899488.7309083 0 0 </DataArray>
      </CellData>
      <PointData>
        <DataArray type="Int64" IdType="1" Name="vtkOriginalPointIds" format="ascii" RangeMin="0" RangeMax="1811">154 0 1771 5 214 1214 153 6 1102 1213 209 7 152 1731 1211 8 185 1098 975 1212 181 151 1757 9 1591 1766 766 749 1050 1263 1714 150 1166 10 1768 1065 673 1173 672 1421 1783 1047 11 149 1071 999 1088 171 165 1806 757 571 1415 1191 668 681 1027 12 148 1131 659 1722 1320 13 1101 1700 756 565 514 1414 570 669 682 1077 1389 203 147 1129 625 1761 14 188 1797 984 1130 513 1538 464 480 504 1018 1310 914 1070 1394 1704 15 146 983 1464 160 16 1112 1128 755 1484 418 1323 1565 441 481 509 1577 913 689 1371 1082 1730 145 1079 692 1161 1794 17 155 219 1526 560 763 414 413 454 776 1500 1003 1160 1163 676 675 951 1066 204 1275 144 221 629 1388 18 217 218 220 223 225 916 394 1522 412 703 1007 1198 1193 773 1278 615 670 952 1274 1441 1133 143 222 1509 1672 19 1799 189 1109 500 1668 224 226 1669 391 393 634 1448 1524 1561 636 696 765 614 546 1427 1276 1039 1737 1068 1038 20 21 168 142 1458 229 988 1456 22 1111 1699 1132 1695 992 227 228 1417 390 389 423 635 1301 786 1332 695 764 769 543 544 582 1418 702 1248 974 1791 207 23 25 26 1696 176 24 1472 141 1457 230 1134 1726 1759 1764 27 28 190 166 1069 904 1692 940 941 1471 231 233 388 1331 387 1468 705 392 521 540 1277 1533 1292 542 545 583 600 683 1393 1067 1150 1245 1254 1749 29 30 216 140 1798 1010 232 1293 1042 1255 1253 1244 1777 1 1118 1756 1242 881 859 857 858 1009 1550 1557 234 385 1322 1251 386 1250 1252 520 539 541 986 611 534 1465 586 587 601 684 743 1149 1697 1205 704 1702 31 139 1505 235 237 744 778 680 1202 1201 1116 985 962 882 860 841 840 1513 1442 994 1425 236 384 383 1365 889 1487 890 1335 1469 709 900 700 610 243 1537 708 1470 685 686 1151 1204 1773 630 211 32 138 853 1568 238 1493 777 574 1203 1200 186 1043 963 884 883 1529 822 821 1367 839 879 987 239 376 1373 382 469 487 1566 1190 993 1022 1016 1017 701 1651 1508 1604 1608 929 771 1625 631 573 1701 1199 33 137 1753 851 1156 240 1159 1222 486 1732 1075 1103 1139 1044 1045 1519 1154 1155 1532 815 816 820 838 901 1138 241 375 365 642 445 470 488 1579 1189 1031 1221 1586 1273 1653 1424 537 1272 1631 1021 459 1688 572 1074 34 184 136 1478 475 242 1620 458 484 1788 1073 215 1104 1140 1246 1763 824 1188 1562 811 812 817 825 850 1543 1157 244 364 1370 324 1368 1511 612 613 1572 1656 1652 345 1303 1271 953 1423 1639 378 1614 442 1479 1684 1054 35 1284 135 1141 856 1192 245 401 457 485 1072 1770 1781 1685 1136 837 823 818 813 808 809 1536 1489 852 854 1544 1636 246 321 1299 1558 323 329 711 706 707 334 894 896 344 354 366 927 1144 1385 377 440 1053 1346 1052 36 4 1262 1747 1488 1547 247 399 1680 1682 1712 1746 134 210 1808 1095 835 819 1336 814 807 805 1329 1582 923 855 880 1183 1184 248 320 319 1279 1280 325 332 1580 892 893 340 895 897 350 362 374 1143 536 250 1679 1041 1040 174 1051 37 133 1135 1142 262 249 400 1220 1325 1800 132 1175 1094 877 836 848 1525 1396 804 803 1300 1594 1451 885 995 368 266 256 318 1507 317 781 1587 548 1665 1261 1152 1482 361 1146 1549 1670 1673 1145 252 251 1219 967 736 38 1283 1265 182 1182 263 1503 1675 768 734 131 878 1096 870 869 849 1606 1209 802 801 826 1602 1187 1186 1623 270 267 538 316 907 1662 315 1288 518 1185 1667 1260 395 1289 1270 517 1576 1033 254 253 915 1218 966 735 39 194 130 1809 280 1616 1601 958 733 1097 627 1474 1137 1769 887 1611 1206 1207 810 800 799 1362 1599 1605 289 282 271 1624 1309 314 1447 1257 1177 304 302 300 1005 961 298 296 294 770 292 257 255 1516 1411 1330 973 1514 40 1282 129 281 1298 1006 661 597 1706 626 1196 1728 172 128 1194 998 1000 1208 1210 798 797 1285 886 1290 287 283 369 1637 780 313 331 1258 1256 1176 303 301 299 1004 662 297 295 293 261 258 259 647 1341 595 1556 910 41 164 1540 1297 779 594 596 1736 909 1195 1197 1691 127 866 865 1461 1486 1439 796 794 792 790 306 288 1521 1548 1644 652 322 1658 1181 1343 699 1180 1646 1643 398 1467 1634 1632 535 1498 260 264 1490 1008 551 1046 911 42 1296 1012 653 633 550 1515 1776 1552 1443 1328 206 126 864 862 861 1312 806 795 793 791 789 307 308 1302 955 1647 621 1648 1178 1002 926 698 585 1243 1268 1267 1638 1026 1311 1628 908 265 268 1387 1386 533 1087 1686 43 195 714 1337 499 531 580 1014 876 1058 1792 125 863 834 831 828 827 1485 912 1535 1438 309 310 476 945 1650 620 1030 1338 1174 1001 784 584 530 772 1266 946 947 996 1259 1483 269 272 402 404 532 1355 1356 1744 44 1395 555 950 439 529 1013 1551 888 1056 1750 124 1426 832 830 829 868 1570 1363 516 326 311 312 552 1422 1654 891 715 716 718 1179 1520 1333 528 720 722 724 948 1148 645 274 273 284 403 405 1499 45 1357 1358 161 618 957 1455 527 1531 1774 1495 1057 1113 123 842 833 1466 905 1019 1585 1264 333 330 1569 1542 619 739 1655 1546 589 588 717 719 1249 524 525 721 723 1459 1153 1364 276 275 1491 1492 424 425 568 46 158 741 1359 1718 738 1409 1342 526 632 1786 1234 1501 1224 122 843 844 1527 1020 1589 353 341 339 1564 1172 990 989 1657 1307 640 515 1384 489 1510 787 490 523 1428 1318 1462 446 278 277 644 1563 918 426 427 569 47 1360 740 205 991 1306 431 1477 666 976 1076 875 846 121 845 867 1613 1232 1233 352 346 347 1596 1171 1170 1164 1660 463 433 461 1287 1011 462 1321 1314 522 1315 1317 1440 285 279 1497 1588 1291 1480 428 429 920 48 964 1361 1775 1165 435 432 1541 1574 1733 959 871 847 1081 120 1619 1229 1228 1231 363 357 1663 1286 960 1223 650 649 1659 437 434 451 422 420 419 1450 1313 519 1316 1319 290 286 305 1600 933 732 549 430 1463 1567 49 1727 180 1738 1241 436 1593 1437 924 1375 1326 1689 872 873 119 1618 1227 411 379 367 1664 1032 783 782 1366 556 507 448 447 438 450 467 421 397 371 360 351 348 327 291 1539 1607 934 928 731 726 785 1168 725 50 925 1374 169 466 1640 1635 566 742 1767 968 1710 874 1626 118 1230 1226 410 380 381 1666 956 660 590 557 508 506 465 547 1345 1506 468 1419 396 370 359 349 335 328 1410 1340 1603 1609 1612 1621 942 1167 944 674 51 1810 1376 1377 1240 505 1642 1344 567 752 969 1083 970 1641 117 512 443 417 1671 1216 1215 1327 591 559 558 1453 602 1512 1645 949 1598 648 1597 1590 616 1554 1502 336 337 1339 1334 637 932 1392 1633 1169 654 655 1380 52 1378 156 208 603 1372 657 651 1379 971 1238 1147 1622 116 477 444 1674 1217 767 727 593 592 1504 1553 898 697 943 1649 694 1029 1610 1025 1444 1573 1434 1435 338 342 471 473 491 1391 617 1627 606 607 656 1693 53 1683 1381 1239 1785 737 751 693 1617 1719 1237 1236 577 553 115 478 479 1676 1324 728 623 622 624 1023 1575 972 1715 1630 954 750 712 1369 906 1305 1308 713 355 343 358 472 474 492 496 498 503 605 1481 902 938 54 197 1398 177 1742 1784 939 1724 935 1739 1086 1235 576 554 114 1678 1162 1034 730 729 1517 748 758 1024 1790 1350 1352 1354 1629 1105 638 639 1304 788 1433 372 356 1460 641 1475 493 494 497 502 604 687 1518 1725 936 55 1397 1780 1085 1705 1349 1106 1107 667 997 762 658 578 581 113 1681 1035 754 753 965 1741 1080 1496 1729 159 1351 1353 179 1740 1793 157 609 562 483 455 406 373 1429 1534 1560 917 495 1452 564 1476 688 977 1117 1796 937 56 1399 1811 1048 1530 1348 89 1158 1584 1760 759 663 1555 1687 112 1037 1036 1523 1055 1295 1807 1347 94 93 92 91 90 88 87 608 561 482 449 407 408 903 1413 1581 1015 1247 1592 1595 1028 980 1084 196 1716 1403 57 163 1782 1225 191 1754 192 95 86 1431 760 761 1063 1690 111 1093 1108 1765 1281 167 1294 96 1571 563 1545 1449 409 415 1412 710 1578 1583 930 931 1615 1110 1803 1734 85 1126 1402 58 1743 1061 1709 97 1401 1125 1752 1060 1062 1064 1755 110 1805 193 99 98 1420 1559 1383 1430 416 452 598 646 665 746 922 1049 1721 162 84 1804 1124 59 200 1092 1078 1711 1707 100 83 1123 1789 1269 1703 175 109 101 1390 919 1382 456 453 501 599 664 745 921 1446 1772 1400 82 1127 1122 60 212 187 1779 102 775 104 103 1723 3 678 643 510 460 1445 1494 671 1454 1059 1119 198 81 173 61 1120 105 107 108 106 1720 774 677 628 511 575 1416 1528 1677 1801 1735 170 80 1713 62 1121 79 1748 899 1436 579 679 979 1090 1405 1404 78 63 1717 1408 1762 1787 1473 691 690 978 1089 1115 199 77 64 183 1407 981 747 1432 1114 178 76 1661 65 1406 75 982 1758 1091 1745 1694 74 202 66 1099 1100 1802 201 73 67 1751 1795 1698 1708 72 68 213 71 69 1778 70 2 </DataArray>
        <DataArray type="UInt8" Name="vtkGhostType" format="ascii" RangeMin="0" RangeMax="0">0 0 0 0 0 0 0 0 0 0 0 0 0 0 0 0 0 0 0 0 0 0 0 0 0 0 0 0 0 0 0 0 0 0 0 0 0 0 0 0 0 0 0 0 0 0 0 0 0 0 0 0 0 0 0 0 0 0 0 0 0 0 0 0 0 0 0 0 0 0 0 0 0 0 0 0 0 0 0 0 0 0 0 0 0 0 0 0 0 0 0 0 0 0 0 0 0 0 0 0 0 0 0 0 0 0 0 0 0 0 0 0 0 0 0 0 0 0 0 0 0 0 0 0 0 0 0 0 0 0 0 0 0 0 0 0 0 0 0 0 0 0 0 0 0 0 0 0 0 0 0 0 0 0 0 0 0 0 0 0 0 0 0 0 0 0 0 0 0 0 0 0 0 0 0 0 0 0 0 0 0 0 0 0 0 0 0 0 0 0 0 0 0 0 0 0 0 0 0 0 0 0 0 0 0 0 0 0 0 0 0 0 0 0 0 0 0 0 0 0 0 0 0 0 0 0 0 0 0 0 0 0 0 0 0 0 0 0 0 0 0 0 0 0 0 0 0 0 0 0 0 0 0 0 0 0 0 0 0 0 0 0 0 0 0 0 0 0 0 0 0 0 0 0 0 0 0 0 0 0 0 0 0 0 0 0 0 0 0 0 0 0 0 0 0 0 0 0 0 0 0 0 0 0 0 0 0 0 0 0 0 0 0 0 0 0 0 0 0 0 0 0 0 0 0 0 0 0 0 0 0 0 0 0 0 0 0 0 0 0 0 0 0 0 0 0 0 0 0 0 0 0 0 0 0 0 0 0 0 0 0 0 0 0 0 0 0 0 0 0 0 0 0 0 0 0 0 0 0 0 0 0 0 0 0 0 0 0 0 0 0 0 0 0 0 0 0 0 0 0 0 0 0 0 0 0 0 0 0 0 0 0 0 0 0 0 0 0 0 0 0 0 0 0 0 0 0 0 0 0 0 0 0 0 0 0 0 0 0 0 0 0 0 0 0 0 0 0 0 0 0 0 0 0 0 0 0 0 0 0 0 0 0 0 0 0 0 0 0 0 0 0 0 0 0 0 0 0 0 0 0 0 0 0 0 0 0 0 0 0 0 0 0 0 0 0 0 0 0 0 0 0 0 0 0 0 0 0 0 0 0 0 0 0 0 0 0 0 0 0 0 0 0 0 0 0 0 0 0 0 0 0 0 0 0 0 0 0 0 0 0 0 0 0 0 0 0 0 0 0 0 0 0 0 0 0 0 0 0 0 0 0 0 0 0 0 0 0 0 0 0 0 0 0 0 0 0 0 0 0 0 0 0 0 0 0 0 0 0 0 0 0 0 0 0 0 0 0 0 0 0 0 0 0 0 0 0 0 0 0 0 0 0 0 0 0 0 0 0 0 0 0 0 0 0 0 0 0 0 0 0 0 0 0 0 0 0 0 0 0 0 0 0 0 0 0 0 0 0 0 0 0 0 0 0 0 0 0 0 0 0 0 0 0 0 0 0 0 0 0 0 0 0 0 0 0 0 0 0 0 0 0 0 0 0 0 0 0 0 0 0 0 0 0 0 0 0 0 0 0 0 0 0 0 0 0 0 0 0 0 0 0 0 0 0 0 0 0 0 0 0 0 0 0 0 0 0 0 0 0 0 0 0 0 0 0 0 0 0 0 0 0 0 0 0 0 0 0 0 0 0 0 0 0 0 0 0 0 0 0 0 0 0 0 0 0 0 0 0 0 0 0 0 0 0 0 0 0 0 0 0 0 0 0 0 0 0 0 0 0 0 0 0 0 0 0 0 0 0 0 0 0 0 0 0 0 0 0 0 0 0 0 0 0 0 0 0 0 0 0 0 0 0 0 0 0 0 0 0 0 0 0 0 0 0 0 0 0 0 0 0 0 0 0 0 0 0 0 0 0 0 0 0 0 0 0 0 0 0 0 0 0 0 0 0 0 0 0 0 0 0 0 0 0 0 0 0 0 0 0 0 0 0 0 0 0 0 0 0 0 0 0 0 0 0 0 0 0 0 0 0 0 0 0 0 0 0 0 0 0 0 0 0 0 0 0 0 0 0 0 0 0 0 0 0 0 0 0 0 0 0 0 0 0 0 0 0 0 0 0 0 0 0 0 0 0 0 0 0 0 0 0 0 0 0 0 0 0 0 0 0 0 0 0 0 0 0 0 0 0 0 0 0 0 0 0 0 0 0 0 0 0 0 0 0 0 0 0 0 0 0 0 0 0 0 0 0 0 0 0 0 0 0 0 0 0 0 0 0 0 0 0 0 0 0 0 0 0 0 0 0 0 0 0 0 0 0 0 0 0 0 0 0 0 0 0 0 0 0 0 0 0 0 0 0 0 0 0 0 0 0 0 0 0 0 0 0 0 0 0 0 0 0 0 0 0 0 0 0 0 0 0 0 0 0 0 0 0 0 0 0 0 0 0 0 0 0 0 0 0 0 0 0 0 0 0 0 0 0 0 0 0 0 0 0 0 0 0 0 0 0 0 0 0 0 0 0 0 0 0 0 0 0 0 0 0 0 0 0 0 0 0 0 0 0 0 0 0 0 0 0 0 0 0 0 0 0 0 0 0 0 0 0 0 0 0 0 0 0 0 0 0 0 0 0 0 0 0 0 0 0 0 0 0 0 0 0 0 0 0 0 0 0 0 0 0 0 0 0 0 0 0 0 0 0 0 0 0 0 0 0 0 0 0 0 0 0 0 0 0 0 0 0 0 0 0 0 0 0 0 0 0 0 0 0 0 0 0 0 0 0 0 0 0 0 0 0 0 0 0 0 0 0 0 0 0 0 0 0 0 0 0 0 0 0 0 0 0 0 0 0 0 0 0 0 0 0 0 0 0 0 0 0 0 0 0 0 0 0 0 0 0 0 0 0 0 0 0 0 0 0 0 0 0 0 0 0 0 0 0 0 0 0 0 0 0 0 0 0 0 0 0 0 0 0 0 0 0 0 0 0 0 0 0 0 0 0 0 0 0 0 0 0 0 0 0 0 0 0 0 0 0 0 0 0 0 0 0 0 0 0 0 0 0 0 0 0 0 0 0 0 0 0 0 0 0 0 0 0 0 0 0 0 0 0 0 0 0 0 0 0 0 0 0 0 0 0 0 0 0 0 0 0 0 0 0 0 0 0 0 0 0 0 0 0 0 0 0 0 0 0 0 0 0 0 0 0 0 0 0 0 0 0 0 0 0 0 0 0 0 0 0 0 0 0 0 0 0 0 0 0 0 0 0 0 0 0 0 0 0 0 0 0 0 0 0 0 0 0 0 0 0 0 0 0 0 0 0 0 0 0 0 0 0 0 0 0 0 0 0 0 0 0 0 0 0 0 0 0 0 0 0 0 0 0 0 0 0 0 0 0 0 0 0 0 0 0 0 0 0 0 0 0 0 0 0 0 0 0 0 0 0 0 0 0 0 0 0 0 0 0 0 0 0 0 0 0 0 0 0 0 0 0 0 0 0 0 0 0 0 0 0 0 0 0 0 0 0 0 0 0 0 0 0 0 0 0 0 0 0 0 0 0 0 0 0 0 0 0 0 0 0 0 0 0 0 0 0 0 0 0 0 0 0 0 0 0 0 0 0 0 0 0 0 0 0 0 0 0 0 0 0 0 0 0 0 0 0 0 0 0 0 0 0 0 0 0 0 0 0 0 0 0 0 0 0 0 0 0 0 0 0 0 0 0 0 0 0 0 0 0 0 0 0 0 0 0 0 0 0 0 0 0 0 0 0 0 0 0 0 0 0 0 0 0 0 0 0 0 0 0 0 0 0 0 0 0 0 0 0 0 0 0 0 0 0 0 0 0 0 0 0 0 0 0 0 0 0 0 0 0 0 0 0 0 0 0 0 0 0 0 0 0 0 0 0 0 0 0 0 0 0 0 0 0 0 0 0 0 0 0 0 0 0 0 0 0 0 0 0 0 0 0 0 0 0 0 0 0 0 0 0 0 0 0 0 0 0 0 0 0 0 0 0 0 0 0 0 0 0 0 0 0 0 0 0 0 0 0 0 0 0 0 0 0 0 0 0 0 0 0 0 0 0 0 0 0 0 0 0 0 0 </DataArray>
      </PointData>
    </Piece>
  </UnstructuredGrid>
</VTKFile>
