<?xml version="1.0"?>
<VTKFile type="UnstructuredGrid" version="2.2">
  <UnstructuredGrid>
    <Piece NumberOfPoints="60" NumberOfCells="20">
      <Points>
        <DataArray type="Float64" NumberOfComponents="3" format="ascii">0.6649999999989589 7.081984536725934e-18 0 1 -1.667508320826672e-17 0 0.7120860473842829 0.285712920631055 0 1 6.461918308419721e-17 0 1 0.4999999999986942 0 0.7120860473842829 0.285712920631055 0 0.6649999999989589 3.738810011486465e-17 0 0.7120860473842835 0.285712920631055 0 0.4802408687884172 0.181944016252365 0 0.3300000000000001 4.50985803093221e-18 0 0.6649999999989589 -1.061881137035513e-17 0 0.4802408687884172 0.181944016252365 0 1 0.4999999999986943 0 0.6492432261032556 0.6624668562821413 0 0.7120860473842829 0.2857129206310549 0 0.7120860473842834 0.285712920631055 0 0.4607730582040067 0.3906619234024867 0 0.4802408687884172 0.1819440162523649 0 0.2333452383548383 0.2333452372282832 0 0.33 2.171670935600941e-18 0 0.4802408687884172 0.1819440162523649 0 1 0.4999999999986943 0 1 1 0 0.649243226103255 0.662466856282141 0 0.6492432261032555 0.6624668562821413 0 0.4607730582040067 0.3906619234024867 0 0.712086047384283 0.2857129206310548 0 0.4607730582040067 0.3906619234024867 0 0.2333452383548382 0.2333452372282832 0 0.4802408687884172 0.1819440162523649 0 1 1 0 0.5000000000020591 1 0 0.649243226103255 0.6624668562821409 0 0.2908264624586155 0.7254034792038847 0 0.4607730582040067 0.3906619234024867 0 0.6492432261032551 0.662466856282141 0 0.1959439281583373 0.4796741651915143 0 0.2333452383548382 0.2333452372282832 0 0.4607730582040064 0.3906619234024865 0 0.500000000002059 1 0 0.2908264624586155 0.7254034792038848 0 0.6492432261032551 0.6624668562821409 0 0.1959439281583374 0.4796741651915143 0 0.4607730582040066 0.3906619234024867 0 0.2908264624586154 0.7254034792038844 0 3.33944316867437e-17 0.3300000000000001 0 0.2333452383548382 0.2333452372282832 0 0.1959439281583372 0.4796741651915141 0 0.5000000000020589 1 0 1.139534957297075e-17 1 0 0.2908264624586154 0.7254034792038843 0 2.975686362412621e-17 0.6650000000010193 0 0.1959439281583373 0.4796741651915143 0 0.2908264624586154 0.7254034792038844 0 4.856874747623337e-18 0.6650000000010193 0 -1.143588920997425e-17 0.3300000000000001 0 0.1959439281583373 0.4796741651915141 0 7.208734226836904e-18 1 0 -1.697352520828265e-17 0.6650000000010194 0 0.2908264624586154 0.7254034792038843 0 </DataArray>
      </Points>
      <Cells>
        <DataArray type="Int32" Name="connectivity" format="ascii">0 1 2 3 4 5 6 7 8 9 10 11 12 13 14 15 16 17 18 19 20 21 22 23 24 25 26 27 28 29 30 31 32 33 34 35 36 37 38 39 40 41 42 43 44 45 46 47 48 49 50 51 52 53 54 55 56 57 58 59 </DataArray>
        <DataArray type="Int32" Name="offsets" format="ascii">3 6 9 12 15 18 21 24 27 30 33 36 39 42 45 48 51 54 57 60 </DataArray>
        <DataArray type="Int8" Name="types" format="ascii">69 69 69 69 69 69 69 69 69 69 69 69 69 69 69 69 69 69 69 69 </DataArray>
      </Cells>
      <CellData>
        <DataArray type="UInt8" Name="vtkGhostType" format="ascii" RangeMin="0" RangeMax="1">0 0 0 0 0 0 0 0 0 0 0 0 0 0 0 0 0 0 0 0 </DataArray>
        <DataArray type="Int64" IdType="1" Name="vtkOriginalCellIds" format="ascii" RangeMin="0" RangeMax="19">0 1 2 3 4 5 6 7 8 9 10 11 12 13 14 15 16 17 18 19 </DataArray>
      </CellData>
      <PointData Tensors="stress" Vectors="von_mises_stress">
        <DataArray type="Int64" IdType="1" Name="vtkOriginalPointIds" format="ascii" RangeMin="0" RangeMax="59">0 1 2 3 4 5 6 7 8 9 10 11 12 13 14 15 16 17 18 19 20 21 22 23 24 25 26 27 28 29 30 31 32 33 34 35 36 37 38 39 40 41 42 43 44 45 46 47 48 49 50 51 52 53 54 55 56 57 58 59 </DataArray>
        <DataArray type="UInt8" Name="vtkGhostType" format="ascii" RangeMin="0" RangeMax="0">0 0 0 0 0 0 0 0 0 0 0 0 0 0 0 0 0 0 0 0 0 0 0 0 0 0 0 0 0 0 0 0 0 0 0 0 0 0 0 0 0 0 0 0 0 0 0 0 0 0 0 0 0 0 0 0 0 0 0 0 </DataArray>
        <DataArray type="Float64" Name="stress" format="ascii" NumberOfComponents="9">51586455.13488103 -4283141.927104169 -4283141.927104169 6210280.902786441 0 0 0 0 0 77955674.08532369 2723361.660364185 2723361.660364184 7990814.826560277 0 0 0 0 0 66663172.46517713 -22668411.24773534 -22668411.24773534 -7427299.840853185 0 0 0 0 0 64536987.35083041 -2318748.167349504 -2318748.167349504 2799469.872286645 0 0 0 0 0 100042857.0288262 -13047538.95339838 -13047538.95339838 -2876706.356745015 0 0 0 0 0 78963513.56606369 -18057428.91117769 -18057428.91117769 -2709706.237141196 0 0 0 0 0 32198362.4555909 -5350519.940004467 -5350519.940004467 1338084.926415168 0 0 0 0 0 87818556.04996619 -22748374.01603957 -22748374.01603957 -1573297.585962813 0 0 0 0 0 52574338.63225306 -26817578.53666295 -26817578.53666295 -9866417.59830061 0 0 0 0 0 -9429491.630809216 -4477639.811892101 -4477639.811892098 -42314653.75801379 0 0 0 0 0 51573129.80980959 3057510.104543228 3057510.104543227 12968658.44795185 0 0 0 0 0 32119186.81809555 -31389543.01680279 -31389543.01680279 -5688502.988829711 0 0 0 0 0 95275533.36262208 -10954672.82862021 -10954672.82862021 -3171502.022287921 0 0 0 0 0 108716399.8403551 -8570022.726318624 -8570022.726318624 -14773680.9298122 0 0 0 0 0 87957618.34785661 -21267632.19315397 -21267632.19315397 -7779007.38025811 0 0 0 0 0 82914466.52645984 -19017233.89594648 -19017233.89594648 -4256269.857220936 0 0 0 0 0 101133277.9234667 -24051184.76974273 -24051184.76974273 -24521240.86957471 0 0 0 0 0 62618098.24481571 -35147357.00917529 -35147357.00917529 -12407170.21993114 0 0 0 0 0 55265757.59435083 -31277800.59389485 -31277800.59389485 14076474.87718051 0 0 0 0 0 -29375628.88943463 18887395.82524934 18887395.82524934 -102209972.956606 0 0 0 0 0 51274400.98587033 -38739739.94580786 -38739739.94580786 -2180635.350020729 0 0 0 0 0 93384778.87814797 -12173080.93870766 -12173080.93870766 -6702453.635822066 0 0 0 0 0 105957312.6006157 -2496851.620706066 -2496851.620706066 -5903577.772125585 0 0 0 0 0 112382357.5464963 -6107570.315388341 -6107570.315388341 -9338209.017592829 0 0 0 0 0 119172116.1407438 -6053595.843178838 -6053595.843178838 -10803402.43861029 0 0 0 0 0 109221269.2941735 -17937438.90641098 -17937438.90641098 -16347058.87273558 0 0 0 0 0 75936184.77280702 -24171865.98251605 -24171865.98251605 -12348626.27265018 0 0 0 0 0 135007723.0179775 -28047530.19899605 -28047530.19899605 -15599482.62074252 0 0 0 0 0 55008956.53002758 -26834853.50668561 -26834853.50668561 -10184554.98866568 0 0 0 0 0 47949009.91165671 -35683380.19276227 -35683380.19276227 -16821790.31036614 0 0 0 0 0 105591682.4667298 -2590033.338987065 -2590033.338987065 -5109363.618527723 0 0 0 0 0 110949960.8838151 4447365.182151335 4447365.182151335 9978.615091639042 0 0 0 0 0 110501096.1708777 -5154052.670629953 -5154052.670629953 -10978803.39885494 0 0 0 0 0 123335424.2505217 9843510.188426014 9843510.188426014 5277099.861418745 0 0 0 0 0 117848666.3032066 -16996019.85190809 -16996019.85190809 -20153187.94015107 0 0 0 0 0 111704405.838067 -4688234.766156079 -4688234.76615608 -12102044.43949614 0 0 0 0 0 151485177.9037819 11328916.5074036 11328916.5074036 13295499.48678514 0 0 0 0 0 106220735.5477587 -55041316.19895191 -55041316.19895191 28296141.63171879 0 0 0 0 0 113096250.7443586 -14523062.89310752 -14523062.89310752 -46736024.74622892 0 0 0 0 0 108894911.3943126 4225944.616281176 4225944.616281174 -488552.5277877108 0 0 0 0 0 121451188.7148185 7625677.852417566 7625677.852417568 2103391.402564202 0 0 0 0 0 112342675.0800346 -4533026.077487879 -4533026.077487879 -10015953.9693045 0 0 0 0 0 145056821.2881826 5206585.787021004 5206585.787021004 8695991.321660401 0 0 0 0 0 115828361.9324015 -17130796.80173131 -17130796.80173131 -20438506.51359027 0 0 0 0 0 122019945.9873242 9785913.712956645 9785913.712956645 5134469.565335153 0 0 0 0 0 312213605.2538748 -39637941.60546116 -39637941.60546116 30116541.12670913 0 0 0 0 0 112434566.0424556 -77268170.27376217 -77268170.27376217 27028338.05905043 0 0 0 0 0 120829642.6153608 18203179.40030238 18203179.40030238 10260265.81335771 0 0 0 0 0 109302444.4643174 5237066.447598527 5237066.447598527 -3051494.709694571 0 0 0 0 0 108358625.3002579 2573089.057266394 2573089.057266394 21580427.93024004 0 0 0 0 0 115695231.4220573 6416771.956098909 6416771.956098909 6955504.087374535 0 0 0 0 0 120967250.8855236 6052079.920780578 6052079.920780578 38072073.51290763 0 0 0 0 0 143124998.9684222 1332647.00562354 1332647.00562354 12462072.55523321 0 0 0 0 0 116025598.7300902 10339939.70099814 10339939.70099814 3605283.599643813 0 0 0 0 0 109919952.5092237 1594436.522468417 1594436.522468417 33229381.96841368 0 0 0 0 0 221660275.5880072 -6337070.760128902 -6337070.760128902 27341863.46822277 0 0 0 0 0 134588272.6022478 3248252.130275334 3248252.130275334 30889937.47184234 0 0 0 0 0 103126452.1653294 -1053901.770919002 -1053901.770919002 13007186.70888109 0 0 0 0 0 119442362.2129858 3080984.639115609 3080984.639115609 25966080.68116402 0 0 0 0 0 119482936.33968 9531379.39192239 9531379.39192239 15191117.48763189 0 0 0 0 0 </DataArray>
        <DataArray type="Float64" Name="von_mises_stress" format="ascii" NumberOfComponents="3">48552915.1420242 0 0 72378276.44450387 0 0 78416891.60555956 0 0 62615222.45100852 0 0 103845591.0223287 0 0 85663898.51433928 0 0 32145902.6516314 0 0 96654133.76320809 0 0 73503560.76179203 0 0 27671187.63189193 0 0 36096297.99337504 0 0 58676121.30276613 0 0 98497107.2027384 0 0 117262034.733764 0 0 98423955.74992321 0 0 90506879.16924742 0 0 121815672.5381261 0 0 90580196.12161098 0 0 57857164.63585125 0 0 65463963.36863578 0 0 71982172.07732695 0 0 98831838.10741599 0 0 108904355.7032385 0 0 117722499.201539 0 0 124188856.5065608 0 0 121926260.7519272 0 0 91248123.07278346 0 0 149357376.8399817 0 0 75551348.69574659 0 0 82322246.89275797 0 0 108242732.9427903 0 0 110885427.4237048 0 0 116503422.9780948 0 0 120054509.5492353 0 0 130921944.1634689 0 0 118036177.3982228 0 0 137570746.2704679 0 0 120796852.5231845 0 0 138457119.5788376 0 0 109245098.7755964 0 0 120834805.8113207 0 0 117434661.1172432 0 0 140330439.7120698 0 0 128113738.8341172 0 0 119413276.1662612 0 0 301751305.9975709 0 0 148283081.0056992 0 0 104102690.3865396 0 0 110891650.4228399 0 0 98937487.95497416 0 0 112802504.1753888 0 0 106464373.2594599 0 0 136836371.4889571 0 0 114943592.4007353 0 0 97135793.96698293 0 0 209162621.4962062 0 0 121968640.8429502 0 0 97014549.31661603 0 0 108751157.3312049 0 0 113562172.4603502 0 0 </DataArray>
      </PointData>
    </Piece>
  </UnstructuredGrid>
</VTKFile>
