<?xml version="1.0"?>
<VTKFile type="UnstructuredGrid" version="2.2">
  <UnstructuredGrid>
    <Piece NumberOfPoints="7058" NumberOfCells="13804">
      <Points>
        <DataArray type="Float64" NumberOfComponents="3" format="ascii">0.9875925925925668 0 0 1 0 0 0.9909330519583094 0.009092035120655317 0 1 0.01249999999997642 0 0.981236087833541 0.009384804025008363 0 0.9880515345602476 0.01848938527450136 0 0.9751851851851336 0 0 1 0.02499999999995287 0 0.9689358255359715 0.01015806840269132 0 0.9747007252986692 0.01778140907892546 0 0.9898047665823082 0.03135447436134337 0 0.9627777777777005 0 0 0.9786036581501893 0.02764756447656963 0 1 0.03749999999992729 0 0.9559751956434817 0.01092001010163035 0 0.9627777777776916 0.01740999411222591 0 0.967436764206862 0.02525660512630684 0 0.9905461975190408 0.04376583944112586 0 1 0.04999999999989967 0 0.9808337364892156 0.03952832972181813 0 0.950370370370224 0 0 0.9702346028092772 0.03619517821026831 0 0.9898969123347278 0.05624714897654827 0 1 0.06249999999987328 0 0.9442929485568904 0.008568425916787565 0 0.9557746443779271 0.02280619296852041 0 0.9585202132042236 0.03407231738455593 0 0.9826664106399 0.04999425894106799 0 0.9894765352417896 0.06843801396815519 0 1 0.07499999999985285 0 0.973146783234578 0.04821266290053368 0 0.937962962962791 0 0 0.9446345804982115 0.01907737174045594 0 0.9616802183005504 0.04595372139335018 0 0.9782823802527215 0.06030217706057558 0 0.9894519851930857 0.080507444089975 0 0.9325216333097439 0.01284474774185154 0 0.9465170805368653 0.03069153536665827 0 0.9496934608695121 0.04256781340870852 0 0.9795050742412881 0.07337817574428183 0 1 0.08749999999983377 0 0.9652162332992642 0.0572051292057724 0 0.9255555555553578 0 0 0.9345170635053275 0.0271955834615502 0 0.9530938154871313 0.05405921440534425 0 0.9685460058506177 0.06909536583253464 0 0.9872836939090677 0.09382659378943105 0 0.9805226442604198 0.08514170610770098 0 1 0.09999999999981468 0 1 0.1124999999997956 0 0.9889937376802204 0.1070784737744341 0 0.9184213778407759 0.01153481072292628 0 0.9223932261392338 0.02381901807554153 0 0.9376425684114676 0.03909845439208778 0 0.9410785228560199 0.05075649555713688 0 0.9720472864580519 0.08087326891008863 0 0.9894886508996676 0.1189207605969387 0 1 0.1249999999997738 0 0.9565481966699863 0.06560763364229605 0 0.9131481481478814 0 0 0.9256394326032034 0.03591922196440146 0 0.9445312595081421 0.06233595698464906 0 0.9599378992571299 0.07751709926144663 0 0.9751463398341744 0.09296133504419171 0 0.977685013110221 0.1037319287290392 0 0.9810986690329742 0.1134226928158276 0 0.9892291597298655 0.1312762650808349 0 1 0.1374999999997401 0 1 0.1499999999997036 0 0.9891738418632861 0.1437446394041745 0 0.9055302637765481 0.0101302536416794 0 0.9103058984968673 0.02099397219073332 0 0.9137203867287959 0.03267443667530408 0 0.9290557276374998 0.04757911448858274 0 0.9325145141653937 0.05916486362667337 0 0.9631498161107571 0.08951087247539322 0 0.9793974639034492 0.1233896481264039 0 0.9892504408922129 0.1561987623506804 0 1 0.1624999999996672 0 0.9480237354561604 0.07416040310426093 0 0.9007407407404482 0 0 0.9168131676180311 0.04450612865147885 0 0.9360190900116129 0.07083238511375277 0 0.9511626858607409 0.08608459363075451 0 0.9662588572374387 0.1010948051843489 0 0.9699284795713125 0.1139926528523222 0 0.9766014072018844 0.1359404142882744 0 0.9782682008822188 0.1499161975500632 0 0.9897133697892461 0.1685239443991955 0 0.8933901096739579 0.009436185770288204 0 0.8983317592082685 0.01883746530345051 0 0.9017488556601939 0.0293401717480751 0 0.9047869272623142 0.0413153227796613 0 0.9204682369066322 0.05619066321839233 0 0.9239884312890809 0.06761082730105802 0 0.954473351667402 0.09751690899643628 0 0.9697733599501901 0.1253958683519025 0 0.9801423744067624 0.1626564265554751 0 1 0.1749999999996308 0 0.9391166733948066 0.08287876937551382 0 0.888333333333015 0 0 0.9075625082540145 0.05302522004727398 0 0.927121237397895 0.07951631680772839 0 0.9424154800515862 0.09458456433571753 0 0.9578887843688026 0.1088935957244809 0 0.9604213595184075 0.1209516686117315 0 0.9637488135307093 0.133244700384778 0 0.9668432490205442 0.145078023399584 0 0.969474841015824 0.1575501707470274 0 0.9887236713469536 0.1815698909105974 0 0.9815957923200979 0.1736451256768208 0 1 0.1874999999995943 0 1 0.1999999999995579 0 0.9917067147364774 0.193325336265646 0 0.8820492215469231 0.01040767816386814 0 0.888182248194332 0.01734674086004946 0 0.8900261939595322 0.02656549308898275 0 0.8928815704653874 0.03804595474422054 0 0.8959456776192817 0.05005331224609396 0 0.9116768086241978 0.06446485118118138 0 0.9151380011685752 0.0761717131371191 0 0.945767828924543 0.1059278755328577 0 0.9723457764198371 0.1703066898351054 0 0.9898709704624986 0.2040798474015603 0 1 0.2124999999995215 0 0.9303062095830514 0.0913038955393234 0 0.875925925925582 0 0 0.8992435267679022 0.06163480385134336 0 0.9182124173285044 0.08822117361034083 0 0.9336464510680815 0.1029160467280192 0 0.949135214612959 0.1175148516015932 0 0.952148027799277 0.1295003702769827 0 0.9551291464640719 0.1416041482895573 0 0.9581404898871273 0.1535170980979659 0 0.9613278971593139 0.1658553448142396 0 0.975959823159116 0.1812555885609531 0 0.9799389318729345 0.1934769430169201 0 0.9870483146996691 0.2170972481177763 0 1 0.2249999999994851 0 1 0.2374999999994486 0 1 0.2499999999994122 0 0.9905152135455024 0.2438876645106842 0 0.9889921728925015 0.2311933402830013 0 0.8702405722522972 0.01153183707153625 0 0.8778446069385251 0.02226596653938895 0 0.8809179771482817 0.03471233856836119 0 0.8840098105070463 0.04675260890794683 0 0.887038142334404 0.05872508366828874 0 0.9028083494007988 0.07325309055091309 0 0.9062819421601765 0.08493945213779897 0 0.937164018279832 0.1144061874668714 0 0.9643517785066094 0.178232064094229 0 0.9796819702344095 0.20622536162261 0 0.9918555620729126 0.2542926600188533 0 1 0.2624999999993757 0 0.9214361269412978 0.09985788521744278 0 0.8635185185181053 0 0 0.8904296743747178 0.07028726541430907 0 0.909220561972561 0.09684906310486788 0 0.9247890426281782 0.1114158722759022 0 0.9401313854525635 0.1261505528827969 0 0.9432381348243219 0.1382318401149989 0 0.9463455456526706 0.1503147613974077 0 0.9494520603779625 0.1623987735212161 0 0.9525600098162307 0.174479057169192 0 0.9676037198428228 0.1899360837526319 0 0.9702491220307308 0.2021462906954264 0 0.9737989536110425 0.2144719318282871 0 0.9770273006186888 0.2263178053721167 0 0.9796932750041508 0.2392893339990875 0 0.9824711673029303 0.2517369549410251 0 0.9863511237465088 0.2624426994156402 0 0.8579113846164775 0.01085327189867579 0 0.8643975032817042 0.02106207912375428 0 0.8688199017652357 0.0318230758829597 0 0.8720376003011137 0.04341538079807704 0 0.8751310852245894 0.05545277393269252 0 0.8781492506433946 0.06741321201963553 0 0.8937591412305905 0.08202745617141055 0 0.8973363492107725 0.09367221887505413 0 0.9281811679913834 0.1230396118208738 0 0.9556153663941216 0.1866346818655654 0 0.9907071581530111 0.2714043257736187 0 1 0.2749999999993393 0 0.9126216793211968 0.108450331356837 0 0.8511111111106724 0 0 0.881459479084409 0.07910042073730149 0 0.9003522198125842 0.105597715715537 0 0.91579594085114 0.1199765539041915 0 0.9312230053712659 0.1348821343114364 0 0.9343284894140709 0.1469639338337853 0 0.9374345575342797 0.159047242885188 0 0.9405406528654795 0.1711305601881543 0 0.9436472643542461 0.1832130180668923 0 0.9587763284618704 0.1986505642886562 0 0.9618824498112964 0.2107367457545277 0 0.9649471303546084 0.2228598147913196 0 0.9679751608629173 0.2347761396466467 0 0.970960884602746 0.2472311371811733 0 0.9742265508111406 0.25941478244175 0 0.9789870721959414 0.2724087443977816 0 0.9890874855643557 0.2821801687092698 0 1 0.2874999999993029 0 0.8445253332640813 0.01160751185061568 0 0.8529631394293575 0.01931322795287048 0 0.8568982244146414 0.02832287141201075 0 0.8600669243166078 0.04007853496620162 0 0.8631601832196827 0.05211347913381912 0 0.8662414299536116 0.06413871241132266 0 0.8692582942164072 0.07605838032211312 0 0.8847748544983953 0.09088641662917107 0 0.8881402657126924 0.1024850490300985 0 0.9192104846511699 0.1315340674012517 0 0.9467530973829499 0.1952973038217914 0 0.9929472411488747 0.2937499999992846 0 1 0.2999999999992664 0 0.9033630530072688 0.1171325952402879 0 0.8387037037032392 0 0 0.8723856595429487 0.08792979386716962 0 0.8913653618911034 0.114296324580609 0 0.907028934308004 0.1286266820276244 0 0.9223147815691327 0.1436121314067602 0 0.9254221947876997 0.1556983023870359 0 0.9285239212891836 0.1677786668140507 0 0.9316291552771685 0.1798604881968646 0 0.9347337460494567 0.1919434879553038 0 0.94985769950395 0.2073829611197836 0 0.952963249070427 0.2194644893768681 0 0.9560755309535238 0.2315428106366432 0 0.9591832350435407 0.2436317458045976 0 0.9622893721049333 0.255725880627473 0 0.9653953514286826 0.2678187565727516 0 0.9781177030178747 0.2840368429793497 0 0.9827039490816719 0.2936614010011572 0 0.9892425494703002 0.3063675491218463 0 1 0.31249999999923 0 1 0.3249999999991935 0 0.9897999028296477 0.3199385458521615 0 0.8306400280685187 0.009849342422336078 0 0.845010699373036 0.02470841823374991 0 0.8480974541420137 0.03674279012911991 0 0.8511899809715866 0.04877572162481919 0 0.8542835871859104 0.06081103386947297 0 0.8573768937702722 0.07285004832463432 0 0.860472853649533 0.08489222188869967 0 0.8759136103712174 0.09962048331584861 0 0.8792454579339091 0.1113040558910583 0 0.9103897615921591 0.1403565626080565 0 0.9378388600815954 0.2040278532432941 0 0.9685076098277047 0.279888960454239 0 0.9713023984197001 0.2920449403343012 0 0.9907948350657254 0.332242777633545 0 1 0.3374999999991571 0 0.8946788507284453 0.1257811933589476 0 0.826296296295737 0 0 0.832769728307147 0.02232352841603741 0 0.8636441366783127 0.09660923507397919 0 0.8825151736344512 0.1229809769206364 0 0.8980903103915506 0.1374440141034513 0 0.9134210374841107 0.1523624691921808 0 0.9165103814354217 0.1644253701902504 0 0.9196141889952452 0.1765074505417773 0 0.9227180423712562 0.1885894049823004 0 0.9258219163366133 0.2006725798424016 0 0.9409420654980181 0.2161107519099004 0 0.9440496506294347 0.2281954669322606 0 0.9471581852301397 0.2402774710706274 0 0.9502633948962814 0.2523672487234627 0 0.9533683720454407 0.264455646845258 0 0.9564790363358506 0.2765300324178291 0 0.9750097940466145 0.3039142304250396 0 0.9781389095181501 0.3159738368443366 0 0.9803157199135246 0.3279776592192862 0 0.9904675417502906 0.3454132082416514 0 1 0.3499999999991207 0 1 0.3624999999990843 0 0.988873100560316 0.3563942151250649 0 0.820217592310283 0.008128506806577696 0 0.8214636635623691 0.01861825211876102 0 0.8360775746148988 0.03359086485191993 0 0.8392124567486468 0.04546944128974044 0 0.8423131067591747 0.05747224104452116 0 0.8454062361113506 0.06950827544558066 0 0.8484997073805572 0.08154803136656433 0 0.8515694444807302 0.09337722618885738 0 0.8671307294440878 0.1081215280761099 0 0.8705738838014174 0.1198325256511123 0 0.9014500755452992 0.14918988610235 0 0.9289254457153588 0.2127557395556001 0 0.9595920418306958 0.288600291296204 0 0.9626978648865938 0.3006949018104551 0 0.9825579934631614 0.3385365599449124 0 0.989260738839672 0.3685474363274694 0 1 0.3749999999990478 0 0.8859067639885915 0.1345595498750869 0 0.8138888888882863 0 0 0.8241174228491418 0.03022902673776848 0 0.8550115562319937 0.1049786959928596 0 0.8736669918530836 0.1317098183778338 0 0.8890874761868035 0.1461502106486422 0 0.9044995836498517 0.1610760139440487 0 0.9076018431104889 0.1731565966620972 0 0.9107034306966478 0.1852331789577791 0 0.9138073921327644 0.1973184510066216 0 0.9169102056449068 0.209400934593893 0 0.9320284833703378 0.2248391030491164 0 0.9351353856697241 0.236922909537366 0 0.9382403554110023 0.2490088998635203 0 0.9413442847949305 0.2610931334244611 0 0.9444501864385733 0.2731730272380701 0 0.9475624680925341 0.2852457846739342 0 0.9657406992328481 0.3127831483540519 0 0.9687247916159658 0.324861888093634 0 0.9720124174281377 0.3369833514518179 0 0.9775954192627541 0.3493191496719099 0 0.9782687107116794 0.3623404462803122 0 0.9890784814264006 0.3814352090223999 0 0.8090490841730528 0.01246689065478076 0 0.8120502408745907 0.02661711878373555 0 0.8272521750002346 0.04210148749682835 0 0.8303444490039715 0.05413354259123411 0 0.8334366208370623 0.066167352191925 0 0.8365280558159945 0.07820235079926935 0 0.8395395135630896 0.09012483706558383 0 0.8428543367977129 0.1018227114339691 0 0.858481576610729 0.116590829577966 0 0.8617074087221035 0.1283856973144404 0 0.8924910781891171 0.1577293047099315 0 0.9200132982810351 0.2214834423411969 0 0.9506698268204572 0.2973360357717409 0 0.9537737978098308 0.3094309497654806 0 0.9792785964987858 0.3749877948623181 0 1 0.3874999999990114 0 0.8766805753590123 0.143270344433221 0 0.8014814814808531 0 0 0.8152893529001705 0.03876215215450632 0 0.8463891133803899 0.1133506456062759 0 0.8647156623256034 0.1403631724317751 0 0.8803220634656486 0.1547947294611666 0 0.8955929520824157 0.169807096227423 0 0.8986933951536215 0.1818878962959246 0 0.9017950505008425 0.1939665050307508 0 0.9048972276348932 0.2060461059544712 0 0.9079983047111428 0.2181288871090273 0 0.9231172522768603 0.2335667234065584 0 0.9262207441183232 0.2456511073872446 0 0.9293228497599573 0.2577388449164333 0 0.9324283832471584 0.2698170560586396 0 0.9355356825754058 0.2818967474335302 0 0.9386440007736169 0.2939809643075484 0 0.9568776298374507 0.3215269255287896 0 0.9599819382165335 0.3336227036166971 0 0.9630867495209392 0.3457140970368661 0 0.9664444510830298 0.3578073684643046 0 0.9686198947892386 0.3698475881984039 0 0.9873040642314791 0.3950665586617914 0 0.9781966743361402 0.3872464777681623 0 1 0.399999999998975 0 1 0.4124999999989385 0 0.9894588942509899 0.4076377221495791 0 0.7949820515410566 0.01151341351229781 0 0.7997795941785132 0.02320499603579756 0 0.8032152269612418 0.03537881368147086 0 0.8183783599035217 0.05079374477011295 0 0.8214685049223303 0.06282782472973573 0 0.8245585411522331 0.07486144037206603 0 0.8276412213363153 0.08688846605576986 0 0.8306728077137724 0.09886270796000597 0 0.8340294303793547 0.1104488128363962 0 0.8497764608256172 0.1251564549600358 0 0.8528113563514632 0.1370945615148247 0 0.8836712010665881 0.166540194015721 0 0.9111021218273749 0.2302118482998918 0 0.9417478253923062 0.3060721209383896 0 0.9448510611728063 0.3181659051809941 0 0.9703892443528848 0.3802349851720264 0 0.989361178425755 0.4194621493664384 0 1 0.4249999999989021 0 0.8679910993366954 0.1519149640751986 0 0.7890740740733984 0 0 0.8063884688913345 0.04744765816731157 0 0.8374573733033586 0.1221287721577039 0 0.8558276180339904 0.1490814372606251 0 0.8713847711985309 0.163603160826643 0 0.8866858544427053 0.1785362455236645 0 0.8897854368494769 0.190616523773565 0 0.8928867783995609 0.2026914379629954 0 0.8959873184842784 0.2147668388628514 0 0.8990885106076976 0.2268571627676132 0 0.9142041898079267 0.2422947349023344 0 0.9173063822489552 0.2543780391900443 0 0.9204090196414982 0.2664597542802222 0 0.9235154047975358 0.2785409279863004 0 0.9266214851318462 0.2906246474353063 0 0.9297237860909534 0.3027141726466273 0 0.9479560841769772 0.3302539452516214 0 0.951057365614022 0.3423361020161711 0 0.954162980578261 0.3543938747433589 0 0.9572396215406972 0.3664253904177186 0 0.9601024343738588 0.3783025809176476 0 0.9750603775375273 0.3964639595374485 0 0.9652132907191692 0.390360237315285 0 0.9786362290695647 0.4061076680777691 0 0.9799740975461764 0.4157382830323904 0 0.9885677683085627 0.4315579009107194 0 1 0.4374999999988656 0 1 0.4499999999988292 0 0.988822507367773 0.4440808879981855 0 0.7827497393995184 0.0105011078118324 0 0.7874792080314013 0.02091811229615669 0 0.7912988536777831 0.03212030141534073 0 0.7944176312697937 0.04411531177698358 0 0.8095000092796544 0.05948747738815383 0 0.8125916694942515 0.07152338790937235 0 0.815684245601444 0.08356054802910443 0 0.8187772368661805 0.09560035903672771 0 0.8218030668949918 0.1075738686021498 0 0.8251745214362123 0.1191563514324184 0 0.8409103466937312 0.1338420560982751 0 0.8439181648236675 0.1458083296591906 0 0.8747305715676092 0.175363008809812 0 0.9021901100956546 0.2389408655142292 0 0.9328263772189701 0.314804898913993 0 0.9359315516077542 0.3268897120093237 0 0.977925340958955 0.4252578704488559 0 0.9895766848833238 0.4564013572173884 0 1 0.4624999999987927 0 0.8592086216670551 0.1606950303271478 0 0.7766666666659507 0 0 0.7975302330336264 0.05614844923264189 0 0.8284643671048469 0.1308183120128223 0 0.8469715510171837 0.1578317742508194 0 0.8623850700875895 0.1723110382708122 0 0.8777799713184559 0.1872625150343861 0 0.8808785481995041 0.1993395991844449 0 0.8839790105035915 0.2114143176684106 0 0.8870795759660319 0.2234877836393088 0 0.8901795448171126 0.2355805499684758 0 0.9052915730498441 0.2510218967257855 0 0.9083936486640902 0.2631035351742118 0 0.9114971093501514 0.2751858783174586 0 0.914601562222755 0.2872685808012183 0 0.9177041240157823 0.299354114878394 0 0.9208055602348424 0.3114408338949172 0 0.939039807505592 0.3389483851946831 0 0.9421462028623175 0.3510262089208951 0 0.9452442493015054 0.3630962367474997 0 0.9483687777381313 0.3751841796255576 0 0.9514710721217896 0.3872823648046433 0 0.9666037543308998 0.4027448913845333 0 0.9698499447441056 0.4162164091620832 0 0.9760596533285458 0.4375528038204544 0 0.9786687668103561 0.4513093152219836 0 0.9895296853039605 0.4687504347444234 0 1 0.4749999999987564 0 1 0.48749999999872 0 0.989175168562254 0.4812508419651529 0 0.7704443986952367 0.01011196051114081 0 0.7752565841444867 0.01905981896944444 0 0.7793983427255815 0.02928361700791123 0 0.7824746540995442 0.04077923723671927 0 0.7855680089007452 0.05281010858458196 0 0.8006230999016642 0.06818338087197887 0 0.8037141641069068 0.08021891684044591 0 0.8068043594519436 0.09225768008919102 0 0.8098953690927464 0.1042977550605084 0 0.8127388219645099 0.1161268016770285 0 0.8158453112169061 0.1278521714518145 0 0.8319385996804773 0.1424654190442606 0 0.8350136693466124 0.1545106764030981 0 0.8657757724569333 0.1839136230691323 0 0.8932787415784096 0.2476684587246951 0 0.9239066572695285 0.3235242268639728 0 0.927017199622131 0.3355871761767735 0 0.9548587173286408 0.3993346732763315 0 0.9688288582201166 0.4278399516628327 0 0.9798268517746711 0.463150006713533 0 0.9887729656592288 0.4955413377364778 0 1 0.4999999999986943 0 0.8499908314934891 0.1694165311602757 0 0.7642592592585096 0 0 0.7886552733956519 0.06484282513600723 0 0.8197391563053164 0.1392260291587399 0 0.8380269772442368 0.1664905183717749 0 0.8536079187493085 0.1809742390585427 0 0.8688704389907453 0.1959954542438744 0 0.871968286555808 0.2080686789855226 0 0.8750693418138695 0.2201454573439268 0 0.8781717837948777 0.2322181975429672 0 0.8812685468600039 0.2443108316220413 0 0.8963804040108575 0.2597489166024141 0 0.8994823909014369 0.2718307216149777 0 0.902584361421501 0.2839133882937872 0 0.9056860339627084 0.2959955708144396 0 0.9087880368416809 0.3080775969786166 0 0.9118874791497218 0.3201580848604062 0 0.9301319801646023 0.3476408695469086 0 0.9332309010886647 0.3597318064085234 0 0.9363419236176265 0.3718237688263757 0 0.9394436273241095 0.3839192190618961 0 0.9426015008674222 0.3960050982743646 0 0.9577150908560814 0.4114656342925583 0 0.9599559811843221 0.423961818379419 0 0.9631664484926841 0.4357413600212483 0 0.9669522262789518 0.4475744415877581 0 0.9701253066671821 0.4597463180307034 0 0.9787926363100583 0.4749758434702921 0 0.9785707911570364 0.4875000085724898 0 0.9922845346483259 0.5062499999987042 0 1 0.5124999999987164 0 0.7582479743155675 0.01005637536489646 0 0.7643755866832648 0.01717921731024007 0 0.7674268725365178 0.02647987910328677 0 0.7705077653838737 0.03744261411286874 0 0.7736019228568365 0.0494695152242724 0 0.7766901227574161 0.06150106731300806 0 0.7917458348810882 0.07687700400744912 0 0.7948358737816109 0.08891320034427609 0 0.7979252396963836 0.1009518639906235 0 0.8009145599392573 0.1128631426179875 0 0.8039456287103933 0.1247537968749809 0 0.8070775528189766 0.1365456165166201 0 0.8229961116385129 0.1512392308518833 0 0.8261306624503255 0.1632316461939468 0 0.8569559008914855 0.1927554397871123 0 0.8843678108103988 0.2563941451607351 0 0.9149889338033776 0.3322298405340678 0 0.9181023139329549 0.3442915429137931 0 0.9457003595344835 0.4081054110405625 0 0.9707095413250925 0.4692765892830979 0 0.9781831625285626 0.4979404645263819 0 0.9825202993923559 0.5077983990999929 0 0.9891746824526707 0.5187499999987335 0 1 0.5249999999987492 0 1 0.5374999999987822 0 0.9908484328511572 0.5312499999987658 0 0.8412922435391091 0.1780690981573135 0 0.7518518518510555 0 0 0.7797784932241366 0.07353533236773815 0 0.8106809371157548 0.1481158349496229 0 0.8291430170117488 0.1752107833617466 0 0.844726859514891 0.1897754073463202 0 0.8599485017162121 0.2047563984741946 0 0.8630599156685672 0.2168152058818979 0 0.8661567565714872 0.2288886787379469 0 0.8692596301198001 0.2409571237103819 0 0.8723582078248318 0.2530382084411237 0 0.8874688156809531 0.2684754939839928 0 0.8905695163191056 0.2805578616555785 0 0.8936703752150787 0.2926398793079141 0 0.8967725973368135 0.3047205038527819 0 0.8998745949434641 0.3168004440018497 0 0.9029736304253176 0.32888186026858 0 0.9212130295022121 0.3563699571821402 0 0.9243166746208422 0.3684632680240245 0 0.9274186750073405 0.3805571160025401 0 0.9305290021761565 0.3926484262365407 0 0.9336413147982303 0.4047379812410759 0 0.9487581814784591 0.4201925369732319 0 0.9517399639576084 0.4322611768248695 0 0.9549886723617741 0.4442926301853316 0 0.958093818689489 0.4563812718746038 0 0.960775565992223 0.4680527275858 0 0.9662693475541898 0.4798578220393421 0 0.9674014326291304 0.4926720810307599 0 0.9893675865783964 0.543904491359587 0 1 0.5499999999988151 0 0.7456481481473322 0.00847609097789462 0 0.7552567143754704 0.02182169162362163 0 0.7585497138948987 0.03428793546108011 0 0.7616494174546469 0.0461602270785844 0 0.7647233324146983 0.05816278094072348 0 0.7678113003684076 0.07019693835294397 0 0.7828669325039155 0.08557127948267867 0 0.7859566168512473 0.09760981814580494 0 0.7890237075097294 0.1096389898353673 0 0.7919984879010318 0.1216334297708734 0 0.7950990384216793 0.133501619215561 0 0.7981967036711348 0.1454275369001417 0 0.8141001685921272 0.1601768638129769 0 0.8172957931631696 0.1720017606274718 0 0.848048240301239 0.2014931278356703 0 0.8754577721569021 0.2651203211684374 0 0.9060749473520822 0.3409521211475978 0 0.9091806537644308 0.3530248040433277 0 0.9367283657926136 0.4168201740971902 0 0.9704806794143901 0.505191476609878 0 0.9752847799571003 0.5170861916481742 0 0.9799352709123956 0.528338133787275 0 0.9828565689458613 0.5370787425800502 0 0.9919023468270702 0.5551795661952059 0 1 0.562499999998848 0 0.8325637330266717 0.1868374036405272 0 0.7394444444436057 0 0 0.7708981267097756 0.08222994957411221 0 0.8017500532663966 0.1571601806060597 0 0.8202415120782188 0.1839125931979012 0 0.8358931205815328 0.198523135598755 0 0.8510637299267679 0.2134886582341711 0 0.8541528774272589 0.2255433635156255 0 0.8572513334710378 0.2376099027369622 0 0.8603497199500794 0.2496840242573269 0 0.8634500777036198 0.2617616540762512 0 0.8785571281389927 0.2772026472776042 0 0.8816572093159735 0.2892846013149948 0 0.8847575815516875 0.3013654492265822 0 0.8878586736009624 0.3134460705058224 0 0.890961287034358 0.3255281041707643 0 0.8940587834551197 0.3376095476533667 0 0.9122911530101053 0.3651068819091661 0 0.9153952511078495 0.3771967982566742 0 0.9184967769386637 0.3892891713962944 0 0.9215972461808865 0.4013801777920165 0 0.9246914142378202 0.413468600005781 0 0.93983817943764 0.428885359594709 0 0.9429600592217624 0.4409243510340243 0 0.9460622339096685 0.4530201007696114 0 0.9491639495816737 0.4651194645072381 0 0.9522663705142552 0.47721561823998 0 0.9553690949515328 0.4893118860929754 0 0.9584713048950715 0.50140970541026 0 0.9800347959745013 0.5443730350528398 0 0.982739590037837 0.5537801746482 0 0.9865599461976047 0.5635722973633269 0 1 0.574999999998881 0 1 0.5874999999989139 0 0.9894304399610825 0.5815186875300489 0 0.9912169743666359 0.572103825055248 0 0.7333221517348794 0.01119165690797547 0 0.7429846914686276 0.02004403187730639 0 0.7466849605121962 0.03090228754044947 0 0.7497725531066869 0.04292091330766968 0 0.7527729615652555 0.05485221762566718 0 0.7558453140641933 0.06686180924554719 0 0.7589324130402259 0.0788906906765347 0 0.7739883332301378 0.09426695413722892 0 0.7770779736061668 0.1063054567693324 0 0.7801698419110331 0.11834629242678 0 0.7831704932356862 0.1304123077186995 0 0.7862452594321049 0.1424608090135075 0 0.7893595644486441 0.1544152094213649 0 0.8049780332320078 0.1689654691101018 0 0.8083859702407563 0.180694722967067 0 0.839136376420432 0.2102135609425234 0 0.866544592782617 0.2738497780709176 0 0.8971579073511747 0.3496814248520183 0 0.9002636977404267 0.3617577262864258 0 0.9277852427831241 0.4255342513649013 0 0.9620259039071419 0.5139005908531429 0 0.9664917503567783 0.5276561975139239 0 0.9740967584128555 0.5375280527017832 0 0.9898505130515278 0.5933625857755668 0 1 0.5999999999989468 0 0.8234934747304733 0.1955016035813055 0 0.7270370370361676 0 0 0.7620195036652829 0.09092588981959798 0 0.7928210822567042 0.1659745175979437 0 0.811335277012574 0.1926089199422956 0 0.826929564701496 0.2072306425045122 0 0.8421476834697482 0.2221909289962966 0 0.8452469285764383 0.2342590115912346 0 0.8483456805864568 0.2463302162823751 0 0.8514433304074196 0.2584147760832067 0 0.8545406659784581 0.270496332573311 0 0.8696442281190215 0.2859318683930348 0 0.8727457603407464 0.298010693923292 0 0.8758461239910523 0.3100908900376107 0 0.8789466547754864 0.3221720238200534 0 0.8820468280578347 0.3342540028793837 0 0.8851427605719495 0.346332614588797 0 0.9033727831973138 0.3738387009764442 0 0.906474953332377 0.3859304051824706 0 0.9095761106106744 0.398020561653184 0 0.9126770657665284 0.410111510798402 0 0.9157719408691039 0.4221974878127244 0 0.9309207251835524 0.4375839902723097 0 0.9340243167211082 0.4496727714729942 0 0.9371260795482331 0.4617669259468838 0 0.9402371070205109 0.4738548769042328 0 0.9433398792824674 0.4859501304848446 0 0.9464411732126268 0.498046677812831 0 0.9495399688380424 0.5101394852194557 0 0.9706662533516635 0.5489107416165964 0 0.9739594794190127 0.5619781064659598 0 0.978992620148905 0.5744192865138763 0 0.9794108931609077 0.5872852682569506 0 0.9902083716380794 0.6058831123183481 0 1 0.6124999999989796 0 0.7206685032582711 0.009293222786390156 0 0.7338386493842292 0.02755987680167588 0 0.7383125552284961 0.0400992330191238 0 0.74086500281871 0.05157956500617206 0 0.7438913855896043 0.06353910315335751 0 0.7469634799987533 0.07555122627690727 0 0.7500515429903375 0.08758389811706742 0 0.7651090583376885 0.1029628562523142 0 0.7681980973171494 0.1150017562867757 0 0.7712875421410577 0.1270438256946647 0 0.7743638712533889 0.1390878677471024 0 0.7774510736276992 0.1511303622170153 0 0.7804983303994053 0.1629395848778675 0 0.7961990431617788 0.1776437601453313 0 0.7994242327540857 0.1893336157738388 0 0.8302232640617095 0.2189173813754165 0 0.8576347268811916 0.2825775812417348 0 0.8882406595141752 0.3584103431420441 0 0.8913498516769077 0.3704897856777696 0 0.9188775418296666 0.43428408125493 0 0.9530228158433093 0.5226347419138309 0 0.9645247335564632 0.5388048489091362 0 0.9809191573914795 0.6000266099041833 0 0.9898661514839137 0.6176351098456382 0 0.814757334806846 0.2042618293915828 0 0.7146296296287233 0 0 0.7231786262000771 0.0202255581375892 0 0.7531407141672644 0.09961928055928207 0 0.7839589121013497 0.1745591551078364 0 0.8024429817421044 0.2013189976552336 0 0.8180738176079836 0.2159663441374898 0 0.833245547680117 0.2309079663245996 0 0.8363428500145422 0.2429771663519035 0 0.8394373683396325 0.2550675819635553 0 0.8425260080257436 0.2671657056012361 0 0.8456201516048895 0.2792489601780753 0 0.8607249078897339 0.2946694601011246 0 0.8638288753478387 0.3067406873070373 0 0.8669341381793557 0.3188160892536862 0 0.8700337700730835 0.3308975152887671 0 0.873133233932439 0.3429788008847355 0 0.8762317560491605 0.3550581933326961 0 0.894453876584294 0.3825751353406394 0 0.8975555271800394 0.39466149634363 0 0.9006559525773898 0.4067513753888977 0 0.9037558097353191 0.4188428400543019 0 0.9068545918760225 0.4309339506186964 0 0.9219835554297036 0.4463606157137755 0 0.9250942181552123 0.4584287496072178 0 0.9282001817652381 0.4705072685287021 0 0.931312358438799 0.4825870167740339 0 0.9344133073016001 0.4946832598819416 0 0.9375115875636499 0.5067784903812884 0 0.9557515869625619 0.5343026536633398 0 0.9406093937141133 0.5188644490182229 0 0.9619563380991262 0.558505224246403 0 0.9581852367041269 0.5464228664692012 0 0.9650582153125522 0.5706068941587051 0 0.9681600937494744 0.5827075562085928 0 0.9705916683004328 0.5949797461654465 0 0.9821081390883086 0.6110700227536205 0 1 0.6249999999990126 0 1 0.6374999999990455 0 0.989174682452666 0.6312499999990291 0 0.7084227448626288 0.009313114363137854 0 0.7135318424547188 0.01695913915258344 0 0.7216656974908099 0.03220981711904062 0 0.7285500343500193 0.03891154450865021 0 0.7293389973465151 0.04868332045801373 0 0.7319060955999728 0.06017962263789038 0 0.7349954594907406 0.07221017812796102 0 0.7380851070813501 0.08424240453486354 0 0.7411741525407874 0.09627624165291669 0 0.7562296170117708 0.1116561215911702 0 0.7593173151281545 0.1236963884115585 0 0.762402369261609 0.1357415297031512 0 0.7654912892275957 0.1477734637293452 0 0.7685041671981756 0.1596958814806502 0 0.771663278396195 0.1715061639923929 0 0.7874027855824246 0.1861636000156469 0 0.7905407081505154 0.1980529699644558 0 0.821316326847828 0.2276739068134533 0 0.8487055640981327 0.2913464992615045 0 0.8793331229314196 0.3671384907952791 0 0.8824363735783765 0.3792177449619446 0 0.909955392035237 0.4430256994893176 0 0.9437182912812179 0.5309450752149004 0 0.9734685619197441 0.6072415360866948 0 0.9778289185345521 0.6197701359363663 0 0.9922317142749201 0.6433147029886879 0 1 0.6499999999990784 0 0.8056971367664919 0.2129403668959546 0 0.7022222222212797 0 0 0.7131392091471059 0.02617437338920937 0 0.744262686083796 0.1083118139527998 0 0.7751689528115896 0.183127304017836 0 0.7935632354519018 0.2100410582039259 0 0.8091201578717754 0.2246956875260989 0 0.8243529765839539 0.239660203433494 0 0.8274278220588542 0.2517319334133966 0 0.8305160845754844 0.2638346160631437 0 0.8336080015381861 0.2759169911745986 0 0.8367006784963544 0.2879983929083323 0 0.8518107188198157 0.303406085870731 0 0.8549121375382336 0.3154763313987341 0 0.858019269814589 0.3275472608211735 0 0.86112142312634 0.3396224873989387 0 0.8642206580652976 0.3517029552552714 0 0.8673201779097032 0.3637827016848279 0 0.8855368330628812 0.3913035866222828 0 0.8886365398709951 0.4033897914187392 0 0.8917357212377164 0.4154833396388819 0 0.8948333325778342 0.427573275406225 0 0.8979329046311595 0.4396657394901558 0 0.9130569910165773 0.4550936017385519 0 0.9161741844504141 0.4671713142423998 0 0.9192848287970868 0.4792299548235343 0 0.922386721114319 0.491320597789897 0 0.9254863873423012 0.5034162849010307 0 0.9285819440322014 0.5155068075245268 0 0.9468228407747676 0.543039226149142 0 0.9316852413738591 0.5275918836661115 0 0.9530261596501175 0.567241763246139 0 0.9499246503980269 0.5551403932762501 0 0.9561274287515924 0.5793422612910464 0 0.9592297571200925 0.5914415386096139 0 0.9623315010120241 0.6035447695643408 0 0.9822358505861348 0.6423198441328175 0 0.9881657427686675 0.6546330767927208 0 1 0.6624999999991114 0 0.6960185185175514 0.01033824067554388 0 0.7022501288055106 0.01978942708659066 0 0.7181223488088552 0.04406314666017927 0 0.712682111611479 0.03572744045422267 0 0.719944858278011 0.0568395154905646 0 0.7230319106878611 0.06886903341534881 0 0.726119663324335 0.08090099703551497 0 0.7292075305763618 0.09293422073810029 0 0.7322965825102927 0.1049688186084983 0 0.7473511256650371 0.1203484438469385 0 0.7504390547186175 0.1323876923526553 0 0.7535254010592305 0.1444210174282438 0 0.7566146633998911 0.1564506675091902 0 0.7596592989779416 0.1684370386216679 0 0.762854485973282 0.1802630544819857 0 0.7785230280919895 0.1949877181103895 0 0.7817075297773899 0.2068221803331224 0 0.8124189935658257 0.2364427462246067 0 0.8397960750131543 0.3000679447243206 0 0.8704213134027465 0.3758628625186808 0 0.8735208571416387 0.3879454729858397 0 0.9010306824462601 0.4517460055205542 0 0.9347922117975227 0.539679244436204 0 0.9654328765486767 0.6156488827897533 0 0.9777296938201719 0.6322295697452456 0 0.9890818616406341 0.6687115498180274 0 1 0.6749999999991443 0 0.7969528824639598 0.2217116379430328 0 0.6898148148138249 0 0 0.7028193554879787 0.0312937847423919 0 0.7353853819110633 0.1170041824542179 0 0.7660652417745673 0.1923369312360467 0 0.7846631181044463 0.2187415600229414 0 0.8002617899785636 0.2334391231420561 0 0.815429497292033 0.2484271777460958 0 0.8185085230343954 0.2604992491446585 0 0.8216013731443784 0.2725777691534497 0 0.8246986908561837 0.284646099621735 0 0.8277954522157824 0.2967155293328143 0 0.8428967530318022 0.3121355924316656 0 0.8460042120720428 0.3242029056506184 0 0.8491092280802759 0.3362713993834104 0 0.8522097137798351 0.348346616268178 0 0.8553085145638899 0.3604263377015989 0 0.8584077522759559 0.3725067652779059 0 0.876618265539714 0.4000326538355687 0 0.8797156323246775 0.4121226677939773 0 0.8828131159009216 0.4242148117496485 0 0.8859110824302645 0.4363042141327023 0 0.8890065577034172 0.4483894994317179 0 0.9041446500200311 0.4638077974542598 0 0.9072621686557175 0.4758608783091512 0 0.9103620014574054 0.4879548188469912 0 0.9134611446552348 0.5000501157721615 0 0.9165579961350074 0.5121438990993412 0 0.9196570662132626 0.5242344547671417 0 0.937894081072937 0.5517755312865421 0 0.9227623935197711 0.5363214315285494 0 0.9409955001462893 0.5638767156380042 0 0.9440965120542626 0.5759782036272721 0 0.9471977945985987 0.5880781013356712 0 0.9502991136677409 0.6001792781727207 0 0.9534001628733337 0.6122819886837436 0 0.9681877468576452 0.627842516182057 0 0.9712212706698613 0.6399653524759583 0 0.9747354322881335 0.6519656374848734 0 0.9780063162058662 0.6635262663838849 0 0.9899720740243259 0.681391525537385 0 1 0.6874999999991772 0 0.6838633967793906 0.01003045733844846 0 0.689814814813818 0.01719202777855264 0 0.6909257155549927 0.02692405654878074 0 0.70515545772109 0.04216372574385126 0 0.7081804338288219 0.05338701062789325 0 0.7111042879721219 0.06551180608791388 0 0.7141513353044406 0.07756479289209935 0 0.7172408443826616 0.0895950894433212 0 0.7203302397896287 0.1016266790186807 0 0.7234188106741397 0.113661565100352 0 0.7384762716616309 0.129040797618744 0 0.7415629982763632 0.1410786740329427 0 0.7446539829635481 0.1531159229884372 0 0.7477529495813831 0.1651583511806947 0 0.750843653100486 0.1772029759871391 0 0.7538526450841354 0.1890273745960971 0 0.7698591272936423 0.2037889914912226 0 0.7727994027836054 0.215514045531899 0 0.8034863916981563 0.2451724436361634 0 0.8308914385542949 0.308786200722827 0 0.8615069755925152 0.3845880279592739 0 0.8646037543096714 0.3966723856559208 0 0.8921171972689974 0.4604587507688976 0 0.9258641140008566 0.5484110661777499 0 0.9565006421247459 0.6243863528008781 0 0.9801625663181004 0.6761548764142905 0 0.9882080550473625 0.6946376787811254 0 0.7878998097376615 0.2303827739261485 0 0.6774074074063781 0 0 0.6929104190445123 0.03816118654219591 0 0.7265081094999483 0.125697465360622 0 0.7572678851327906 0.2005830062827196 0 0.775758259457678 0.2274363652086759 0 0.791304803270539 0.2421436539186315 0 0.8065071567268747 0.25715701173953 0 0.8096019567035349 0.2692257876932103 0 0.8126988114955118 0.2812936884776553 0 0.8157949724286409 0.2933618148326061 0 0.8188900781981144 0.3054287470661166 0 0.8339949659057888 0.3208508425501475 0 0.8370988992606606 0.3329186567024892 0 0.8402001956991771 0.3449914149272174 0 0.8432982418542827 0.3570699999317694 0 0.8463965169295783 0.3691500653077849 0 0.849494501357528 0.3812310591146633 0 0.8676983616520973 0.4087635204730195 0 0.8707912083730284 0.4208593869863326 0 0.8738917184620087 0.4329459865397721 0 0.8769903120074504 0.4450355536193117 0 0.8800893234504401 0.4571159909098108 0 0.8952289600299477 0.4725150961977569 0 0.8983388892455276 0.4845928566473575 0 0.9014383638013338 0.496686596398259 0 0.9045365547479904 0.5087793423978616 0 0.9076347116173366 0.520872020767579 0 0.9107368272614922 0.5329636528300343 0 0.9289659994457731 0.5605133074734414 0 0.9138365803049319 0.5450587707455917 0 0.9320669184784971 0.5726129833062078 0 0.9351675411593449 0.5847134570234231 0 0.9382680648283689 0.5968140732231657 0 0.9413687295334789 0.6089154634429578 0 0.9444690351247085 0.6210153565677566 0 0.9595432351128508 0.6365064606475194 0 0.9627031967255133 0.6485195043858528 0 0.9660483929311565 0.6598191530176879 0 0.9693583159674974 0.671848413779968 0 0.9818106419810613 0.6870056512447769 0 1 0.69999999999921 0 0.6713789143174954 0.01082100182637172 0 0.6787459108072763 0.02183147375022254 0 0.6809560448025265 0.0348231875832771 0 0.6960415228291308 0.05015747444126119 0 0.6991277454046789 0.06218453440812603 0 0.7021894443289184 0.07422594969345127 0 0.7052735310597323 0.08625819991211892 0 0.7083635659820733 0.0982870863228914 0 0.711452470524629 0.1103188420243707 0 0.7145406554795348 0.1223537139070814 0 0.7295972441400855 0.1377348131854491 0 0.7326872628519419 0.1497735388583484 0 0.7357777601831753 0.1618140418486137 0 0.7388677747613221 0.1738567455045488 0 0.7417963830753982 0.1857156787453525 0 0.744857492439768 0.1974704927558675 0 0.7607629320739702 0.2122682327563597 0 0.7638402644421798 0.2241526939388886 0 0.7945760425716945 0.2538762771768805 0 0.8219879938830057 0.3174956854339297 0 0.8525926711150646 0.3933118604831205 0 0.8556886186666605 0.4053992927254124 0 0.8832030099638879 0.4691781150992862 0 0.9169375208513377 0.5571529042147583 0 0.9475634948745548 0.6331068543610716 0 0.9724755504080249 0.6839515703924164 0 0.989389181065955 0.7070484700469339 0 0.9758750035274911 0.6945824719072996 0 1 0.712499999999243 0 0.7791501507850289 0.2391293652001045 0 0.6649999999989586 0 0 0.684042102076575 0.04684689887656923 0 0.7176283789528367 0.1343904722266869 0 0.7485904162855714 0.2088812942748176 0 0.7668662613417327 0.2361436563108336 0 0.7824546348521302 0.250861940430436 0 0.7976053931337793 0.2658730630200695 0 0.8007030290449901 0.2779432515495869 0 0.8037962451621694 0.2900095460918048 0 0.8068921221814263 0.3020768008186648 0 0.8099882642858987 0.3141432720863132 0 0.8250910702306991 0.3295643562347289 0 0.8281926283781474 0.3416369951555788 0 0.8312901691036483 0.3537130281985557 0 0.8343874646648248 0.3657921152510801 0 0.8374841531726697 0.3778745951233773 0 0.8405818185490507 0.3899547799676695 0 0.8587822435143347 0.4174895735030893 0 0.8618752798268459 0.4295857372466403 0 0.8649726387327139 0.4416743159717428 0 0.86807336573117 0.4537519113907622 0 0.8711810369397444 0.4658156101608196 0 0.8863135285095225 0.4812413538886765 0 0.8894168830403874 0.4933234734966859 0 0.892515535908293 0.5054155533109971 0 0.895613777512783 0.5175081140086268 0 0.8987128522428853 0.529601465984427 0 0.9018125670165897 0.5416957993991733 0 0.9200384611162351 0.5692494568076359 0 0.904911725568154 0.5537911627638106 0 0.9231386943345432 0.5813485951158541 0 0.9262384292490715 0.5934485772458709 0 0.9293383615772139 0.6055495261324753 0 0.9324384105126378 0.6176509251581812 0 0.935543814347955 0.6297201164969732 0 0.9506939106558621 0.645085372667528 0 0.9540957137999642 0.6566196411185745 0 0.9577947098421076 0.6685379572070069 0 0.9612858020207078 0.6805973038938455 0 0.9804034410268176 0.7034572203679548 0 0.9891746830567355 0.7187498499542528 0 1 0.724999999999276 0 1 0.7499999999993417 0 1 0.7624999999993747 0 0.9898228873539567 0.7562497653036174 0 1 0.7374999999993088 0 0.9891624535436796 0.743977624494098 0 0.9891905734605035 0.7312748074570057 0 0.6588738436474039 0.01037788775518985 0 0.6649139594869864 0.02048472052340198 0 0.6689466826342536 0.03167978274906826 0 0.6720862266176564 0.04350753470722966 0 0.6871285359874506 0.05887134192738884 0 0.6902151877457803 0.07089664632105855 0 0.6933086125028458 0.08291995979305512 0 0.696398177239841 0.09494608790274874 0 0.6994868286834725 0.106977322754042 0 0.7025748789802938 0.119010290189908 0 0.7056627928220432 0.1310434005710591 0 0.7207159878058028 0.1464291203649291 0 0.7238044457955702 0.1584695599039189 0 0.7268934130336853 0.1705113778876352 0 0.7299628628880597 0.1824611606684943 0 0.732957656119544 0.1943189200388198 0 0.7360385956535099 0.2061232383956242 0 0.7518632613064333 0.2208811112955255 0 0.7549570568967434 0.2328691040974819 0 0.7856862596053604 0.2625993040515858 0 0.813086894607101 0.3262117000775165 0 0.843679604383898 0.4020346683327856 0 0.8467744470651999 0.414120517598653 0 0.8742949619234187 0.4778795105259975 0 0.9080116948631988 0.5658868218401552 0 0.9387141541163557 0.6416396185285138 0 0.9643910765048485 0.6927014974779416 0 0.9788579628411004 0.713219608029523 0 0.9687293878621286 0.7056567314082018 0 0.9895214136128201 0.7687499799728401 0 1 0.7749999999994076 0 0.7701104912439172 0.2477993864692491 0 0.6525925925915987 0 0 0.6751715991306713 0.05553174869199521 0 0.708749270814852 0.1430788007746299 0 0.7394411673794067 0.2178742939130795 0 0.7579817734985822 0.2448576747915127 0 0.7735116859625579 0.2595720243050039 0 0.7887176309167212 0.2745998795232672 0 0.7917981368582256 0.2866575444915145 0 0.7948941142743059 0.2987248057040484 0 0.7979900447060475 0.3107914683267378 0 0.8010870655126924 0.3228592403554758 0 0.8161872602889293 0.3382822700153517 0 0.8192842062334085 0.3503556671358721 0 0.8223799904168416 0.3624317411966585 0 0.8254757165119282 0.3745132617483355 0 0.828571522544516 0.3865988778119676 0 0.8316696046812589 0.3986780292843496 0 0.8498655455021764 0.4262089859884782 0 0.8529563179721534 0.4383013966094421 0 0.8560543604535237 0.4503892470277007 0 0.8591635142226349 0.4624539513338862 0 0.8622771502658342 0.474518232562647 0 0.8773963065904027 0.4899631095203477 0 0.8804951525874196 0.5020530573435993 0 0.8835932040062439 0.5141446332061307 0 0.8866909844164015 0.5262378534907124 0 0.8897880746478762 0.5383336069001566 0 0.8928856937356781 0.5504297279267245 0 0.9111115833386869 0.5779831383176343 0 0.8959855096499637 0.5625240166170095 0 0.9142116789184526 0.5900786835626015 0 0.9173142187147436 0.602160647259852 0 0.9204098014104037 0.6142440601090324 0 0.9235070214140846 0.62633362270388 0 0.9266761959529115 0.6383566567140884 0 0.9420219841928021 0.6534345833439807 0 0.9457824127959389 0.6652734309267329 0 0.9490692883258038 0.677381081552942 0 0.9523756684249221 0.6893592929940402 0 0.9784452147104936 0.7251513780971294 0 0.9793125463596832 0.7510512200496705 0 0.9809834615892421 0.7637189572280938 0 0.9765176290503464 0.7388413005176208 0 0.9900103815079295 0.7812155351061294 0 1 0.7874999999994404 0 1 0.7999999999994734 0 0.9892939520108112 0.793543391976534 0 0.6455819636513196 0.01185060841478949 0 0.653400101843009 0.01904792858174271 0 0.6568189875743606 0.02887660836794566 0 0.6601110675287791 0.04021012611992823 0 0.6632118849434251 0.05220027923664076 0 0.6782575914398488 0.06755672917181552 0 0.681344217378793 0.07958238003765558 0 0.684432991115119 0.09160871825498748 0 0.6875225253811755 0.103637256234323 0 0.6906101349025547 0.1156682653087558 0 0.6936978373315199 0.1276991349005459 0 0.6967853174005063 0.1397303933787028 0 0.7118348702641578 0.1551184941727939 0 0.7149240560832114 0.1671549201110401 0 0.7180126425359117 0.1791718166287216 0 0.7209914994940896 0.1911325710763581 0 0.7240991031664399 0.2030103785912223 0 0.7272024244220869 0.2149135760068638 0 0.7429504381333687 0.2297754353092793 0 0.7461192744125117 0.2416302753894908 0 0.7768007805173005 0.2713325537726158 0 0.8041840145712038 0.334928734800872 0 0.8347669394073771 0.4107567095050143 0 0.8378586181638955 0.4228408632410832 0 0.8653775776905187 0.4866032843052508 0 0.8990855714024057 0.5746188195227214 0 0.9299772774391659 0.6502990766842711 0 0.9554591383976363 0.7014409202750003 0 0.9683467502690674 0.7192484026873994 0 0.9828974475120531 0.7749999672851562 0 0.9891746826792014 0.8062499996071101 0 1 0.8124999999995064 0 0.7613595107315392 0.256548563647113 0 0.6401851851842548 0 0 0.6663005320735679 0.06421666507142326 0 0.699871309481037 0.1517650176595542 0 0.7305509885460921 0.2270508585662066 0 0.7490835736615795 0.2535568027696564 0 0.7646584388251007 0.2682903974590237 0 0.7798247654211476 0.2833243918818665 0 0.7829010549618494 0.2953759871695102 0 0.7859920156861412 0.307439258243401 0 0.7890874442402536 0.3195061414107265 0 0.7921822799039213 0.3315751710768766 0 0.8072795099610658 0.3470006300475871 0 0.8103759196513511 0.3590704332249948 0 0.813468604310059 0.3711391581467505 0 0.8165627739244 0.383242737880936 0 0.8196610586697118 0.3953212433546067 0 0.8227582182610287 0.4074004424567391 0 0.8409521964339108 0.4349247284293014 0 0.8440484888467862 0.4470091564069799 0 0.8471425590427381 0.4590860502543209 0 0.8502540563201275 0.471163043730296 0 0.8533608970807927 0.4832425592499379 0 0.8684756848033636 0.4986914909176286 0 0.8715724306639083 0.5107822702807765 0 0.8746683523124354 0.5228761000345197 0 0.8777625623678296 0.534975354267333 0 0.8808609391902993 0.5470692296044244 0 0.8839595828867743 0.5591628873662334 0 0.9021846604310169 0.5867113697099318 0 0.8870597999928385 0.5712561295683414 0 0.9052891859987734 0.598786530065242 0 0.908395259912213 0.6108344403307373 0 0.9114874214935578 0.6229013578670984 0 0.9146040389191177 0.6349845872218327 0 0.9177627206205818 0.6470530507786854 0 0.9334102965176814 0.6622515426299165 0 0.9364076514104784 0.6744071938400231 0 0.9401311661698046 0.6861689507283769 0 0.9434341593475771 0.6980884942686334 0 0.9577793432374151 0.7139337354057493 0 0.9673409815681406 0.7310877120798516 0 0.9705929777229377 0.7609481014395111 0 0.9678792964064891 0.7498462840547291 0 0.9733658425541603 0.7732402077849612 0 0.978293181096563 0.785637626003577 0 0.9790589496260441 0.7999186036724478 0 0.9893437381456887 0.8190427880562547 0 0.632899482275737 0.009910993417425493 0 0.6450543053654464 0.02489077365594788 0 0.6481135842336931 0.03699694728209368 0 0.6512439781925157 0.04887609410563068 0 0.6543425038501463 0.06088295210983057 0 0.6693863143857107 0.0762421555992744 0 0.6724728995228816 0.08826879221848982 0 0.6755599322974506 0.1002968063283539 0 0.678647088048616 0.1123263368570499 0 0.6817341722811312 0.1243569605114473 0 0.6848214573308471 0.1363871613286265 0 0.6879112866289185 0.1484169045334893 0 0.7029587692691673 0.1638020954079493 0 0.7060455575774796 0.1758409088415859 0 0.7091328689791654 0.1878502623030064 0 0.712158782178507 0.1998862338377263 0 0.7152676800831597 0.2119051496737103 0 0.7183957269856835 0.2237602973670874 0 0.7342652210683113 0.2385692755266731 0 0.7372136844658936 0.2503213508536214 0 0.7678807846668675 0.2800314116629672 0 0.7952780557654215 0.3436447459249062 0 0.8258541916749182 0.4194792314418712 0 0.8289486999814538 0.4315591426131717 0 0.8564556096461088 0.4953332947534952 0 0.8901596890219156 0.5833502650409943 0 0.9210344152662963 0.6590979283464227 0 0.9465306036722345 0.7101827692633479 0 0.9594478617474997 0.7244186373132234 0 0.9642746600656222 0.7402524375375732 0 0.9794512263005047 0.8134949513335485 0 1 0.8249999999995392 0 0.7523158276607629 0.2652169368197481 0 0.6277777777768812 0 0 0.6334313736227104 0.021523502122112 0 0.6574292038388438 0.0729014671848596 0 0.6910002705700395 0.1604515114012968 0 0.7217386063460201 0.2353882717161331 0 0.7401810232349143 0.2622505118618922 0 0.7557070479138491 0.2769912869849605 0 0.7709016334882721 0.2920221289613459 0 0.7739956640430049 0.3040877937348851 0 0.7770901351470486 0.3161523379884367 0 0.7801837921798468 0.3282208640513193 0 0.7832786242174224 0.340290185550348 0 0.7983725509779873 0.355714177713251 0 0.8014678707766542 0.3677848427608014 0 0.8045620996404678 0.379862249771295 0 0.8076539815815732 0.391963177166739 0 0.810750251025494 0.404044195526909 0 0.8138466494712069 0.4161220880373018 0 0.8320470974642858 0.4436382413020843 0 0.8351469437163618 0.4557182998342341 0 0.8382413674394384 0.4678018918838182 0 0.8413459163681205 0.4798827465623299 0 0.8444401210695707 0.491970395289808 0 0.8595464808108579 0.5074319957943083 0 0.8626405578539083 0.5195272824026591 0 0.8657353804234911 0.5316218846774682 0 0.8688364467106771 0.5437108240821845 0 0.8719355533682173 0.555802037733622 0 0.8750354699642646 0.5678939283065761 0 0.8932565075037099 0.5954206658031956 0 0.8781352019101234 0.5799866729110195 0 0.8963779707651081 0.607461347807406 0 0.8994951917163347 0.6195117799608927 0 0.9026279068911885 0.6315821976969737 0 0.9057137122184008 0.6436856736048269 0 0.9088303401104515 0.6557780552997833 0 0.9241642745083702 0.6711912452174126 0 0.9274415172716953 0.683089876763751 0 0.9312972386397478 0.6948356154936779 0 0.934514521111184 0.7068387156517929 0 0.9494078773822152 0.7222341479282642 0 0.9544136385018771 0.7342664850081431 0 0.9589475962070397 0.7585898862888334 0 0.962052832040075 0.7706940646578013 0 0.9558401014321791 0.7464875278649006 0 0.9651895165940807 0.7826850139881962 0 0.9682625073583425 0.7949044244258994 0 0.9699517162450706 0.8076986285228884 0 0.9880714028183696 0.8325820583893447 0 0.9784399248444235 0.8247622143724919 0 1 0.837499999999572 0 0.6215740740731995 0.008055175206850427 0 0.6226142039262309 0.01809386205714038 0 0.6361820647110284 0.03356627379703732 0 0.6392711020300292 0.0455618076460723 0 0.6423721780601545 0.05756230930768443 0 0.6454708418807904 0.06956858859653112 0 0.6605141380455037 0.08492789247408512 0 0.6635997038983616 0.09695538597987639 0 0.6666858505205251 0.1089843593315145 0 0.6697719866903903 0.1210147292650255 0 0.6728582300751871 0.1330455231827831 0 0.6759452705315057 0.1450762124060365 0 0.6790333991246569 0.1571077154823059 0 0.6940875928960564 0.1724879270473455 0 0.6971808192580095 0.1845006656219539 0 0.7002847157420582 0.1965122111680817 0 0.7033864573186026 0.2085477570374595 0 0.7064153552552215 0.2205298480616262 0 0.709348137171361 0.2322685480672226 0 0.7251892022832483 0.2470677743785252 0 0.7282605048782271 0.2589625665143007 0 0.7589701687764061 0.2887390904417491 0 0.7863730864892921 0.3523590687925008 0 0.8169419903810957 0.4282044027632617 0 0.8200400064335148 0.4402810148968497 0 0.8475230748965557 0.5040766498041077 0 0.8812296776723572 0.5920714775073419 0 0.9119307235770705 0.6678777359617033 0 0.937597797498837 0.7189194720008231 0 0.9712366983998051 0.8185555446970575 0 0.9906477732816041 0.8445922406405786 0 1 0.8499999999996051 0 0.7435600599697151 0.2739601111715571 0 0.6153703703695188 0 0 0.6242352867086408 0.03023208176893454 0 0.6485555445074667 0.08158975098745788 0 0.6821191954077005 0.1691340445512719 0 0.7127798272054022 0.2439429225347549 0 0.7312891246432917 0.27095433168938 0 0.7468570075842424 0.2857097743547181 0 0.7620012230134412 0.3007367759944403 0 0.7650951360233078 0.3127993202444637 0 0.7681845690220613 0.3248709084057687 0 0.7712766237995556 0.3369392146691625 0 0.7743669281793318 0.3490101848288399 0 0.7894665956448039 0.3644283399222967 0 0.7925605347627621 0.3765049225529371 0 0.7956508703381494 0.3885885476198292 0 0.7987399126792609 0.4007010658552178 0 0.8018397671241824 0.4127641003502611 0 0.8049276550280919 0.4248591250725841 0 0.8231375722339045 0.4523597288279432 0 0.8262349832928723 0.4644409544411379 0 0.8293322878986662 0.4765232814957946 0 0.8324290141467947 0.4886056455721923 0 0.8355200236643316 0.5006958774486541 0 0.8506196453757287 0.5161707871394003 0 0.8537154833104174 0.5282630405520869 0 0.8568150371396497 0.5403510740594558 0 0.8599142397623055 0.5524402686781045 0 0.863013023002989 0.5645314053344687 0 0.8661119371999025 0.5766234975754798 0 0.8843502808034254 0.6041184389358408 0 0.8692102844619722 0.5887171936280845 0 0.8874769399619786 0.6161524228983801 0 0.8906009704194979 0.6282188528008805 0 0.8937014801022067 0.6403160839677842 0 0.8968020152120237 0.6524139774872691 0 0.8999027145432834 0.6645120966859701 0 0.9151000786460735 0.6798447513812237 0 0.918742892884163 0.6916687294052017 0 0.9223364068556924 0.7034985055487128 0 0.9255641836155903 0.7155574387393968 0 0.9407026607460369 0.7310224368499441 0 0.9438070883816438 0.7431251252132604 0 0.9500171997291416 0.7673308758378303 0 0.9469119120283425 0.7552279425851034 0 0.9531217935555364 0.7794353514715233 0 0.9562262923884669 0.7915404539883234 0 0.9593326025869451 0.8036397355122876 0 0.9618430232057784 0.8158301121706508 0 0.9766309640713184 0.8343232883073732 0 0.9664430232910064 0.8279041536930536 0 0.980735150824141 0.8432733433004799 0 0.9899750412964018 0.8566591596725435 0 0.6101777612167504 0.01195742888134856 0 0.6125724223306412 0.02634951218242377 0 0.6273157037185265 0.04224789327402424 0 0.630400354969226 0.05424716444192034 0 0.6335042874382204 0.0662372489461216 0 0.636590867523271 0.07825596743806759 0 0.651638930111248 0.09361846657350986 0 0.6547243103078124 0.1056456157613971 0 0.657809821541514 0.1176759850727685 0 0.6608964151572849 0.1297039990332688 0 0.663982608817587 0.1417338823846442 0 0.6670690236132476 0.1537650125966737 0 0.6701528124590794 0.1657950698744135 0 0.6852134293498019 0.1811499193012104 0 0.6883137267917399 0.1931691413586488 0 0.6914135338344299 0.2052022703379677 0 0.6945016102112365 0.2172434381037338 0 0.6973386086491946 0.2291073032566507 0 0.7002620726955633 0.2409409607582551 0 0.7162896978935642 0.2556459432346835 0 0.7193708533252492 0.2676683593086384 0 0.7500910739676283 0.2974717860564518 0 0.7774620975272664 0.3610764832023601 0 0.8080212135271833 0.4369467157851786 0 0.8111252620044375 0.4490090355378645 0 0.838602072414844 0.5128104089992126 0 0.8723134583494443 0.6007851069604767 0 0.9030140649876324 0.6765889280712749 0 0.9286688378278267 0.7276596834805671 0 0.9809132987795218 0.8523901885740381 0 1 0.862499999999638 0 0.7345279117302624 0.2826293362221589 0 0.6029629629621371 0 0 0.6153685707408577 0.03891337234142053 0 0.6396777255403361 0.09028608232210839 0 0.6732428495586464 0.1778165437317039 0 0.7040673010154475 0.2524064073810285 0 0.722404551078637 0.2796648737824993 0 0.7378844921820542 0.2944027137672955 0 0.7531023506678001 0.3094474513976325 0 0.7561780408113363 0.3215509320737887 0 0.7592659640980786 0.3336133242174428 0 0.762347514511761 0.345708015308694 0 0.7654446090549408 0.3577787545079687 0 0.7805613175243616 0.3731422879544302 0 0.783649361188744 0.3852275906246601 0 0.7867402487350194 0.3973365849856654 0 0.7898206547329418 0.4094741039889038 0 0.7928886077116213 0.4215763399097263 0 0.7959819088886818 0.4336485724615088 0 0.8142237581304037 0.4610818162454935 0 0.8173200865782639 0.4731640997282692 0 0.8204168820328387 0.485246574049947 0 0.8235125038786802 0.497327773669991 0 0.8266033110835076 0.5094216454248406 0 0.8416994339949808 0.5249019940628665 0 0.8447959152830602 0.5369902656957142 0 0.8478942915278679 0.5490785399488977 0 0.8509924240652633 0.5611685484540607 0 0.8540899705823918 0.5732603998909623 0 0.857188459155884 0.5853532458709017 0 0.8754482586536693 0.6128271628051137 0 0.860283294309319 0.5974195727070727 0 0.8785704922906168 0.6248649741534044 0 0.8816747170415358 0.6369526192850457 0 0.8847748605717107 0.6490501292822741 0 0.8878747561487672 0.6611480749417377 0 0.8909760581766302 0.6732423674406303 0 0.9063555557022012 0.6884410988473355 0 0.9099265601895683 0.7003025283965103 0 0.9134871752883382 0.7122668541320838 0 0.9166277383900892 0.724308491807452 0 0.9317733663419807 0.7397624056660423 0 0.9348777986639373 0.7518649470958011 0 0.9410866188329209 0.7760714952644954 0 0.9379823124971718 0.7639676277878333 0 0.9441906717155115 0.7881763125911867 0 0.94729671951053 0.8002748999859067 0 0.9504125445868778 0.8123607524935653 0 0.9536752951671402 0.8244677682664461 0 0.968541566452065 0.8404663471733638 0 0.9718024058112105 0.8520157105961733 0 0.9893585753447829 0.8688289881870979 0 0.9777624066328081 0.8626776603790691 0 1 0.8749999999996708 0 1 0.8874999999997039 0 1 0.8999999999997368 0 0.9901504819172937 0.8937555315027246 0 0.9894402862415086 0.8812500000028269 0 0.5964026079585012 0.01032653567373827 0 0.6008441335424288 0.02159365950812079 0 0.6035522917862437 0.0350939293729308 0 0.6184515627099207 0.05093144354188058 0 0.6215323760452571 0.0629321029179864 0 0.6246246423398321 0.07494220113682828 0 0.6277066279731155 0.08696089552467365 0 0.6427606052094923 0.1023159900779728 0 0.6458460415204555 0.1143410531367535 0 0.6489343250526162 0.1263661539086515 0 0.6520213051674782 0.1383919078700994 0 0.6551066215859869 0.1504217078460422 0 0.6581915347578353 0.1624537092669495 0 0.6612744429770057 0.1744837671991902 0 0.6763358720811495 0.1898356888384774 0 0.6794420322430166 0.2018569964622441 0 0.6825297613707225 0.2138965869956171 0 0.6854907495485929 0.225834103620566 0 0.6884438490931881 0.2377050375829845 0 0.6915916211652759 0.2495785179215169 0 0.7073989745928755 0.2643286368601959 0 0.7104918791514537 0.2763845095011928 0 0.7411697508927162 0.3061667824285774 0 0.7685528728274893 0.3698067848266889 0 0.7991052162227054 0.4456890243868442 0 0.8022117062828594 0.4577317923850631 0 0.8296903025288773 0.5215394450930276 0 0.863409915161877 0.6094710241423182 0 0.8941298564556069 0.685244484481082 0 0.9197401232591635 0.736399613866643 0 0.9566583407734819 0.8365490140051282 0 0.989939205104259 0.9062831890122222 0 1 0.9124999999997696 0 0.7257453164886483 0.2913772422147412 0 0.5905555555547555 0 0 0.6065010775595627 0.04759440029785365 0 0.6308044702183353 0.09897557755032582 0 0.6643592463213029 0.1865034852374954 0 0.6950212834737558 0.2612986696397125 0 0.7135446529387673 0.2883997740194559 0 0.7289158924288284 0.3030613613271257 0 0.7441851043038353 0.3182010720356255 0 0.7472266513572013 0.3303967481415627 0 0.7503012561277176 0.3425108476748053 0 0.7534004497610066 0.354537629314598 0 0.7565377915227904 0.3665334295666316 0 0.7716555756444224 0.3818583414768663 0 0.7747363036515563 0.3939725487064714 0 0.7778443898194641 0.4060556531189105 0 0.7808997879498751 0.41820646289562 0 0.7839732628820721 0.4302939659763264 0 0.7870603492986739 0.4423472069704191 0 0.8053096545182128 0.4698052427004303 0 0.808405833776508 0.4818854373345436 0 0.8115017775405092 0.4939693494279252 0 0.8145975837300152 0.5060501673036245 0 0.817690421843435 0.5181406052186751 0 0.8327801844302949 0.5336288590616931 0 0.835875674569702 0.5457174644573277 0 0.8389730305719015 0.5578059184733767 0 0.8420699184982753 0.5698930182668774 0 0.8451676625867588 0.5819892018157438 0 0.8482586366970445 0.5940737763214832 0 0.8665382075093823 0.6215146602495899 0 0.8513747045639362 0.6061188595624019 0 0.8696489031334458 0.6335897032944189 0 0.8727487808178208 0.6456868580508693 0 0.8758491236728855 0.6577835277839348 0 0.8789494285936709 0.6698785710122072 0 0.8820534114814711 0.6819593811335325 0 0.897801083471915 0.6971845942597509 0 0.9012380731020748 0.7090950205364943 0 0.9045984486804769 0.7209300550540593 0 0.9077076616691395 0.7330373055719628 0 0.9228443498079439 0.7485019321600872 0 0.9259485676905929 0.7606043466971856 0 0.9290525422290363 0.7727073265455109 0 0.9321562961951599 0.7848110727074614 0 0.9352603391738312 0.7969132907885081 0 0.9383750050404865 0.8089859483850028 0 0.9414936431441252 0.8210873332915094 0 0.9446162586768302 0.833185982948472 0 0.9597648000411716 0.8486495752440413 0 0.9634504419525658 0.8604920149721551 0 0.9786583017468122 0.8762635434300284 0 0.9800364318557044 0.8887853978039223 0 0.981531493269006 0.9009169620624735 0 0.9900447974877757 0.9184651802891537 0 1 0.9249999999998024 0 1 0.9374999999998355 0 0.9895224579965394 0.9298547181762473 0 0.5842235477833098 0.009675746444760658 0 0.5886674195039978 0.01994708170750273 0 0.5916282731228391 0.03166205138913085 0 0.5945733335169217 0.04417512381197529 0 0.6095844220755624 0.05961417120680762 0 0.6126646021490523 0.07163067273560786 0 0.615749092910077 0.08363631925851268 0 0.6188398518808668 0.09565079270718436 0 0.6338887434702409 0.1110014878978055 0 0.6369754847825873 0.12302532664546 0 0.6400615029914452 0.1350503920844717 0 0.6431467165497726 0.1470773614746894 0 0.6462290129115357 0.1591097488556267 0 0.6493136791250838 0.1711389650511091 0 0.6523987013147946 0.1831664323315973 0 0.6674659718662658 0.1985209125051391 0 0.670560310043828 0.2105508212721506 0 0.6736471444199921 0.2225901245976271 0 0.6765947119527806 0.2345717643179195 0 0.6796521827210574 0.2464606951377268 0 0.6827972271859815 0.2583777691606661 0 0.6984882925222344 0.2732692635846258 0 0.7016513364245226 0.285138470913055 0 0.7322133985733299 0.314805164315578 0 0.7596530491052992 0.3785208910358875 0 0.7901941044000025 0.4543792907452555 0 0.7932910212926445 0.4664538924586439 0 0.8207623819325957 0.5302685386168685 0 0.8545015675855115 0.6181607825692549 0 0.885326493568634 0.6939172967180746 0 0.9108116066573594 0.7451392144192811 0 0.947728307370904 0.8452854958061381 0 0.9659831296885737 0.8728526442766725 0 0.98318907075023 0.9124543356218746 0 0.9896640293899306 0.9425917265956896 0 1 0.9499999999998684 0 0.7166913998827505 0.3000931387213932 0 0.5781481481473866 0 0 0.5976376835120913 0.05626091793973491 0 0.621928210832104 0.1076682278911107 0 0.6554943310770326 0.1951903228988839 0 0.6862389845844834 0.270176373674481 0 0.7046260685603349 0.2970732416886409 0 0.7200238634882419 0.3118265699744131 0 0.7352857409169078 0.326909849143297 0 0.7383214641118537 0.3391168337470164 0 0.7413908062885428 0.3512065859559812 0 0.744508455399266 0.3632275379264636 0 0.7476234840502335 0.3752233728194801 0 0.7627307293409383 0.3906295977531045 0 0.7658143656735579 0.4027440667697477 0 0.7688912618148225 0.4148551909855518 0 0.7719727995580021 0.4269467628300045 0 0.7750624916361535 0.4390077632322275 0 0.7781599696595762 0.4510659064196051 0 0.7963962723859346 0.4785219214028865 0 0.7994903296032889 0.4906054366978034 0 0.8025856400010311 0.5026894250487707 0 0.8056825000251149 0.5147716551068126 0 0.8087737416118929 0.5268546458867593 0 0.8238615044514506 0.5423488464357697 0 0.8269574543643181 0.5544210370474919 0 0.8300501331395385 0.5665073793763085 0 0.8331465561976794 0.5785972994977586 0 0.836242784033786 0.5906905416613732 0 0.8393364295565722 0.6027579966239289 0 0.8576243702905965 0.6302269478122323 0 0.8424617025288818 0.6148388734206717 0 0.8607238817013805 0.6423224985302487 0 0.8638235579940421 0.6544195537969617 0 0.8669233579113015 0.6665179796195596 0 0.8700222753058671 0.6786147389694652 0 0.8731543211330025 0.6905938020239828 0 0.8889926192682381 0.7057980680711835 0 0.8924891067425611 0.717715680614421 0 0.8956717284202234 0.7296709251693756 0 0.8987797872645139 0.7417761024992455 0 0.9139154705883907 0.7572414375041863 0 0.9170193528838813 0.7693435095431602 0 0.9201232243437003 0.7814448191231496 0 0.9232267838911481 0.7935410927296549 0 0.926341299449907 0.8056244509193963 0 0.9294711157587134 0.8177162182879556 0 0.9325775000049267 0.8298205293083418 0 0.9356927216517105 0.8419217920247595 0 0.9508327361300127 0.8573873579335882 0 0.9539328204637335 0.8694820323342239 0 0.9688380720413534 0.8845848586635593 0 0.9715510366132245 0.8968584532243193 0 0.9740673233373516 0.9091296069975875 0 0.9784017779276749 0.9212825183110136 0 0.9795086188136113 0.9347366452972752 0 0.9880437784362133 0.9561999923834288 0 1 0.9624999999999012 0 0.571949905041395 0.0102333303968819 0 0.577329480935717 0.01876798102657928 0 0.5798495034170147 0.02916106171532734 0 0.5826213898263544 0.04085076479539832 0 0.58568350048371 0.05292959813101067 0 0.6007173350547298 0.06829564840497063 0 0.6038007293142919 0.08031547019741531 0 0.6068804234116574 0.09232520825845536 0 0.609970285939912 0.1043385277600281 0 0.6250185790856656 0.1196839035964165 0 0.6281037165751004 0.1317089692486615 0 0.6311886070495484 0.1437347479096434 0 0.6342729440807046 0.155761332753007 0 0.6373531255796127 0.1677930728545229 0 0.6404389199693451 0.1798170620847034 0 0.6435253838552091 0.1918446064951351 0 0.6585885152875909 0.207212597467651 0 0.6616786086167079 0.2192442308817094 0 0.6647626717947444 0.2312802877229604 0 0.6677379035305152 0.2433104190167596 0 0.6708589718041593 0.2553302959576504 0 0.673978787847098 0.2672910111031641 0 0.6895265936059418 0.2820479768607821 0 0.6927612633997626 0.2938407639820008 0 0.7232889528030825 0.323740249806771 0 0.7507376872087294 0.387264275707228 0 0.781267474904818 0.4631236108057324 0 0.7843616757773657 0.4751886085675343 0 0.8118490500695981 0.5389800003834302 0 0.8455915385013968 0.6268822148674558 0 0.8767703993756304 0.7025178990281568 0 0.9018825024298681 0.7538793939601314 0 0.9387967321414994 0.8540267699961467 0 0.9570065574927349 0.8815337365044238 0 0.9805225823890866 0.9465462954236181 0 0.9915243053284564 0.9686513801073922 0 1 0.9749999999999343 0 0.7078430128697869 0.3087853776446505 0 0.5657407407400138 0 0 0.5887664323820621 0.06495656578579162 0 0.6130619593991242 0.1163467775996906 0 0.6466211095391854 0.2038691742448935 0 0.6773878750112321 0.2790146129886435 0 0.6957475439912486 0.3057868044296267 0 0.7111384687831979 0.3206264724168528 0 0.7263452608591568 0.3357599547274333 0 0.7294112145358733 0.347867224283688 0 0.7324994014208572 0.35991898045386 0 0.7355987993521663 0.3719452294482304 0 0.7387081325273495 0.3839951578640302 0 0.7538067856381527 0.3994025245019973 0 0.7568809748275506 0.4115212275316981 0 0.7599730764407771 0.4235924140168653 0 0.7630671982486932 0.4356614473731851 0 0.7661613107770475 0.447731512288973 0 0.7692515165516337 0.4597990284878245 0 0.7874666754760719 0.4872526732111493 0 0.7905691337695023 0.499322673466201 0 0.793669815608499 0.5114088699495627 0 0.7967678628023002 0.5234947196890156 0 0.7998559169760073 0.5355781101232524 0 0.814950852743876 0.5510397133919189 0 0.8180373828751221 0.5631134575723271 0 0.8211357077025754 0.5751984921253128 0 0.8242371889204765 0.5872880474148923 0 0.8273179371485372 0.5993649343325504 0 0.8304304419922555 0.6114555195199269 0 0.8486984519002349 0.638960344624499 0 0.8335551844447213 0.623534210248349 0 0.8517988010463471 0.6510528052544803 0 0.8548984156591113 0.6631518974368795 0 0.857997356377823 0.6752511893553195 0 0.8610962988840624 0.687346767311368 0 0.8644805585203008 0.6990958017719802 0 0.8803305593486136 0.7143579172702035 0 0.8836279520575827 0.7263196709637018 0 0.8867440170921086 0.7384179844927301 0 0.8898475541792035 0.7505195841226598 0 0.9049867749143727 0.7659806792829748 0 0.9080904396711349 0.7780822498700533 0 0.9111925882432821 0.7901809410039832 0 0.9142989079062416 0.8022728779717672 0 0.9174293666989821 0.8143580483123574 0 0.9205500971186181 0.8264553998296365 0 0.9236570142501113 0.8385577109299435 0 0.9267610382225381 0.8506629496255138 0 0.9419017472380329 0.8661306486647828 0 0.9449981787052135 0.878221687437808 0 0.960151746133423 0.8937031191135932 0 0.9632463480144398 0.9058128181765929 0 0.966297290440601 0.9179335494897037 0 0.9690692263456359 0.9301251660887311 0 0.9721548438998429 0.9422391145888355 0 0.9741856165335543 0.9555585689167821 0 0.9804009332914941 0.9682506335363066 0 0.9885832225225994 0.9801157403063703 0 1 0.9874999999999672 0 0.5595370370363454 0.01067270360511384 0 0.5659155388457143 0.01722788745252915 0 0.5681361626615096 0.02658368416453973 0 0.570802506190126 0.03785027416873062 0 0.5737063548710689 0.04968800568352661 0 0.5767988818731336 0.06165743892333107 0 0.5918496640434151 0.076975517112316 0 0.5949303425778878 0.08899174152170775 0 0.5980160418517773 0.1010044777019811 0 0.6011012623148043 0.1130140062196058 0 0.616147248640134 0.1283677277715234 0 0.6192317920567719 0.1403932191627894 0 0.622316259792831 0.1524184830187426 0 0.625398606456087 0.164445972106499 0 0.6284816711927804 0.1764726124231378 0 0.6315697902657122 0.1884985710702079 0 0.6346559615126985 0.2005276772301673 0 0.6497107605825261 0.2159001230031294 0 0.6527970183776635 0.2279365383284538 0 0.6558819117915802 0.2399700527648652 0 0.6589574397004073 0.2519878764458014 0 0.6620624276601899 0.2640020922747709 0 0.6651073185556069 0.2759858782590619 0 0.6806318096934169 0.290848376021887 0 0.6838674170720158 0.3025381616684589 0 0.7143292540383565 0.3324612200547128 0 0.7417979660038272 0.3960797030608419 0 0.772346561747686 0.4718549381555313 0 0.7754535657952568 0.483915946270025 0 0.8029324330519687 0.5476665691875702 0 0.8366703129969874 0.6356113682929769 0 0.8681245466218823 0.710955485463461 0 0.8929538209753685 0.7626193459324402 0 0.9298649877003499 0.8627689656964442 0 0.9481046871042423 0.8903306283240556 0 0.9908493236212094 0.990849323621213 0 1 1 0 0.699055970700533 0.3175614284377709 0 0.5533333333326754 0 0 0.5798979082022002 0.07364045264672087 0 0.6041921142404434 0.1250265930454157 0 0.6377451738266844 0.2125568732598117 0 0.6684197528059315 0.2877115784744995 0 0.6868538241877857 0.3144838326717072 0 0.7022897587991876 0.3293839885827991 0 0.7174221698753025 0.3445179568255024 0 0.7205140742430938 0.3565769888443568 0 0.7236067597471632 0.3686370074542438 0 0.7266990574318366 0.3806981621257707 0 0.7297918011173038 0.3927602040226301 0 0.7448870112470978 0.408159219668994 0 0.7479763690864412 0.4202366160163565 0 0.7510682931024004 0.4323066624072752 0 0.7541614064029676 0.4443755051451697 0 0.7572541619090459 0.4564462845012325 0 0.7603466699381719 0.4685172079356925 0 0.7785506668604913 0.4959802388379542 0 0.7816568336501516 0.5080558321841763 0 0.7847608666233157 0.5201360032749842 0 0.7878461670491649 0.5322270647474987 0 0.7909433149371689 0.5443002968634532 0 0.806043460226436 0.5597458227847313 0 0.8091547690614008 0.5718229325173896 0 0.8122586994170495 0.5839058959664066 0 0.8153562148704825 0.5959917323173897 0 0.8184555843452829 0.6080781423802788 0 0.8215436858765225 0.6201683099872561 0 0.8397735984368035 0.647696918534855 0 0.8246519447996856 0.6322532636013902 0 0.8428744257793694 0.65978823847586 0 0.8459736820868519 0.6718858165145388 0 0.8490723519801099 0.683982181390512 0 0.8522522435427717 0.6958660660724576 0 0.8557181820212605 0.7076082365829871 0 0.8716099761431956 0.7229912288411848 0 0.8747038551519219 0.7350696023410463 0 0.8778118265112572 0.7471651608966914 0 0.880915736680616 0.7592640236421327 0 0.8960583748343788 0.7747196608173851 0 0.8991620447922712 0.7868210330247162 0 0.9022649513350136 0.7989214757638776 0 0.9053667144272595 0.8110126923937966 0 0.9085112710623799 0.8230941696952394 0 0.9116061204831722 0.8352062942134088 0 0.9147124015744854 0.847308670178156 0 0.9178175004056902 0.859412980342334 0 0.9329691866831724 0.8748742802414805 0 0.9360740732493649 0.8869787985578818 0 0.9512163885824436 0.9024463735624197 0 0.9543150668933866 0.9145542256107888 0 0.957430473562302 0.9266570507516565 0 0.9605341421232316 0.9387574419970527 0 0.9630353410448909 0.9503338684802329 0 0.9686776586867958 0.9684675711109947 0 0.974949586191449 0.9790241023369903 0 0.9811939558119331 0.9894561023392385 0 0.987499999999948 1 0 0.5479058223589531 0.01072817080394656 0 0.5556346955153906 0.02238441878861139 0 0.5587180840613973 0.03439982898450362 0 0.5618015025060201 0.04641530425892375 0 0.5648365626174774 0.0583735832786265 0 0.5679328421454467 0.07035726532984649 0 0.5829809868997904 0.08565912340381274 0 0.5860646000194463 0.09767289534840468 0 0.5891473740927367 0.1096828432660858 0 0.5922347847045013 0.1216934003951743 0 0.6072767325851958 0.1370521181419224 0 0.6103608122005478 0.1490766479047536 0 0.6134440339610702 0.1611023775990678 0 0.6165268645270189 0.1731281982432197 0 0.6196112795128098 0.1851553999738823 0 0.6226968647426748 0.1971837071017948 0 0.6257820493723354 0.2092134091413907 0 0.6408312806025256 0.224590331514013 0 0.6439161407441363 0.2366212126434525 0 0.6470058040956961 0.2486478912809961 0 0.6500989244697671 0.2606705313255727 0 0.653194493361852 0.2726818209308696 0 0.6562895345860007 0.284692749589467 0 0.6718520988394906 0.2994320179899735 0 0.6749671947413828 0.3112280267826312 0 0.705480069945792 0.3412145721381197 0 0.732884801498223 0.4048232673851304 0 0.7634406687835195 0.4805752508045523 0 0.766555146126407 0.4926439680434284 0 0.7940432665963916 0.5563801723321353 0 0.8277511598990831 0.6443412578813132 0 0.859355857945187 0.7196266202360107 0 0.8840245285644519 0.7713604328356327 0 0.9209264342042831 0.8715161889638857 0 0.939177889674884 0.8990821598295994 0 0.963770102085257 0.9599435835435268 0 0.6900521183793722 0.3262465888637872 0 0.5409259259252939 0 0 0.5710245783436603 0.08233623671089951 0 0.5953212551193591 0.1337147847476326 0 0.6288674602092247 0.2212449839993114 0 0.6596632423486601 0.2962435482283427 0 0.6779592255010251 0.323178971617809 0 0.6933422879744746 0.3380861152947418 0 0.7085252355717713 0.3532259639684977 0 0.7116182660650394 0.365287186776318 0 0.7147081167103753 0.377345466894687 0 0.7177997381992108 0.389406943997833 0 0.7208917562156674 0.4014697014295546 0 0.73597788510564 0.4168875138461878 0 0.7390709737951816 0.4289526586271185 0 0.7421639233116005 0.4410185412888269 0 0.7452541121233019 0.4530896989128524 0 0.7483471559172878 0.4651579203005675 0 0.7514397050494294 0.4772285181071447 0 0.7696497429125186 0.504706270900383 0 0.7727447853967608 0.5167830786884424 0 0.7758274080518677 0.5289083782504351 0 0.7788946401222933 0.5410062821982143 0 0.7820063055461688 0.553044875098631 0 0.7971464579053446 0.5684613878641529 0 0.8002385722627002 0.5805472480441523 0 0.8033358658919167 0.5926325916329236 0 0.8064333474498586 0.6047189485326282 0 0.8095323453117885 0.6168059488601521 0 0.8126336570862301 0.628893364008528 0 0.8308516163635968 0.6564317602266651 0 0.8157321700135229 0.6409824644681567 0 0.8339509816094883 0.6685234313604768 0 0.8370495425139535 0.6806179667837937 0 0.8401474991632921 0.6927127966051656 0 0.8435364606837408 0.7042303959714453 0 0.8471607580578597 0.716237865011365 0 0.862674224561536 0.7317171416846008 0 0.8657771508560033 0.7438127497890241 0 0.8688826451076905 0.755907020992555 0 0.8719846258225582 0.7680080167238711 0 0.8871298950046385 0.7834592501031308 0 0.890233785944673 0.7955591883595443 0 0.8933370558008138 0.8076571893147326 0 0.8964479515216706 0.8197535925318777 0 0.8995568693409571 0.8318548051377752 0 0.9026632734978018 0.8439562433802267 0 0.9057661332337431 0.856060348443677 0 0.9088740074987423 0.868160759146328 0 0.9240369470746078 0.8836175975100266 0 0.9271412464531408 0.8957216866572298 0 0.9422837307309482 0.9111895140153354 0 0.9453929516457118 0.9232938619325166 0 0.9484974632473933 0.9353968009848987 0 0.9515961406540396 0.9474556761686508 0 0.954479482206572 0.9593668360853913 0 0.9568504261700639 0.9693557167296375 0 0.9625010910933287 0.9787648356961692 0 0.9687498890657298 0.9891745504589392 0 0.9749999999998958 1 0 0.5348165180186837 0.01047462704268079 0 0.5410563837519732 0.02104953741275825 0 0.5467962528105348 0.03145803058142917 0 0.5499618092589937 0.04316710245418613 0 0.5529370317332679 0.05509248337880784 0 0.5559899454409744 0.06706811232889136 0 0.5590643073056025 0.07905007638810729 0 0.5741141554134996 0.09433905723536909 0 0.577197286788425 0.1063502391406275 0 0.5802806589505168 0.1183642836828604 0 0.5833660423551909 0.130382244065817 0 0.5984059557258905 0.1457373376854538 0 0.6014895052888294 0.1577602181074908 0 0.6045725596376197 0.1697849588180582 0 0.6076550197223488 0.1818113990289336 0 0.6107374220781224 0.1938403220757031 0 0.613821399803528 0.2058690603016389 0 0.6169049549204895 0.2179006833629258 0 0.6319514486156194 0.2332761394156456 0 0.6350348191883715 0.2453042736040374 0 0.6381280442106644 0.2573263856485302 0 0.6412217046406098 0.2693389006452656 0 0.6443449323535633 0.2812593912057326 0 0.6475548572429655 0.2929542667711797 0 0.6629501874301482 0.3079652099685516 0 0.6660246354370309 0.3198732422042655 0 0.6965905185575944 0.3499320619434649 0 0.7239835811407419 0.4135338100093275 0 0.754544140496222 0.4892856220802172 0 0.7576506703379589 0.5013450899091072 0 0.7851329187209216 0.5651018812953708 0 0.81883122915766 0.653072276986066 0 0.8505488951442686 0.7283541527472589 0 0.8750966264499912 0.7801014610449647 0 0.9119901673188897 0.8802561237340033 0 0.930247211929164 0.9078259578606743 0 0.6812427180084495 0.3349776896602791 0 0.528518518517892 0 0 0.5621565481555 0.0910255435007042 0 0.5864517378286925 0.1424001263330883 0 0.619989563269211 0.2299322007785826 0 0.6509130231874252 0.3047054665763851 0 0.6690922440500614 0.3319015378345707 0 0.6843985441564533 0.346761790580001 0 0.699636825595898 0.361944027866297 0 0.702718584521935 0.373993665629826 0 0.705809744565527 0.3860532425229911 0 0.7089007446515817 0.3981135413720778 0 0.7119914604858467 0.4101778093887859 0 0.727075518496027 0.4255986924533974 0 0.7301672834822179 0.4376637473820846 0 0.733260275608239 0.4497285020554974 0 0.7363490561290826 0.4617991577791604 0 0.7394431459888997 0.4738628039843045 0 0.742536766769181 0.4859272567964451 0 0.760740355103343 0.5134294177391902 0 0.7638252228937155 0.5255447649425298 0 0.7668692059060294 0.5377427302332005 0 0.7699660372701496 0.5497707541741709 0 0.7730760747774734 0.561807937759924 0 0.7882248104461979 0.5771869228946119 0 0.7913014915105248 0.589276852369522 0 0.7943977700035729 0.6013629940075867 0 0.7974928119192147 0.6134504947051044 0 0.8005936811895302 0.6255375276760722 0 0.8037102775240561 0.6376215182575241 0 0.8219298582416759 0.6651632537963856 0 0.8068085077914564 0.6497111127855351 0 0.8250275149070945 0.6772542083513633 0 0.8281759164374761 0.6892362711415644 0 0.8315118710353757 0.7009861154972199 0 0.8352068305880052 0.7128981263018703 0 0.8386282070689803 0.7249970328855208 0 0.853750356916435 0.7404531676872791 0 0.8568536964260329 0.7525490308261964 0 0.8599566074066909 0.764645115130885 0 0.8630629671442775 0.7767404723101242 0 0.8782020381568564 0.7921976369210274 0 0.8813058160955121 0.8042973840216812 0 0.8844106073845897 0.8163972065607144 0 0.8875136856291088 0.8284999033668297 0 0.8906172245079695 0.8406022438884313 0 0.8937208918464841 0.8527050984199126 0 0.8968250823412505 0.864806475365806 0 0.8999462866317716 0.8768970639732427 0 0.9151051221758766 0.892358501388403 0 0.9182095131619549 0.9044626888935877 0 0.933353767014932 0.9199279479570506 0 0.9364611393732796 0.9320252987197479 0 0.9395726121273152 0.9440786732994085 0 0.9426261114894565 0.955993970085296 0 0.9451281787875045 0.9677007634429782 0 0.9500065678653096 0.9783964421986031 0 0.9562510169381404 0.9891824831397074 0 0.9624999999998438 1 0 0.5220141312817225 0.01051102417457321 0 0.5279546253401017 0.02078663967877003 0 0.5343609423815545 0.03073101340799638 0 0.5384517034015716 0.04023410511241159 0 0.5410916685920113 0.05179834765868014 0 0.5440733549133832 0.0637698082539058 0 0.5471271309102997 0.07575553593339696 0 0.5502008973635193 0.08772475459764592 0 0.5652495312925355 0.1030144542523806 0 0.5683329623539304 0.1150297116471777 0 0.5714160588427064 0.1270459577814695 0 0.5744993048399465 0.1390627154915469 0 0.5895356913327183 0.1544201308778356 0 0.5926183485171652 0.1664426618618935 0 0.5957036045199431 0.1784417416657888 0 0.5987791102852662 0.1904537319044249 0 0.6018561552249375 0.2024904696408098 0 0.6049440380981523 0.2145513802410244 0 0.6080275283621764 0.2265878232445733 0 0.6230734498779377 0.2419638916894414 0 0.6261595183032238 0.2539894242913002 0 0.6292470322101431 0.2660156946906709 0 0.6323250897101187 0.2780473413994848 0 0.6355188958020166 0.2898218574262545 0 0.6387602971458762 0.3015721734825498 0 0.6540525815205271 0.3165486387883351 0 0.6571303414805981 0.3285660292776709 0 0.6876512918000978 0.3585949397320377 0 0.7150816212570785 0.4222450553957598 0 0.7456418859108365 0.4979936488206259 0 0.7487383769014612 0.5100712162701798 0 0.776188810503857 0.5738757672520808 0 0.8099094603166432 0.6618004900910749 0 0.8417239663156143 0.7370930889787772 0 0.8661693962600012 0.7888365978149362 0 0.9030638983852146 0.8889946281319829 0 0.9213130371108161 0.9165680271698535 0 0.6722317249755825 0.3436791740462555 0 0.5161111111105617 0 0 0.5532989777951853 0.09968790679039771 0 0.5775830707301359 0.1510818003470821 0 0.6111115667972264 0.2386186511986874 0 0.6420980306311355 0.3133037688666576 0 0.6601738496652874 0.3405698768639958 0 0.6755216895437344 0.3554858295263171 0 0.6907303699025117 0.3706426045283168 0 0.6938215039003222 0.3827000070503691 0 0.6969116697178148 0.3947585138233279 0 0.7000020824846453 0.4068206319847244 0 0.7030910499237567 0.4188879886377402 0 0.7181707123501804 0.4343104168919166 0 0.72126144265359 0.4463744611982353 0 0.7243548613606727 0.4584390113341772 0 0.7274476419573704 0.4705047932645059 0 0.7305455158515134 0.4825690272087582 0 0.7336390714579915 0.4946390000255502 0 0.7518224607891342 0.5221807686820652 0 0.7548884416163552 0.5343264844394759 0 0.7579291356230764 0.5464866814978934 0 0.7610208616458567 0.5585360182571619 0 0.7641430878834228 0.5705994841406645 0 0.77927148907026 0.5859514649771155 0 0.7823051580824463 0.5980298421747138 0 0.7854575404239139 0.610107405388111 0 0.7884661946938937 0.6222041658989567 0 0.791684288724215 0.6342702760834598 0 0.7947716038852071 0.6463599005878848 0 0.8130065475954602 0.6738910698847362 0 0.7978724923676992 0.6584520086843821 0 0.816102172277946 0.6859803142511122 0 0.8194317964372271 0.6978516932907476 0 0.8228901440882554 0.7097193033351028 0 0.8266203662563325 0.721652925464876 0 0.8297426103356229 0.7337217435302845 0 0.8448269409965018 0.7491877916201545 0 0.8479289394307397 0.7612824077982678 0 0.8510319246483391 0.7733770470692245 0 0.8541386222780853 0.7854745960768642 0 0.8692745936298915 0.8009348001898751 0 0.8723778611812176 0.8130355522884385 0 0.8754812321316364 0.8251368050579397 0 0.878584728148996 0.8372384953953801 0 0.8816878325616393 0.849341066019346 0 0.8847918564453432 0.8614412338966405 0 0.887902359557549 0.873532692677254 0 0.891022204688984 0.8856317047840823 0 0.9061737024075709 0.901098007960584 0 0.9092775583888466 0.9132037802179896 0 0.9244245312996721 0.9286650280441751 0 0.9275481240403756 0.9407403046253795 0 0.9307240541647471 0.9527507041122973 0 0.9340322951403781 0.964241182700596 0 0.9362773734780616 0.9768192672283469 0 0.9437499267558637 0.9891746925128391 0 0.9499999999997918 1 0 0.5099048550852558 0.01074365642632189 0 0.5159097135312196 0.02132689772655139 0 0.5222833924675666 0.03126436029258373 0 0.5284939973439634 0.03896336425783484 0 0.5295652670608741 0.0486368179250939 0 0.5322128970475872 0.06047287641550859 0 0.5352092920309113 0.07244703813393231 0 0.5382491395014409 0.08439938531886508 0 0.541352322550732 0.09634281956039699 0 0.5563850817635274 0.1116917448537671 0 0.5594670956154365 0.1237102135599271 0 0.5625497677456541 0.1357254984036936 0 0.5656321260947287 0.1477442612213191 0 0.5806657888041596 0.1631013079648791 0 0.5837427582392681 0.1750969678092644 0 0.5868328628583865 0.1870701680462223 0 0.5899029200237214 0.1990965080056979 0 0.5929735408233405 0.2111197196788771 0 0.5960629128234576 0.2232131866346347 0 0.5991515529592104 0.2352737004657688 0 0.614195272225952 0.2506488016140515 0 0.6172825143039646 0.2626775562360343 0 0.6203674407421602 0.2747112275603587 0 0.6233987475344429 0.2866918666761328 0 0.62669474027365 0.2984672244168956 0 0.6297860155311941 0.3102726735897364 0 0.6451384165447682 0.3252734121725433 0 0.6482412218825245 0.3372645614487463 0 0.6787764278430934 0.3673893025566525 0 0.7061794742896728 0.4309573073317514 0 0.7367360597410484 0.5067144199488093 0 0.7398199980306359 0.5188211120788648 0 0.7672308751079089 0.5826655285948935 0 0.8009822561215643 0.670535864091897 0 0.8328011977090617 0.7458275776067008 0 0.8572439050531743 0.7975723923024769 0 0.8941367792278585 0.8977341715539056 0 0.9123826004694863 0.9253091948634182 0 0.6633744458268584 0.3523501224515897 0 0.5037037037032137 0 0 0.5444409064822981 0.1083564283089319 0 0.5687146907977472 0.15976246213704 0 0.6022342983085665 0.2473045119923498 0 0.6330350491437304 0.3220328172194725 0 0.6512858506194857 0.3492686929602216 0 0.666662300570993 0.3642114356220078 0 0.6818486776814157 0.3793735920961874 0 0.6849247116310897 0.391405282444209 0 0.6880142436114302 0.4034623034144569 0 0.6911033265174427 0.4155236352719579 0 0.6941885158719535 0.4276054716195425 0 0.7092558998821238 0.4430239253889517 0 0.7123516693807954 0.4550863855536774 0 0.7154546487334859 0.4671484165714966 0 0.7185461381358947 0.4792149835221101 0 0.7216416921734262 0.4912817955392815 0 0.724737071850108 0.5033499830613158 0 0.7428808305385118 0.5309648015014963 0 0.7459418598579013 0.5431151438402033 0 0.7490188373419114 0.5552154948220175 0 0.7521141404567778 0.5672929126156542 0 0.7552104518430924 0.5793695586301876 0 0.7702885563441147 0.5947510771809064 0 0.7733809698796856 0.6067841930860253 0 0.7764868372856135 0.6188721271479842 0 0.7795938233666524 0.6309864502666782 0 0.7827284071596442 0.6430696836324432 0 0.7858360401618727 0.6551330038333932 0 0.8040822229659736 0.6826189146801818 0 0.7889352230993598 0.6672141283993215 0 0.8071658195270817 0.694694958690752 0 0.8106625009221529 0.7065995858604384 0 0.8140015589867767 0.7185762198181732 0 0.8176117201930662 0.7304256698903708 0 0.8208366146795966 0.7423069043196096 0 0.8359030779801371 0.7579216627638048 0 0.8390020945367727 0.7700131393729714 0 0.842104692245736 0.7821083236819486 0 0.8452141368818473 0.7942103934099534 0 0.8603467662834826 0.8096724846186072 0 0.8634497042191942 0.8217735778533328 0 0.8665529700996452 0.8338748425668276 0 0.8696558515511381 0.8459762384160405 0 0.8727584105635803 0.8580790069101294 0 0.8758676317627558 0.8701754414617839 0 0.8789892570353064 0.8822718462039917 0 0.8821020324202005 0.8943705138045634 0 0.897241820294808 0.9098390238953751 0 0.9003456730915744 0.9219448781395345 0 0.9155066662816207 0.937388888933514 0 0.9186724287881964 0.9494070563893595 0 0.9221774570501263 0.960927828239323 0 0.9260653083058257 0.969940177758793 0 0.9313152038945931 0.9892378571182011 0 0.9374999999997398 1 0 0.4974991058338977 0.01074357712906671 0 0.5036993861662157 0.02148589685395998 0 0.5104134137811751 0.03223386712462172 0 0.5175877512732799 0.04366958622213702 0 0.5201747642195818 0.05712012963273572 0 0.5232674354462771 0.06910904546875983 0 0.5263170865594043 0.08108253226757735 0 0.5294008561684876 0.09303474620491067 0 0.5324892782013271 0.1050125510810296 0 0.5475225252197046 0.1203753442580224 0 0.550600393504825 0.1324049387569246 0 0.5536824254570879 0.1444103533102269 0 0.5567614375845559 0.1564341080976426 0 0.5717871241338446 0.1717652689318718 0 0.5748449427597772 0.1837439048784777 0 0.5779383593875895 0.1957211634894708 0 0.5810374915628083 0.2077237952743826 0 0.5841226463053687 0.2197922449901279 0 0.5871935468351472 0.2318980387102094 0 0.5902753621383585 0.2439596853292628 0 0.6053184468844719 0.259334854017187 0 0.6084028791830256 0.2713665165142918 0 0.6114870246030097 0.2834000552628957 0 0.6145225783190127 0.2953554919971337 0 0.6176209871234208 0.3071894174774921 0 0.6208794834436115 0.3190412680266476 0 0.6362732746100939 0.3339246574343774 0 0.6393525312138048 0.3459628591034657 0 0.669900170587731 0.3760504146283881 0 0.6972627964336048 0.4396707644004881 0 0.7278280259565603 0.5154285812257102 0 0.7308808143254422 0.5276027408578733 0 0.7582916041512937 0.5914283080066107 0 0.7920553671652445 0.6792828759858521 0 0.8237649218665984 0.7543977177019499 0 0.8483168374527154 0.8063092209894652 0 0.885206164264806 0.9064743420143484 0 0.9034504085998281 0.9340506666336915 0 0.9237205627888392 0.9795645956603921 0 0.65458223927243 0.3610779690580856 0 0.4912962962957995 0 0 0.5355869868856991 0.1170577854936049 0 0.5598476081434784 0.1684409708710725 0 0.5933572827776848 0.2559904520852148 0 0.624166045743767 0.3308456175262298 0 0.6423974857772746 0.3579659840835777 0 0.657818830352111 0.3729149755110138 0 0.6729388822237468 0.3880539413691893 0 0.6760279460084593 0.4001100087142956 0 0.6791163157099757 0.4121702555514623 0 0.682198436341944 0.4242418781293078 0 0.6852684482617624 0.4363087250020735 0 0.7002818939553139 0.4517518538895011 0 0.703387031596691 0.4638126176639416 0 0.7065513880483857 0.475859515317182 0 0.7096308383935673 0.4879296787932011 0 0.712725423865479 0.4999972326545832 0 0.7158304553782258 0.5120638473206065 0 0.7339387970261366 0.5397381519918887 0 0.7370169210077069 0.5518513988609566 0 0.7401100730306054 0.5639333235066391 0 0.7432049780920664 0.5760096845166655 0 0.7462997703320613 0.5880871894897934 0 0.7613760966028185 0.6034749958824598 0 0.764453787295247 0.615529461501771 0 0.7675809172659527 0.627633817457572 0 0.7707017466990785 0.6397421267247688 0 0.7738024564187233 0.6518175911850983 0 0.7769060580406021 0.66388471051123 0 0.7951599913623381 0.6913554222759408 0 0.7800070297862237 0.6759797125258427 0 0.7982474115971816 0.7034247743169024 0 0.801541377625909 0.7154087437166867 0 0.8044564816311605 0.7276183744058495 0 0.8081816158047539 0.7389403349168029 0 0.8118599226254473 0.7505872375695978 0 0.8269803462414772 0.7666567022091892 0 0.8300565172790444 0.7787255821462878 0 0.8331855632603632 0.79084852401002 0 0.8362879434125208 0.8029458298256312 0 0.8514199871160626 0.8184099676425736 0 0.8545222529066669 0.8305112564427783 0 0.8576244765013787 0.842612813482095 0 0.8607270842955727 0.8547143718662389 0 0.8638307889022725 0.866814765895155 0 0.8669381017348479 0.8789135598861765 0 0.8700647938982451 0.8910064564776397 0 0.8731710246922582 0.9031095545016439 0 0.8883099043375249 0.9185798239434201 0 0.8914138519398913 0.9306856603049811 0 0.9065619044921661 0.9461610830450603 0 0.9096564966684638 0.958276269060226 0 0.9144532418725828 0.9704222099388649 0 0.9249999999996876 1 0 0.9191413716244671 0.989553438882808 0 0.4850926735031899 0.01071632196954365 0 0.4912952739636123 0.02148106283204468 0 0.4978936616177054 0.03185452266125103 0 0.5041001019917271 0.0423993460562342 0 0.5081943976791172 0.05391183609131873 0 0.511319805091484 0.06576935924633109 0 0.5143871009930596 0.07777321476800414 0 0.5174594288818544 0.08977352210547726 0 0.5205407163518443 0.1017904774169553 0 0.5236325336475791 0.1137765706905122 0 0.5386590097133024 0.1291106933295227 0 0.541732763207127 0.1411192776656118 0 0.5448075558528348 0.1531252255676175 0 0.5478939956254171 0.1651190446193103 0 0.5629306740342785 0.1804547673327105 0 0.5659535255853851 0.19241503137214 0 0.5690964565880636 0.2043744278613627 0 0.5721974161637664 0.2163659682786815 0 0.5752709696236926 0.2284327613639822 0 0.5783150049384664 0.2406170913823894 0 0.5813968663169014 0.2526476937752098 0 0.5964397773556112 0.2680217398935754 0 0.5995232652962803 0.280054097281436 0 0.6026070828579785 0.2920876491470946 0 0.6056906880534757 0.3041217632023828 0 0.6087224777153961 0.3161037157699073 0 0.6119463254041608 0.3278033665770477 0 0.6274364281664648 0.3426756379118037 0 0.6304647817066865 0.3546606106264585 0 0.6609971071118466 0.3847484701350464 0 0.6882608743439589 0.4483704492306431 0 0.7189057050793822 0.5241664197434968 0 0.7219395568595799 0.5363764268215598 0 0.7493747848517296 0.6001483391835636 0 0.7831341330491818 0.6880319818577327 0 0.8143202463414063 0.7628744342794341 0 0.8393905466899731 0.8150470026402409 0 0.8762744006193973 0.9152146872125689 0 0.8945134528212153 0.9428136375326048 0 0.913731877312282 0.9813800257014895 0 0.6455969884563759 0.3697533324349931 0 0.4788888888884407 0 0 0.526719778718851 0.1257908392557718 0 0.5509821262471015 0.1771152836533044 0 0.5844787019769584 0.2646672960607821 0 0.6152514050202261 0.3395797695056189 0 0.6335120266838514 0.3666650793247315 0 0.6488916761679644 0.381620299727079 0 0.6640404790231977 0.396765248788565 0 0.667129857385211 0.4088239843660034 0 0.6702150864552265 0.4208879097296221 0 0.6732989252353031 0.4329552716011886 0 0.676390636455969 0.4450190826010977 0 0.6912508728448878 0.460462827773112 0 0.6945602837551714 0.4725027758059129 0 0.6976046330857396 0.4846406746406194 0 0.7006624174288278 0.4966578915407774 0 0.7037659109734349 0.5087531819173696 0 0.7069117161624869 0.5207801428115792 0 0.7250153568353959 0.5484930150660703 0 0.7281067304219659 0.5605765277225563 0 0.7312019231358102 0.5726505022508916 0 0.7342967703316883 0.5847246131777244 0 0.7373910711737737 0.5967974242662826 0 0.7524668770948411 0.6122085963358823 0 0.7555666604544224 0.624289667404222 0 0.7586826484947022 0.6363830717000079 0 0.761794912519557 0.6484634796979341 0 0.764891206928493 0.6605464793695941 0 0.7679884931781302 0.672612729364405 0 0.7862421821181118 0.7000840112659066 0 0.7711026177976388 0.6846706296846055 0 0.7893416244398735 0.7121654140504973 0 0.7923488322208559 0.7241113039514198 0 0.7949902062796157 0.7357838780061373 0 0.7993347494196379 0.7469199453092528 0 0.8023542375236179 0.7587406212780266 0 0.8173590735593197 0.7750474296162277 0 0.8209998102108292 0.7873266980943863 0 0.8242602785317753 0.7995830600492347 0 0.8273369879753165 0.8116843117220599 0 0.8424889503022778 0.827149229152416 0 0.8455937506581669 0.8392498695369893 0 0.8486961285208015 0.8513506136925015 0 0.8517988034487344 0.8634518412607959 0 0.8549020384891991 0.8755530912945659 0 0.8580091945343165 0.8876516555935081 0 0.8611279106957583 0.8997486896272469 0 0.8642339743609561 0.9118517754057245 0 0.8793780015300201 0.9273203384204065 0 0.8824817347498973 0.9394264052334377 0 0.8975871346818135 0.9550250653972647 0 0.9007410356613101 0.9669546702219474 0 0.904163895895957 0.9779216790274113 0 0.9124999999996356 1 0 0.9071803143795636 0.9894382049979714 0 0.4726849432193593 0.01058346391747616 0 0.4784253112171589 0.02348767900523852 0 0.4870005652995047 0.03318500039437919 0 0.4938004000651607 0.04084942481391869 0 0.4961227105330584 0.05103973274765684 0 0.4993768405299682 0.06243276412217489 0 0.5024586849321482 0.07444328669373279 0 0.505535267904873 0.08645471189971335 0 0.5086185308669602 0.09846469678881331 0 0.5116972722440627 0.1104753015743583 0 0.5147786163789374 0.1224857456832003 0 0.5297962383707217 0.1378253132446918 0 0.532864153904316 0.1498226716922288 0 0.5359422334832845 0.1618063697987839 0 0.5390334307598854 0.1737840187398055 0 0.554057695155701 0.1891230941381921 0 0.5571152164535246 0.2010855048724511 0 0.5602454068007731 0.2130471812287693 0 0.5633463127008105 0.2250390083881092 0 0.5664042092096981 0.2371226968876763 0 0.56945706473254 0.2491967758257871 0 0.5725186839869182 0.2612699343218238 0 0.5875613224298504 0.276707819536383 0 0.5906439458679335 0.2887413513226958 0 0.593727188990739 0.3007745644896617 0 0.5968098524058664 0.3128092917467843 0 0.5998329087732699 0.3247842158802753 0 0.6031162689879837 0.3364876234725759 0 0.6185231385414294 0.3514256928795985 0 0.6215775310839532 0.3633575126292558 0 0.652109023324112 0.3934860567273571 0 0.6793521689986451 0.4570571869049033 0 0.7099747871764249 0.5329251507108503 0 0.7130237126888904 0.5451128231470057 0 0.7404809394399676 0.6088727095846552 0 0.7742263182697421 0.6967152717246957 0 0.8047525990679807 0.7713169055725629 0 0.8304458760401607 0.8237900898012396 0 0.8673422274914496 0.9239546047020558 0 0.8855856824636958 0.9515329445811941 0 0.6368006906886773 0.3784826846916962 0 0.4664814814811004 0 0 0.5178597550795643 0.1344961627546205 0 0.5421162348877446 0.1857883403796099 0 0.5755999791695896 0.2733662048184696 0 0.6063202232775522 0.3482406786664578 0 0.6246251621141653 0.3753614611066463 0 0.6400274170746642 0.390336278862368 0 0.6551568610901339 0.4055031801911705 0 0.6582308381651661 0.4175476018449814 0 0.6613139913868119 0.4296080446583504 0 0.6644035880941959 0.4416637713885163 0 0.6674925738142824 0.453722788603703 0 0.6822495020284363 0.4692064760816548 0 0.6854951873995578 0.4813602225607512 0 0.6886173486238514 0.4934561617570066 0 0.6916271624402632 0.5055574175635562 0 0.6948965883540749 0.517463640400456 0 0.6979645221288548 0.5296009010733443 0 0.7161035323762941 0.5572250240386579 0 0.7191995473534709 0.5692941472918378 0 0.7222952189740321 0.5813659790702344 0 0.7253907349574653 0.5934393640851167 0 0.7284865966359106 0.6055128870901275 0 0.7435822976637723 0.6209475131941153 0 0.7466863703037212 0.6330243748671063 0 0.749783353970032 0.6451038335371808 0 0.7528792468475312 0.6571855129366357 0 0.755973613834903 0.6692572502177838 0 0.7590798244095476 0.6813196634130871 0 0.7773240456117037 0.7088035243989422 0 0.7621940013030153 0.6933772726466996 0 0.7804212543315696 0.7208917756280071 0 0.7833420490170077 0.732799637901341 0 0.7866177242443936 0.7442470730395507 0 0.7900548156444207 0.7552327852973719 0 0.7929054010063774 0.7674322127410287 0 0.8082780944088925 0.7836389074259613 0 0.812048580755378 0.7960343513039648 0 0.8153042661353043 0.8082860855310586 0 0.8183330170421653 0.8204538024849554 0 0.8335612884026357 0.8358871888506743 0 0.8366652038886078 0.8479879477039094 0 0.8397680178611512 0.8600881045780155 0 0.8428703309302709 0.8721894856902348 0 0.8459751330948385 0.8842896454843207 0 0.8490817532690176 0.8963898685266597 0 0.8521901825297598 0.9084901373127499 0 0.8553043359270722 0.9205897106913387 0 0.8704461488127052 0.9360604570185329 0 0.8735494773386152 0.9481674641533452 0 0.8884772333549613 0.9643999587420187 0 0.8913512526633254 0.9768701624319047 0 0.8942933347276687 0.9890748667461176 0 0.8999999999995836 1 0 0.4602773066287376 0.01005916544819081 0 0.4652421968037374 0.02069012435560549 0 0.4776866993783176 0.03585170594898197 0 0.4838849608838082 0.04576852221007222 0 0.4874075533114862 0.05920227681270646 0 0.490517297418589 0.07110730571965615 0 0.493598507666713 0.08311626964393573 0 0.4966792542497011 0.0951271813849156 0 0.4997596598747638 0.1071359743182352 0 0.5028415060109543 0.1191477443418649 0 0.5059219234164507 0.131157983101801 0 0.5209383000492802 0.1464995218146954 0 0.5239941120844032 0.1584824960959644 0 0.5270815502248477 0.1704657962826733 0 0.5301715338851367 0.1824499763129254 0 0.5451823643402745 0.19777419655949 0 0.548285235080636 0.2097484346672408 0 0.5513918241741014 0.2217103870478663 0 0.5544766808004277 0.2337172247388332 0 0.5575233112717417 0.2457737467823545 0 0.5605946580817973 0.2578469108351322 0 0.563652610980995 0.2699462940066273 0 0.5786822649127294 0.2853962278413396 0 0.5817650510160899 0.2974273394933221 0 0.584851582863571 0.3094293750277844 0 0.5879184127732353 0.3214099157232583 0 0.590906991903468 0.3333379177510821 0 0.593963545570079 0.3451580715241925 0 0.6096122480145467 0.3600182270072151 0 0.6126925180171234 0.3720547076035676 0 0.6431988675623221 0.4021910875874349 0 0.6704603124628902 0.465702081059003 0 0.7010310932862233 0.5417410060043621 0 0.7041000922260143 0.5538793592042924 0 0.7315849886823661 0.6175868644567819 0 0.7653071742695825 0.7054423763155535 0 0.7959260486614239 0.7803466485782771 0 0.8215342068082251 0.8325239306188992 0 0.8584112219372241 0.9326917083166308 0 0.8764708192799212 0.9609257995645035 0 0.6278133815409488 0.3871647056749111 0 0.4540740740737054 0 0 0.468597611677694 0.03225070583357635 0 0.509003541695408 0.1431685737464793 0 0.5332455696426928 0.1944566439812782 0 0.5667252129074789 0.2820513081552829 0 0.5976410922990419 0.3566719895338017 0 0.6157415162075591 0.3840601418163446 0 0.6310982197471819 0.3990368307952277 0 0.646239845464105 0.4142052633393932 0 0.6493293872095089 0.4262572287853487 0 0.6524186624559922 0.4383109567183026 0 0.6554945221734635 0.4504682861731733 0 0.6585577004335305 0.4628888512292142 0 0.6734827203987319 0.4780393712898917 0 0.6766042286969283 0.4902626761853415 0 0.679650160461086 0.5023546132644904 0 0.6827606049336596 0.5143615405333585 0 0.6858593856604633 0.5265022375190284 0 0.6889520233304015 0.5385669104938523 0 0.7071980361140614 0.5659381540475623 0 0.7102927672627507 0.5780097670236108 0 0.7133874962978626 0.5900820158837065 0 0.7164833116525622 0.6021554310443328 0 0.7195787554672545 0.6142290347464894 0 0.734679528451145 0.6296648954040402 0 0.7377738500800399 0.6417440948317421 0 0.7408683242377793 0.6538253590444761 0 0.7439635348320139 0.6659068460445519 0 0.7470577182830063 0.6779728131002277 0 0.7501683742314286 0.6900326410584814 0 0.768404284231172 0.7175299925987028 0 0.7532894258313356 0.7020881617903207 0 0.7715012218722952 0.7296177653960292 0 0.7744131296493239 0.7415162242232093 0 0.7775713954563562 0.7532299674999929 0 0.7808262313554142 0.7655679691878465 0 0.7839293698660176 0.7773225253740433 0 0.7995937361174908 0.7928226317186772 0 0.8031543072709996 0.8050173944162672 0 0.8060361273833301 0.8172041997951056 0 0.8092980929345157 0.8292379904976986 0 0.8246348778763106 0.844625032131992 0 0.8277375650834948 0.8567245953568476 0 0.8308400673099552 0.8688252745312848 0 0.833943085120499 0.8809259980922501 0 0.837046998203457 0.8930270722968945 0 0.8401513254581064 0.9051288707336885 0 0.8432643972631779 0.917223464441678 0 0.8463757483648744 0.9293174767322295 0 0.8615095132403938 0.9448168888126133 0 0.8645865325998192 0.9570170236873038 0 0.876722665049194 0.975459191549518 0 0.8812499999995151 0.9891746824527096 0 0.8874999999995314 1 0 0.4478703787691445 0.01043700453508293 0 0.4529548569270825 0.01892977291877591 0 0.457394233627042 0.02895307671749396 0 0.4717189563449622 0.04394116276296489 0 0.47537645394457 0.05581421520765173 0 0.4785772458486053 0.06777313851086905 0 0.4816583937755523 0.0797799871170875 0 0.4847377565638063 0.09178594413846958 0 0.4878196059512058 0.1037980143485697 0 0.490900347902077 0.115810356892172 0 0.4939817863234915 0.1278213091033552 0 0.4970626174265148 0.139831138841865 0 0.5120759915000184 0.155170477098483 0 0.5151364831910485 0.1671521676732314 0 0.5182221710487072 0.1791360538078413 0 0.5213100155266308 0.1911269445174438 0 0.5363080421897817 0.2064330458875987 0 0.5394216127352902 0.2183967062457958 0 0.5425246491238331 0.230382390510839 0 0.5456043922697535 0.2423985915848825 0 0.5486697300750087 0.2544215851891005 0 0.5517465474435802 0.2664731288851001 0 0.554791042745825 0.2786368474008071 0 0.5698052408654963 0.2940809577692598 0 0.5728865232804122 0.3061117548856592 0 0.5760153025697932 0.317972360063598 0 0.5789955400119413 0.3299011779906606 0 0.5820667357581421 0.3418602824477744 0 0.5852730460034742 0.3536772625019686 0 0.6007233897496976 0.3687350128147429 0 0.6038132726929245 0.3807577687703856 0 0.6342980196094474 0.4108949639374228 0 0.6615409643820156 0.4747688823813716 0 0.692086513013679 0.5505717207494133 0 0.6951947687480834 0.5625928003191614 0 0.7226732032480609 0.6263048754058396 0 0.7563880980049946 0.7141684092740122 0 0.7871826840216947 0.7899523001786442 0 0.812605415397583 0.8412615079706802 0 0.8494818707518942 0.9414230271840354 0 0.8676489706985002 0.9684230723482851 0 0.6190161534324159 0.3958896363694674 0 0.4416666666663233 0 0 0.4604782359877705 0.04043001177251081 0 0.5001429565305816 0.1518401866665673 0 0.5243899158784978 0.2031379225162316 0 0.5578500552490675 0.290734684682862 0 0.5886980759518012 0.3654172713722711 0 0.6068597665771118 0.3927594760406508 0 0.6222354792632936 0.4077443123397624 0 0.6373470900534239 0.4229057604057506 0 0.6404348307427035 0.4349589809799186 0 0.6435235090137779 0.4470124211065567 0 0.6465710992290029 0.4592109279927474 0 0.6495615828334377 0.471506381314335 0 0.6645816978872694 0.4869847358170177 0 0.667674885153992 0.4990368346417885 0 0.6707671872290936 0.5110913345578919 0 0.6738655857579063 0.5231483547614156 0 0.6769506109314639 0.5352045597763773 0 0.680046706739751 0.5472420635464209 0 0.6982915746468948 0.5746533749609523 0 0.7013856370386377 0.5867252190268788 0 0.704479820983881 0.59879797021152 0 0.7075742341290487 0.6108714949834559 0 0.7106686749050698 0.6229457505726925 0 0.7257652252773142 0.6383850877592144 0 0.7288598192393743 0.6504651099508952 0 0.731952928067147 0.66254659220816 0 0.7350440738440401 0.6746239517152262 0 0.738150664730429 0.6866878664480011 0 0.7412569523005419 0.6987506118743509 0 0.7594849667419924 0.7262557728221963 0 0.7443706250834824 0.7108138286634149 0 0.7625816157346064 0.7383434743839092 0 0.765678551742307 0.7504309046265695 0 0.7687758399282383 0.7625194577978804 0 0.7718561096236441 0.774613634978362 0 0.7749510806526572 0.7867054037401631 0 0.7907299828445089 0.801890739131716 0 0.7937976234587272 0.8139904015491728 0 0.7964634462782176 0.8262020957973093 0 0.8004649214038471 0.8379487594556929 0 0.8157077981864155 0.8533614648758103 0 0.8188100484443435 0.8654617981278454 0 0.821912263051248 0.8775619030339581 0 0.8250151052676684 0.8896634372038125 0 0.8281186374138179 0.9017640532581331 0 0.8312258603770257 0.9138614289543574 0 0.8343389309222293 0.9259531622257045 0 0.837462215650012 0.9380041587664346 0 0.8524750194272014 0.9537509617317264 0 0.8549566186498183 0.9672146340360586 0 0.8624662981430425 0.9784885244765806 0 0.8693603793348071 0.9890325171907273 0 0.8749999999995011 1 0 0.4347591990601334 0.01118784869024023 0 0.4416671598841722 0.01707446875723747 0 0.4452778658496617 0.02636479769904477 0 0.4485460655202851 0.03711104624074798 0 0.463559741785543 0.05243621013109937 0 0.4666397672132668 0.06444033099000071 0 0.469719832124072 0.07644559486766059 0 0.4728005239053913 0.08845077883017508 0 0.4758801303180429 0.100456411208291 0 0.4789604867988438 0.1124722181493352 0 0.4820422166983349 0.1244856643983255 0 0.4851240043458889 0.1364919231346728 0 0.4882046584741613 0.1485006832570248 0 0.5032170098924662 0.1638419566058388 0 0.5062801252439714 0.1758178933541927 0 0.5093669341053095 0.1877967935537681 0 0.5124484850611445 0.1997985200698105 0 0.5274503695285478 0.2151079986567072 0 0.5305547429892379 0.2270962445076308 0 0.5336430887364286 0.239088652924639 0 0.5367296509102002 0.2510896147505307 0 0.539821328119108 0.2630958956707314 0 0.5428974778018991 0.2751337336718913 0 0.5459043565471222 0.2873217788802439 0 0.5609282414495733 0.3027632277152515 0 0.5640521885401435 0.3146325859135137 0 0.5671369960856383 0.3265647879801893 0 0.5701721876717405 0.3385205858362593 0 0.5732791444897148 0.3504637340206769 0 0.5764040665808211 0.3624394058198267 0 0.5918239694955876 0.3775422560151455 0 0.5949563220449208 0.3894816093607441 0 0.6254107662518583 0.4196026675919508 0 0.6525935302347876 0.4836324574985616 0 0.6831774299540976 0.5592544500434453 0 0.6862779944304453 0.5713143412149384 0 0.7137618996842484 0.6350223504990438 0 0.7474695163552721 0.7228944548325991 0 0.7782441585906754 0.7987471769832531 0 0.8036765809224452 0.8500027643728741 0 0.8406647806929437 0.9497538292284786 0 0.61004089115792 0.4045640322496709 0 0.429259259258989 0 0 0.4516261341164396 0.04910796651676741 0 0.49127671598791 0.1605006551967436 0 0.5155200449935353 0.2118007137460163 0 0.5489677601945349 0.2993402683087605 0 0.5796193599652801 0.3745192457384963 0 0.5979740822932536 0.4014536546721523 0 0.6132786834754861 0.4164553989049992 0 0.6284542068672511 0.4316046300925505 0 0.6315413129716825 0.4436597807574355 0 0.6345918695167102 0.455784393905697 0 0.6375890380212541 0.4680559993329763 0 0.6406080150495519 0.4802764927823909 0 0.6556861895817165 0.4956838718785162 0 0.6587783940703589 0.5077410285211259 0 0.6618713409239833 0.5197983647657489 0 0.6649649070986445 0.5318581976995987 0 0.6680501808992101 0.5439144138017429 0 0.6711477796638778 0.5559518924068008 0 0.6893802368132192 0.5833755819438919 0 0.692477862584132 0.5954410796585263 0 0.6955714273994744 0.6075137972096951 0 0.6986652187695275 0.6195871400227437 0 0.7017589964451907 0.6316615709502595 0 0.716853857829828 0.6471033468248113 0 0.7199444873903771 0.6591861596825106 0 0.7230372318454765 0.671266727190814 0 0.7261279799578545 0.6833436771693001 0 0.7292344031167453 0.6954027133614895 0 0.7323458848425434 0.7074673660052382 0 0.750566150664578 0.7349811855188229 0 0.735452472647385 0.719541158305081 0 0.7536625697462355 0.7470684042757532 0 0.7567584757332688 0.7591565099480124 0 0.7598543958161207 0.7712461334250064 0 0.7629509527235251 0.7833365070239943 0 0.7660505600581153 0.7954228120427753 0 0.7813802825110587 0.8108319216398115 0 0.7843030189440412 0.8229414458684535 0 0.787365234763464 0.8350775994157899 0 0.7915969606533692 0.8467362062021474 0 0.8067816146699862 0.8621000993682678 0 0.8098821627002782 0.8741986864291915 0 0.8129839369467646 0.8862994535559594 0 0.8160860774988108 0.8984011870919821 0 0.8191907240595659 0.9104997971568292 0 0.8222987830448858 0.9225986255881307 0 0.8254101406984464 0.9346986324948541 0 0.8286218840173856 0.9464159016206761 0 0.8425439837917368 0.9611025361488086 0 0.8497796803271482 0.9793008978258582 0 0.8562485903101 0.9893417371732858 0 0.8624999999995662 1 0 0.4223376710563235 0.01035574728465292 0 0.4345540377069171 0.02294499783035937 0 0.4365654454778843 0.03387902638863301 0 0.4396923437494999 0.04581830561534473 0 0.4547029506231462 0.06110734244746183 0 0.4577830665230949 0.07311115224530146 0 0.4608636237517617 0.08511534767575704 0 0.4639440689923016 0.09712076517348645 0 0.4670236354364413 0.1091297155778593 0 0.470101305912609 0.1211365305532372 0 0.4731807362188114 0.1331443894001006 0 0.4762618909025161 0.1451480247247656 0 0.4793366219070286 0.1571492865255398 0 0.4943506323340624 0.1724816098647351 0 0.4974285033103762 0.1844609940962922 0 0.5005094273179751 0.1964614150115979 0 0.5035877662112227 0.2084691516035487 0 0.5185989394592434 0.2237992333143314 0 0.5216807642871419 0.2357926205112375 0 0.5247723831947054 0.2477809276243615 0 0.5278619469246263 0.2597741109626096 0 0.5309558618486541 0.2717701227266031 0 0.5340050449164879 0.2838152470190774 0 0.5370288219805532 0.2958668613800683 0 0.5520879214836982 0.3112784777695219 0 0.5552210508362155 0.3232136499784487 0 0.5583337121404983 0.3351981009217472 0 0.5613729711871859 0.3472387399001355 0 0.5644475803473449 0.3592719147736907 0 0.5675886399418164 0.3712361919912881 0 0.5830501835518633 0.3862855488387648 0 0.5860667373005863 0.3981711776306956 0 0.6165036249346564 0.4283193175893603 0 0.6436988337881125 0.4923323015628221 0 0.6742646985737619 0.5679895849573212 0 0.677371264950086 0.5800344469912002 0 0.7048500925680208 0.6437397954184549 0 0.7385517175739521 0.7316195807083316 0 0.7691788925132181 0.807512625907176 0 0.7947613409623493 0.8587485030948685 0 0.8328042750231852 0.9562074475900476 0 0.8434640275209109 0.9711688505363951 0 0.6011953587727381 0.4133045370097008 0 0.4168518518516178 0 0 0.4260427085868199 0.01912916714356474 0 0.4427728927380543 0.05778600336074675 0 0.4824133388615083 0.1691418029629305 0 0.5066659825335906 0.2204783054074955 0 0.5401002307177005 0.3078684316143601 0 0.5708081543393524 0.3830295598588442 0 0.589088599026776 0.4101468276394418 0 0.6042859804724505 0.42519752664955 0 0.6195603282710025 0.4403087654949545 0 0.6226470231546012 0.4523606913490129 0 0.6256603507221969 0.4645574287004448 0 0.628663960307372 0.4768190584798011 0 0.6317194939918173 0.4889640365297621 0 0.6467894491330395 0.5043890786596934 0 0.6498813124003288 0.5164466866231172 0 0.6529735500534225 0.5285052783968883 0 0.6560648182012511 0.5405658838443892 0 0.6591540529364037 0.5526277470100038 0 0.6622483216730775 0.5646788820723834 0 0.6804770872291204 0.5920850298108566 0 0.6835701777657461 0.604155941669775 0 0.6866630292739586 0.6162269811349754 0 0.6897559652806098 0.628301371515647 0 0.6928494506435134 0.6403771936713371 0 0.707941622819634 0.6558215776387493 0 0.7110301716213079 0.6679066042440863 0 0.7141223017563947 0.6799866151646224 0 0.7172172800439991 0.6920683770144422 0 0.7203280190604282 0.7041168071362334 0 0.7234400487870517 0.7161796415478872 0 0.7416475234440942 0.7437062229846189 0 0.7265382297010112 0.7282598993565101 0 0.7447450295345297 0.7557881273205017 0 0.7478420759310698 0.7678742420551603 0 0.7509354843921626 0.7799661404140216 0 0.754041683993141 0.7920500384444893 0 0.7571473028571452 0.8041346411442364 0 0.7723142529625818 0.8194966722421674 0 0.7754715621225531 0.8315172321800328 0 0.7786169232507224 0.8437505899530531 0 0.7827183181581872 0.8554794114885723 0 0.79785179825761 0.8708346575213305 0 0.8009538177428486 0.8829348004031676 0 0.8040555676760356 0.8950361211364611 0 0.8071568187670853 0.9071386133016861 0 0.8102641579439678 0.9192379223486242 0 0.8133714549100668 0.9313407139667348 0 0.8164882694453662 0.9434019969073635 0 0.820949984513653 0.9562503524327897 0 0.8312407421002074 0.9675146185194852 0 0.8374904923288615 0.9790101821580892 0 0.8437457238884576 0.9893273799361613 0 0.8499999999996529 1 0 0.4104916863789508 0.01065933571248811 0 0.416427241528545 0.02097839567933935 0 0.4238883011834829 0.02989051037364018 0 0.42775264716538 0.0425814985945646 0 0.4308444960734102 0.05450200057719617 0 0.4458505823023425 0.06978036782691509 0 0.4489276881987793 0.08178003104046155 0 0.4520093991733437 0.09378552791237604 0 0.4550896899431419 0.1057894490826052 0 0.4581666519374719 0.1177955844738413 0 0.461237687708994 0.1297932476402701 0 0.4643247646471068 0.1417996005245276 0 0.4674005598220998 0.153802265506728 0 0.4704774022716794 0.1658004024242708 0 0.4854938499798734 0.1811198373567328 0 0.4885722344966946 0.1931244563372957 0 0.4916493354905719 0.2051311620115124 0 0.4947264787091366 0.2171391857275892 0 0.5097446591013785 0.2324888841224715 0 0.5128127279207405 0.2444795669771638 0 0.5159061203890954 0.2564609996199884 0 0.5190062724454696 0.2684384229637545 0 0.5220887159568575 0.2804453659599412 0 0.525145604941221 0.2924662820264182 0 0.5282219847080599 0.3044836321092194 0 0.543255881421745 0.3198590811198059 0 0.5463758645187522 0.3318544700532329 0 0.5494572594537679 0.3438824677913924 0 0.5525312549241415 0.3559144329296436 0 0.555611893545106 0.3679419065741719 0 0.5587791505595119 0.3798097697392052 0 0.5741002529061399 0.3949034181250175 0 0.5771560740682868 0.4068378080920753 0 0.6074874367168779 0.4370440900140225 0 0.6348027641685372 0.501037516731084 0 0.6653654007709875 0.5767034970151594 0 0.6684756485102092 0.588737893905199 0 0.6959402939328863 0.6524578046189231 0 0.7296337396543523 0.7403445521544796 0 0.7602416663057101 0.8161868534800203 0 0.7858292535727568 0.8675022688875266 0 0.5921673783560049 0.4220199567440762 0 0.4044444444442361 0 0 0.4339219615645121 0.06647552714480867 0 0.4735543989561767 0.1777927144929581 0 0.4978038428927814 0.229149719112713 0 0.5313059205630195 0.3165022128153653 0 0.5619822096129885 0.3916949600727063 0 0.5802295335895226 0.4188658673027137 0 0.5953560817399035 0.4339687025634194 0 0.6106424979996964 0.4490788109274435 0 0.6136518701551901 0.4612955041788427 0 0.6166964915996882 0.4734341749331534 0 0.6197263907863885 0.48563255976482 0 0.6228169998509416 0.4976862898576545 0 0.6378932399047903 0.5130942394584901 0 0.6409840936149103 0.5251524402945896 0 0.6440750114926203 0.5372114548961557 0 0.6471652055303041 0.5492693044836582 0 0.6502550613100058 0.5613186236156038 0 0.6533617888934092 0.5733532626944914 0 0.6715706779327479 0.6007986660292182 0 0.6746628827739702 0.61286777889426 0 0.6777556337910317 0.6249402525606425 0 0.6808476510409112 0.6370160611981905 0 0.6839406240379979 0.6490939149507909 0 0.6990294195816762 0.6645352940407548 0 0.7021183292661106 0.676616787692586 0 0.7052099757665169 0.6886978308639007 0 0.7083099280986108 0.7007560384653586 0 0.7114205694736198 0.712826706422985 0 0.7145259993026201 0.7249008537354582 0 0.7327292108136483 0.7524283213616303 0 0.717621308795632 0.7369833088491107 0 0.7358319040141519 0.7645012300216084 0 0.7389314908325318 0.7765900604807535 0 0.7420297638353206 0.7886750382628862 0 0.7451360400925774 0.8007650917790228 0 0.7482467070664874 0.8127973483742543 0 0.7635411879816567 0.8278665847400017 0 0.7669406031989016 0.8401630141437635 0 0.7704560512757042 0.8525035327237243 0 0.7737720714547263 0.8642296732124646 0 0.7889251991808641 0.8795759138189402 0 0.7920261500225144 0.8916722792252927 0 0.7951277180801238 0.9037726559070705 0 0.7982309592665923 0.9158738922144086 0 0.8013362076156103 0.927975891863957 0 0.8044415314004928 0.9400800973783496 0 0.8077151495892295 0.9516209555276387 0 0.8184719965133489 0.9676625110804257 0 0.8249740132668455 0.9783608939790395 0 0.83124371885808 0.9892834916780278 0 0.8374999999997397 1 0 0.3982138243414785 0.01068764458402854 0 0.4035211201195089 0.02333058099647718 0 0.4119608746479979 0.03009211945242727 0 0.4157172221188404 0.03967080517661058 0 0.4189284695144245 0.05118289195405568 0 0.4219986617085903 0.06316777679365664 0 0.4369985265224425 0.07846469635486461 0 0.4400741016444145 0.09045161209036665 0 0.4431572225096634 0.1024559624115794 0 0.4462371717935516 0.1144567033130575 0 0.4493130261848594 0.126455379305257 0 0.4523908260899528 0.1384540638823447 0 0.4554680473866823 0.1504537535142181 0 0.4585451603629135 0.162453417602847 0 0.4616236822444091 0.1744532406597518 0 0.4766375326792582 0.1897880794563543 0 0.4797141427809962 0.201791649029761 0 0.4827896004367033 0.2138010186402948 0 0.4858625555636344 0.225812474011313 0 0.5008764641518189 0.2411543408396525 0 0.5039614607356095 0.2531398612787581 0 0.5070484570816605 0.2651188984823039 0 0.5101433072592564 0.2771062168270178 0 0.5132235587546263 0.2891216973793613 0 0.5162994906538865 0.301137558005796 0 0.5193805072698302 0.3131540444569668 0 0.5344204915707715 0.3285114822306707 0 0.5375014636053318 0.3405365719902494 0 0.5405805453998458 0.3525596719663778 0 0.5436593363036359 0.364588872781741 0 0.5467284009757415 0.3765482432179879 0 0.5499484370032436 0.388483883235581 0 0.5652213012035672 0.4035607321742723 0 0.5682768563713868 0.4155356989593328 0 0.5985003160482932 0.4459628586350073 0 0.6259066447033899 0.509741890627619 0 0.6564801632200402 0.5853750005000001 0 0.659572431312031 0.597443837808315 0 0.6870306039473012 0.6611695197447198 0 0.7207168442896418 0.7490642227370508 0 0.7515045168450767 0.8243781023738828 0 0.7768944515076455 0.8762070676305901 0 0.811921764822108 0.9602786155319146 0 0.5832800792271517 0.4308028398472967 0 0.3920370370368668 0 0 0.4250710045602507 0.07515665931173666 0 0.4647042623316199 0.1864528974956712 0 0.4889406556768859 0.2378197949154204 0 0.5224679881464822 0.3251695635272481 0 0.5530829877948467 0.400429580524223 0 0.5713498426562997 0.4275626501470003 0 0.586415299618643 0.4427849434905641 0 0.6016329981025772 0.4580251636697406 0 0.6046832166092944 0.4701839063652218 0 0.6077586279577163 0.4822512636753279 0 0.6108329267461808 0.4943356789023454 0 0.6139222087601216 0.5063890654185407 0 0.6289965644876147 0.5217995313419944 0 0.6320863473394774 0.5338581338315878 0 0.6351763039875042 0.5459169738376792 0 0.638263361880526 0.5579664997507582 0 0.6413640633887574 0.5700077172700417 0 0.6444712396465631 0.5820389331669068 0 0.6626647421933625 0.6095108843335717 0 0.6657561885830656 0.6215790008945015 0 0.6688480857936749 0.633650321726281 0 0.6719391055270267 0.6457352830117694 0 0.675032489916974 0.6578084601008634 0 0.6901205272969801 0.6732458731001918 0 0.6932106178805957 0.6853212118532508 0 0.6963018981740863 0.6973944940128243 0 0.6994112985243925 0.7094662410445893 0 0.7025153350089886 0.7215412214654112 0 0.7056102620957736 0.7336224560162945 0 0.7238216283933327 0.7611412572437511 0 0.7087049589788608 0.7457037676274585 0 0.7269319874708071 0.7732214925117797 0 0.7300316542009879 0.7853095779955446 0 0.7331330861464288 0.7973958290360376 0 0.7362373902686771 0.8094881404480363 0 0.7395584286871801 0.8210709287628677 0 0.7550401838255013 0.8365523181944885 0 0.758517710737272 0.8487878270712806 0 0.7617052165777488 0.860899493073209 0 0.7648653002334745 0.8728434594547131 0 0.7799965319256283 0.8883075985120642 0 0.7830985707328832 0.9004071550533802 0 0.7862002778347448 0.9125088978005362 0 0.7893041736983482 0.9246111783376585 0 0.7924080784927771 0.9367145263640533 0 0.795721229314709 0.9483081433285073 0 0.8004506216742258 0.959013344834892 0 0.8124443389727094 0.9785236216139492 0 0.8059795783149092 0.9685190156834249 0 0.8187478075535097 0.9891711500764413 0 0.8249999999998263 1 0 0.3858324797382817 0.01049903974555631 0 0.3904440575731023 0.02117868708359928 0 0.4040719727348538 0.03593758716254231 0 0.4070026391382228 0.04785463379101904 0 0.4100803288280255 0.05984988877978073 0 0.4131505223011717 0.07183710697065987 0 0.4281483159575605 0.08714496045724615 0 0.4312270734875977 0.09913136831921635 0 0.4343073179750718 0.1111255931379063 0 0.4373853317776903 0.1231218624976334 0 0.440462766768996 0.1351189802006365 0 0.4435414061312153 0.1471201795855414 0 0.4466186222016406 0.1591201654604308 0 0.449695738102194 0.171119639403169 0 0.4527738278672553 0.1831196737400263 0 0.46778152304118 0.1984537226409781 0 0.4708568453882452 0.2104573732061403 0 0.4739290346749275 0.2224605949001755 0 0.477002142623852 0.2344663949576591 0 0.4920169733479788 0.2498202950220831 0 0.4951015924762626 0.2618000684671268 0 0.4981975041781883 0.2737731642187591 0 0.501279219663102 0.2857811997750465 0 0.5043579454409119 0.2977958350787869 0 0.5074376444101119 0.3098110789716589 0 0.510517798683217 0.3218282513351797 0 0.5255484671689936 0.3371915458092823 0 0.5286287760861603 0.3492098408346178 0 0.5317086976415668 0.3612300944749723 0 0.5347897731148024 0.3732467842013414 0 0.5378521601657561 0.3852443642262466 0 0.5409617383640299 0.3972304699412781 0 0.5562891971387145 0.4122987453249981 0 0.5594178157256697 0.4242532257293029 0 0.5896369307997382 0.4547516810878538 0 0.6170109879538201 0.518445826721056 0 0.6475748788498772 0.5940894523334731 0 0.6506678091679081 0.6061545833427828 0 0.6781228600485012 0.6698819223550321 0 0.7118069266466269 0.7577790831340311 0 0.7432211759673094 0.8331543092970399 0 0.7679666641915945 0.8849426616189395 0 0.5744517156495723 0.4395341723976998 0 0.3796296296294943 0 0 0.3930625159369198 0.03306570673242239 0 0.4162248446375912 0.0838258959573331 0 0.4558503721342767 0.1951185887804238 0 0.4800790995106877 0.2464674805215166 0 0.5135974154275466 0.3338478094307415 0 0.5440541654697205 0.4093245950150524 0 0.5624691454524118 0.4362571502789668 0 0.5775749707125063 0.4515183548640795 0 0.5926831570032512 0.4668782208240737 0 0.5957618363452891 0.4789359833853855 0 0.5988509056594575 0.4909852787010414 0 0.6019396390599308 0.5030360763410958 0 0.6050266822911485 0.5150911839512934 0 0.6200986362994909 0.5305055227314779 0 0.6231883316215143 0.5425640771704651 0 0.626277896830819 0.5546211401833715 0 0.6293649021727897 0.5666656287234904 0 0.6324736583663241 0.5787046379494778 0 0.6355773346165889 0.5907411983499627 0 0.6537590850832724 0.6182218975978602 0 0.6568492172271914 0.6302955864756072 0 0.6599403441219562 0.6423673462002142 0 0.6630318954019919 0.6544486960370197 0 0.6661242321355244 0.6665229884904414 0 0.681217680373436 0.6819547840063587 0 0.6843154119957532 0.6940286975027204 0 0.6874052423566194 0.7061065862885398 0 0.6905057275350539 0.7181821619786795 0 0.6936006513739426 0.7302616286990351 0 0.6966954420290306 0.7423398982100743 0 0.7149144796004105 0.7698593604201791 0 0.6997928520184413 0.7544163469764964 0 0.7180200041786603 0.7819471509681245 0 0.72111799195048 0.7940328267717973 0 0.7242212866388344 0.8061086969996876 0 0.7275659563299064 0.8179227409779881 0 0.7313537235784161 0.8298572988630158 0 0.7466351215293682 0.8452850620477745 0 0.7497358346576701 0.857382013993759 0 0.7528366991515743 0.8694798000481851 0 0.7559378577668489 0.8815784346241651 0 0.771068436870173 0.8970428144932983 0 0.774170278296919 0.9091439099351162 0 0.7772725079560114 0.9212461881242532 0 0.7803747965598028 0.9333493364628801 0 0.7836049784811288 0.9457849935769485 0 0.7878599629907728 0.9574076605067983 0 0.7935060450136266 0.9679456784310677 0 0.7999539645318788 0.9784245915162614 0 0.8062324441943902 0.9892152345266816 0 0.8124999999999131 1 0 0.37341556739279 0.01052626881661007 0 0.3781604093546155 0.01972331112587481 0 0.381724581530727 0.03099025209064531 0 0.395166210703342 0.044916718780088 0 0.3981562197135571 0.05651950355157122 0 0.4012321120113604 0.06850997591193315 0 0.4043077657220806 0.08049789667453523 0 0.4193025936697619 0.09581160934829853 0 0.4223802198748703 0.1078001056607103 0 0.4254588216361431 0.1197899937260622 0 0.4285356584389856 0.1317825446154314 0 0.4316140349314354 0.1437835000026591 0 0.4346933106314187 0.1557919366938699 0 0.4377681202372328 0.1677974734389648 0 0.4408466200374794 0.1797933289383911 0 0.4439216622010954 0.1917896982687946 0 0.4589270506167794 0.207117859822438 0 0.4619997207788853 0.2191193942031943 0 0.4650702341439176 0.2311156107440331 0 0.468147669583688 0.2431169945719972 0 0.483165345948282 0.2584599830605167 0 0.4862564433376811 0.2704338107019306 0 0.4893365125357373 0.2824427006702306 0 0.4924147874295424 0.2944546406570296 0 0.4954920436091009 0.3064695440744917 0 0.4985695432515677 0.3184868129018655 0 0.5016486510665707 0.3305043434597109 0 0.5166769690789553 0.3458679357726945 0 0.5197596413523633 0.3578815581010718 0 0.5228436070567009 0.3698963466765653 0 0.5259258721868409 0.3819215173664589 0 0.5290107650251862 0.3939483429530263 0 0.5320922595630339 0.4059781751438989 0 0.5475789096856608 0.4210391946335866 0 0.5505218015418633 0.4329315792197236 0 0.5806941905690977 0.463550751355029 0 0.6081143254871466 0.5271470628244654 0 0.6386720037624133 0.6027990964760697 0 0.6417630217141898 0.6148650830464841 0 0.6692166580149537 0.6785963114823447 0 0.7028982914433635 0.7664981642921811 0 0.7346187392260048 0.8419314684639844 0 0.7590389514965077 0.8936780676944291 0 0.565574990465445 0.4482490091637864 0 0.3672222222221126 0 0 0.383447152959985 0.04204041428118229 0 0.4073829700986294 0.09248507579428433 0 0.4469981363308089 0.2037831729445614 0 0.4712245433328487 0.2551145700242624 0 0.5047274666418746 0.3425220980597113 0 0.5352881292781213 0.417890631988499 0 0.5535888851103781 0.4449509487657604 0 0.5686766971725417 0.4602395716895445 0 0.5837837152554268 0.4755861056455766 0 0.5868715761697377 0.4876346091776211 0 0.5899591639126694 0.4996841001648771 0 0.593046633275647 0.511734627133074 0 0.5961326995642878 0.5237868243629725 0 0.6112008320929494 0.5392097312255661 0 0.6142910025629965 0.5512694183422149 0 0.6173769304719936 0.5633205592540085 0 0.6204590196884017 0.5753627186726894 0 0.6235810924699673 0.5873885049840722 0 0.6266710663530004 0.5994509352384656 0 0.6448522872995751 0.6269405214525915 0 0.6479410506167982 0.6390189701745125 0 0.6510320281413438 0.6510929676925556 0 0.6541240662323498 0.6631651604940401 0 0.6572120401385485 0.6752381389666416 0 0.6723099573096475 0.6906706110770491 0 0.6754040405352494 0.7027458867539655 0 0.6784979594067156 0.7148229578778157 0 0.6815921638156609 0.7269012694781953 0 0.6846864929452042 0.7389801634302896 0 0.6877831004928506 0.7510591034943721 0 0.7060029835295183 0.7785848635938579 0 0.6908819052363669 0.7631398360327017 0 0.7090996341005895 0.7906734646633014 0 0.7121968765342013 0.8027628060645366 0 0.7153223913684579 0.814752302908784 0 0.7189448372380476 0.826642367847622 0 0.7224507780402571 0.8385585604112947 0 0.7377093126252681 0.8540182924473623 0 0.7408096190529762 0.8661158090100917 0 0.7439098898265765 0.878214179230922 0 0.7470106148685778 0.890313338402923 0 0.762139731246063 0.9057789046554642 0 0.765241036384825 0.9178809550458826 0 0.7683420194983727 0.9299838545114436 0 0.7713593184727938 0.9424503014599478 0 0.7739093364689961 0.9560354868793507 0 0.781158274883942 0.9677646945113085 0 0.7874822630728678 0.9783991777295352 0 0.7937485541083307 0.9891720439534392 0 0.7999999999999998 1 0 0.3608479084920648 0.01131711299771207 0 0.3676127634738439 0.01782247768189579 0 0.3703030044743341 0.02751222857443499 0 0.3720130284377536 0.03859520022975935 0 0.3861438486058967 0.053470986916663 0 0.3893143702904031 0.06518207291041131 0 0.3923897053660926 0.07716938445289077 0 0.3954654758394594 0.08915665328791517 0 0.4104585962566052 0.1044721318582127 0 0.4135356958237932 0.116459470141065 0 0.41661167307085 0.1284481381562085 0 0.419688534658565 0.1404401582930049 0 0.4227686848346797 0.1524580637013895 0 0.4258400121868506 0.164465630989988 0 0.4289174566914178 0.1764723251848995 0 0.431996158403861 0.1884630512289658 0 0.4350709360980354 0.2004552211609144 0 0.4500737783485231 0.2157803886667219 0 0.4531453926810745 0.2277770511780075 0 0.4562224116848912 0.2397720439882534 0 0.4593010406730084 0.2517692713275339 0 0.4743109604804595 0.2671084938307295 0 0.4773957879182789 0.2791058400249302 0 0.4804738623655489 0.2911140202517066 0 0.4835485237968796 0.3031296075190217 0 0.4866241923020285 0.3151449809264787 0 0.4897011651092394 0.3271620987840814 0 0.4927796392782292 0.339179255658176 0 0.5078078051865377 0.3545386219738934 0 0.5108912063619607 0.3665542912979768 0 0.5139741302236881 0.3785756925724003 0 0.5170543689821603 0.3906020498816383 0 0.52013475387206 0.4026290614827813 0 0.5232066681259485 0.4145842383884369 0 0.5386942389002748 0.4297283288766213 0 0.5416493116680438 0.4416322456596545 0 0.5718074039359549 0.4722358832819987 0 0.5992161147211832 0.5358432879544274 0 0.6297686037271729 0.6115087638377705 0 0.6328583781416934 0.6235765477994109 0 0.6603028369218013 0.6873124527620808 0 0.6939851064385659 0.7752234290026414 0 0.7256856239740214 0.8506560312087048 0 0.7501111419151211 0.9024127573652228 0 0.5566774955380451 0.4569406578660556 0 0.3548148148147337 0 0 0.3743766020116178 0.05018506402423374 0 0.3985400739328911 0.1011416155024899 0 0.4381473909439659 0.2124469167394386 0 0.4623750068824082 0.2637707313671862 0 0.4958588132207423 0.3511960112445785 0 0.5263760514385973 0.4264034637750909 0 0.5447007826915601 0.4536350809274977 0 0.5597921777400148 0.4689387797649779 0 0.574892421037321 0.4842886285890971 0 0.5779809410581223 0.4963331165677066 0 0.5810677832114263 0.5083818087239622 0 0.5841539348734741 0.5204303442138064 0 0.5872378794105241 0.5324818820726583 0 0.6023025854222621 0.5479025764807757 0 0.6053929321498253 0.5599638040463673 0 0.6084808598339495 0.5720245981387115 0 0.611570743979802 0.5840701609185677 0 0.6146706446720456 0.5961186202074933 0 0.6177634262210399 0.6081761789567021 0 0.6359461013199669 0.6356554454907247 0 0.6390338383243416 0.6477389182211026 0 0.6421252564974542 0.6598079093876453 0 0.6452170046318517 0.6718766644512955 0 0.6482901132735732 0.6839554693997173 0 0.6633988806798984 0.699386784507027 0 0.6664910242736768 0.7114629173498725 0 0.6695836417041237 0.7235409943652626 0 0.6726782137100185 0.735620260715488 0 0.6757725069612109 0.7477000402938858 0 0.6788711785563334 0.7597811815437626 0 0.6970824836021798 0.7873109647983947 0 0.6819665681995362 0.7718648678702577 0 0.7001788646246863 0.7993995750130407 0 0.7032749550405935 0.811489620236624 0 0.7067463383188635 0.8234147207975497 0 0.7102298357923849 0.835348583127101 0 0.7136593875874689 0.8472905404561424 0 0.7287835491918224 0.8627516531502091 0 0.7318827289887573 0.8748495802294897 0 0.7349827327371564 0.8869484823880304 0 0.7380831154692564 0.8990481091147697 0 0.7532123991147973 0.9145139738403916 0 0.7563113074490397 0.926617460961781 0 0.7594113557974824 0.9387219051039575 0 0.7625134240309807 0.9508262322251071 0 0.7688187901554988 0.9685605586310452 0 0.7749976575889204 0.9784216893024236 0 0.7812462773462526 0.9892050250564586 0 0.7875000000000865 1 0 0.3487024672295372 0.009614536468575572 0 0.3605938600263429 0.02272001836514582 0 0.3608907111712168 0.03405162804908442 0 0.3624778105033538 0.0460715056092981 0 0.3773526941893073 0.06201962438295617 0 0.3804694544321091 0.07383723180743219 0 0.3835529706942259 0.08583487311434124 0 0.3866227433793856 0.09782050924017341 0 0.4016155191722772 0.113127841146745 0 0.4046906682106013 0.1251159060361008 0 0.407770094705125 0.1371073209089544 0 0.4108468152275754 0.1491099548435385 0 0.4139202770017942 0.1611193896911332 0 0.4169928027124267 0.1731329823499682 0 0.4200724465904057 0.1851398022254306 0 0.4231478288047333 0.197127931595365 0 0.4262234568416865 0.2091163362436548 0 0.4412188290809193 0.2244420673781828 0 0.4442935641863184 0.2364374523369805 0 0.4473686687149599 0.2484346001258682 0 0.4504458975880388 0.2604329581754824 0 0.4654584719517175 0.2757691033445198 0 0.468536342430721 0.2877742692445796 0 0.4716069032511838 0.2997889643000824 0 0.4746793538238733 0.3118054949043412 0 0.4777536450148544 0.3238229908305654 0 0.4808329389397666 0.3358374439731686 0 0.4839112532646889 0.347853631846965 0 0.4989390222697799 0.3632132758955995 0 0.5020207842190364 0.3752322173808282 0 0.5051004714873424 0.3872558541537495 0 0.5081796200608661 0.3992802261283118 0 0.5112320999819175 0.4112643150393641 0 0.5143921212199176 0.4231839939751975 0 0.5296557195097894 0.438321551095511 0 0.5327423584624469 0.4502965317895525 0 0.5629081884344439 0.4809555255523446 0 0.5903242381016162 0.5445350033898544 0 0.6208629919457993 0.6202238307370259 0 0.6239519386251903 0.6322932487357213 0 0.6513921146908614 0.696027962279586 0 0.6850655162225396 0.7839494735446444 0 0.7167574590368299 0.8593875632815455 0 0.7411878403857273 0.9111467708884256 0 0.7629571282846144 0.9603551013139939 0 0.5477965920955631 0.465629156481675 0 0.3424074074073709 0 0 0.3530143564974504 0.01807327462142218 0 0.3654799235140985 0.05862188367686202 0 0.3896993063157528 0.1097986976376031 0 0.429296177000522 0.2211073487089622 0 0.453522581735453 0.2724333956318644 0 0.486990312602698 0.3598706167532391 0 0.517620133115221 0.4350364087152657 0 0.5358203764069274 0.4623261965773133 0 0.5509109479502063 0.4776405566041918 0 0.5660027013702402 0.492986531309335 0 0.5690900657833819 0.5050310424908291 0 0.5721766924537358 0.5170787603501952 0 0.5752625368124761 0.5291259777733278 0 0.5783477699960651 0.5411758711155972 0 0.593409996095392 0.5565923505684329 0 0.5964994214600279 0.5686620184800317 0 0.5995871205349581 0.5807331360855811 0 0.602672414090947 0.5927841666052649 0 0.605765124917517 0.604841774541888 0 0.6088592687691659 0.6169071687531217 0 0.6270390376673509 0.6443772826660312 0 0.630128529918753 0.656450809175194 0 0.6332165690386345 0.6685207123840706 0 0.6362840393399389 0.6805989002594207 0 0.6393762050034508 0.6926720494435032 0 0.6544843122209741 0.7081041310122209 0 0.6575765711636505 0.7201811661524176 0 0.6606689596187398 0.7322598394169063 0 0.6637640756738648 0.7443395378528391 0 0.666858965157417 0.7564209167740779 0 0.6699542835729773 0.768503631707608 0 0.6881619277336269 0.7960367310958627 0 0.6730499726853983 0.7805881261852383 0 0.6913508659352084 0.8080135109195919 0 0.6947450082807705 0.8201340210074708 0 0.6982372074409866 0.8321740080332958 0 0.7016073979543598 0.8440497249321983 0 0.7047297462231936 0.8560252183020126 0 0.7198564049747669 0.8714841434811265 0 0.7229554935001972 0.8835830794433468 0 0.7260549583410817 0.8956829769278454 0 0.7291816865117937 0.9077735212466209 0 0.7442874968989301 0.9232481279234011 0 0.7473793177509143 0.9353552758866792 0 0.7504800297358304 0.9474605106088894 0 0.7534251726191045 0.9593434902803819 0 0.7624983285257396 0.9787291794801953 0 0.7565277066819394 0.9694485657083938 0 0.7687491893071378 0.9892372393533543 0 0.7750000000001732 1 0 0.3391021550846371 0.009256432877812092 0 0.3414442426688931 0.01906117279402425 0 0.3506804956924597 0.02775324998333551 0 0.3496415636905906 0.04163658660539072 0 0.3537072233407624 0.0549743847148131 0 0.3685910004298527 0.07060011314822962 0 0.3716381991861291 0.08254518041174008 0 0.3747112513104179 0.09451261564134217 0 0.3777805985645669 0.1064871691751419 0 0.3927741598456197 0.1217850566314945 0 0.3958482730868333 0.1337725290107322 0 0.3989261017139596 0.145762016032824 0 0.4020001553464559 0.1577625970021732 0 0.4050745483876408 0.1697838807630868 0 0.4081525962269261 0.1818043104038515 0 0.4112283477167993 0.1937985058591636 0 0.4143031389723257 0.2057865220454475 0 0.4173752692305369 0.2177740772118014 0 0.4323491827051267 0.2331062579344083 0 0.4354207916081668 0.2451037259481778 0 0.4385066988319236 0.2570988900165314 0 0.4415831847086333 0.2690983784938368 0 0.4566010204316822 0.284434838841051 0 0.4596663893100591 0.2964533876523249 0 0.4627366067298835 0.3084680323518535 0 0.4658080281629025 0.3204858046774801 0 0.4688871858628705 0.3324980780093948 0 0.4719652834122413 0.3445120108816927 0 0.4750435566450161 0.3565276449022783 0 0.4900697054350373 0.3718892859046073 0 0.4931486914029444 0.3839105050719369 0 0.4962275176149403 0.3959331621838834 0 0.4993031642274672 0.4079524139096785 0 0.5023641419274975 0.4199564701509728 0 0.5055536327303242 0.4318590677820547 0 0.5208007036363331 0.446985928555673 0 0.5238614340952412 0.4589865608407556 0 0.5540240260205651 0.4896492571582181 0 0.5814399217198311 0.5532238092043041 0 0.6119492595819354 0.628968064752688 0 0.6150438798605141 0.6410237108186855 0 0.6424801277166499 0.7047443590495097 0 0.6761460748340984 0.7926741035145233 0 0.7078300168359714 0.8681180536391795 0 0.7323028060206452 0.9198707800954733 0 0.5389223694189602 0.4743305039404037 0 0.33 0 0 0.3567878979861178 0.06745278533688637 0 0.3808575375162934 0.1184494824108699 0 0.4204351341324884 0.2297634412297304 0 0.444668625299604 0.2810968489805483 0 0.4781209655807929 0.3685456279642786 0 0.5088258152966525 0.4437541968681004 0 0.5269394798008844 0.4710157539476843 0 0.542022333991691 0.4863401167275319 0 0.5571143144141704 0.501680408497634 0 0.5601995899471446 0.5137280334882435 0 0.5632863539902999 0.5257752843204044 0 0.566373317879567 0.5378228604201616 0 0.5694582404746065 0.5498777402693801 0 0.5845220907321347 0.5652903087462307 0 0.5876026049851851 0.5773726416659664 0 0.5906888660538858 0.5894366352099207 0 0.5937781434418896 0.6014947305229118 0 0.5968696948963006 0.6135529676808656 0 0.5999592984227669 0.6256133954132826 0 0.6181335118756094 0.6530941947387335 0 0.6212204285269238 0.6651648024841583 0 0.6242966727266164 0.6772335510025049 0 0.6273738327819068 0.6893125810424783 0 0.6304680621167998 0.7013865034521088 0 0.6455671548011086 0.7168215967349135 0 0.648660248379247 0.7288997386102678 0 0.6517549156245255 0.740979216237359 0 0.6548490407677647 0.7530596908518324 0 0.6579424773846654 0.7651419899674137 0 0.6610362692629024 0.7772260012002136 0 0.6792414460197996 0.8047619010575169 0 0.6641313456588662 0.7893114085403329 0 0.6827278195077989 0.8167026151080432 0 0.6862284274158557 0.828833125303879 0 0.6895850457035773 0.8406266135667669 0 0.6926987887134541 0.852679189892471 0 0.6958018733098729 0.8647597818599031 0 0.7109297391432309 0.8802148496319472 0 0.7140799320887041 0.8923013501004303 0 0.7172014062572845 0.9044111324676554 0 0.7203868531621876 0.9164593365336522 0 0.7354022300338509 0.9320038366670935 0 0.7384673440346124 0.9441162575174469 0 0.7414800217100663 0.956130201242068 0 0.7444238265297822 0.9677648648931897 0 0.75624929441767 0.9891741982982559 0 0.7499986160515848 0.9783494311907729 0 0.7625000000002599 1 0 0.3297692325813477 0.01233909407975554 0 0.3391611059849785 0.0318731256248869 0 0.3439379922961047 0.05252995615082787 0 0.3443959202747991 0.06516031547342409 0 0.3597649191273471 0.07927919818575654 0 0.3628022351902769 0.0912062426917858 0 0.3658707608479236 0.1031817192148706 0 0.3689472120277411 0.1151437172287747 0 0.3839332254627134 0.1304421003230128 0 0.3870045169112863 0.1424270434431464 0 0.3900786835837793 0.1544103779764214 0 0.3931565791517767 0.1664371886093526 0 0.3962325200035542 0.1784561117955317 0 0.3993101635255616 0.1904664249804543 0 0.4023832723578943 0.2024548350594706 0 0.4054564463136526 0.2144425941054913 0 0.4085198329504375 0.2264243174130988 0 0.4234858399282596 0.2417652955989244 0 0.4265505496169665 0.2537836705784942 0 0.4296160558432197 0.2657706191335752 0 0.4327077302348371 0.2777706498527509 0 0.4477286412277197 0.293116182517735 0 0.4507888217891646 0.3051380386586476 0 0.4538638851642004 0.3171497327182696 0 0.4569423849356547 0.3291593258204903 0 0.4600208347118041 0.3411708918729718 0 0.463098602561536 0.353184448520998 0 0.4661765519257434 0.3651989292770927 0 0.4811990381210522 0.3805658717564789 0 0.4842768925640166 0.3925874037554025 0 0.4873551024415238 0.4046094868431988 0 0.4904340747627183 0.4166336020949837 0 0.4935138292294488 0.428658525915594 0 0.4967066310048657 0.4405712311841095 0 0.5118975153670219 0.4556426378659633 0 0.5149812245920583 0.4676762825298877 0 0.5451354490781223 0.4983459565354161 0 0.572538284831505 0.5619502345115432 0 0.603049394675796 0.6376752645539694 0 0.606140145871097 0.6497380802904881 0 0.6335623952371301 0.7134623367814084 0 0.6672538090925231 0.801300730164143 0 0.6989094927113908 0.8768291212959634 0 0.7234787158305507 0.9285860555364931 0 0.5300318310200137 0.4830159362444511 0 0.3290772530756203 0.02466093080571288 0 0.3369934200874863 0.04454555644717657 0 0.3486136544820507 0.07697744186906061 0 0.3720209737288392 0.127119067817576 0 0.4115658700650922 0.2384375762812761 0 0.4357912357443617 0.2897709360962213 0 0.469252481016629 0.3772204464860724 0 0.5000705057605399 0.4524373163475223 0 0.5180604276324497 0.4797062657224208 0 0.5331385037982195 0.4950291269115576 0 0.5482237750855008 0.5103822711056776 0 0.5513104811232517 0.5224242274027955 0 0.5543964582872976 0.5344715154959808 0 0.5574801804117482 0.5465250967241775 0 0.5605586271654179 0.5585980404147561 0 0.5756188890722966 0.574020091031981 0 0.578693477085733 0.586085636844123 0 0.5817809464920338 0.5981439210182566 0 0.5848793115671858 0.6101994894766073 0 0.587968802313092 0.6222589319159013 0 0.591057231004617 0.6343201291680725 0 0.6092261703203566 0.6618012064346583 0 0.6123027194812614 0.6738744700525445 0 0.6153777928059809 0.6859488998525174 0 0.6184675843261266 0.698018851460255 0 0.6215651863207907 0.7100933926731521 0 0.6366525935024661 0.7255400398671739 0 0.6397464196496945 0.737618430652772 0 0.6428400149701141 0.7496984186157165 0 0.6459333341855202 0.761779374494083 0 0.6490248051313553 0.7738629762547917 0 0.652117181812745 0.7859485393928007 0 0.6705395394773023 0.8130260184273661 0 0.6552120614260102 0.7980349963095313 0 0.6741566169960662 0.8252035158346176 0 0.6775496725619227 0.8373078180613149 0 0.6806770874685256 0.8493014093649015 0 0.6837776067008399 0.8613946531926415 0 0.6868762912822663 0.873492178367406 0 0.7020823956113253 0.8889225161476286 0 0.7052555996791057 0.9009935459841584 0 0.7084182607526772 0.9131005001884345 0 0.7116173257370075 0.9251647803041778 0 0.7265271680064125 0.9407053395226819 0 0.7295134449700205 0.9528334813464938 0 0.7330616000584074 0.9643524124148115 0 0.7357801114357201 0.9768732251801567 0 0.7434667505542247 0.9889459930671634 0 0.7500000000003466 1 0 0.3279250292748634 0.03694827702451083 0 0.3347401126245636 0.05694515355767944 0 0.3391326781097668 0.07613194184153961 0 0.3511418703709255 0.08813048953381772 0 0.3540057510277422 0.09984752607080763 0 0.357040286426145 0.1118274156859898 0 0.3601131150826787 0.1237974490682002 0 0.3750938916874084 0.1390994226242579 0 0.3781652326197699 0.1510786964418154 0 0.3812375096228882 0.1630572641463181 0 0.3843160333450676 0.1750982157612048 0 0.3873937722765907 0.1871336004939261 0 0.390468109453375 0.1991264733728168 0 0.3935412937777925 0.2111120877203451 0 0.3966138139458483 0.223099016911115 0 0.3996606348142179 0.2350890725317042 0 0.4145997220039799 0.2504607277903761 0 0.4176733145985671 0.2624792842473812 0 0.420759083809465 0.2744600983583223 0 0.4238363662678185 0.2864537369045777 0 0.4388573266350138 0.3017927689069216 0 0.4419262815496573 0.313810646199849 0 0.4450022534167016 0.325819741553637 0 0.4480789933798506 0.3378298255341863 0 0.4511552168007545 0.3498420133425985 0 0.4542324922784258 0.3618555392732401 0 0.4573082500092121 0.3738689269678251 0 0.4723276285776901 0.3892424938965996 0 0.475404244573613 0.4012646498656363 0 0.4784815699842146 0.4132877871907571 0 0.4815598851339933 0.4253117602839739 0 0.4846834850746258 0.4372538740230792 0 0.4878151111552855 0.4491205270758843 0 0.5030408968755412 0.4643545057629209 0 0.5061014262789245 0.4763654146228163 0 0.5362472492812678 0.5070402004398722 0 0.5636386241942765 0.5706678706331049 0 0.5941470555674874 0.6463826350839073 0 0.5972372474337703 0.658446597012757 0 0.6246532700504484 0.722178090920315 0 0.6583078563278668 0.8101221172804298 0 0.6900847674640019 0.8855581085661349 0 0.7146359120232006 0.9373122600958814 0 0.5211442293835985 0.4917142265053102 0 0.3263141726758155 0.04918394769534178 0 0.3324463734830939 0.0692064234065064 0 0.3404340567607074 0.08604007605569897 0 0.3631857240264101 0.1357711502838061 0 0.4026940565611696 0.2471226031238224 0 0.4269198451359659 0.2984380391554677 0 0.4603804076740093 0.3858966756427599 0 0.4910742977532628 0.4610611484328986 0 0.5091828411742236 0.4883977091510438 0 0.5242499300346243 0.5037183250167645 0 0.539335566669048 0.5190748002701042 0 0.5424211332456901 0.531120325789957 0 0.5454977743542346 0.5431886946413057 0 0.5485797907259351 0.5552475258396616 0 0.5516566423544368 0.5673197745106702 0 0.5667092709069135 0.5827280915605787 0 0.5697885667659066 0.5947857297328387 0 0.5728736735413154 0.6068503595872566 0 0.5759627145925087 0.618909344197427 0 0.5790556527479525 0.63096801573745 0 0.5821539972493974 0.6430271135603707 0 0.6003148773922493 0.6705093986714337 0 0.6033803751154417 0.6825889618699952 0 0.6064754531248452 0.6946499427079487 0 0.6095753188725967 0.7067222774282771 0 0.6126686762039535 0.7187924993580579 0 0.6277391597038389 0.7342574646844301 0 0.6308317704147721 0.7463369100652166 0 0.6339245860118711 0.7584173163651721 0 0.6370193539584009 0.770497537772211 0 0.6401028425103188 0.7825853771542515 0 0.6431970794137347 0.794672013124526 0 0.6623549441074268 0.821828810732066 0 0.6462839816670629 0.8067506205252798 0 0.6655595126316678 0.8338707591350143 0 0.6686536414965966 0.8459382618735375 0 0.6717527834700773 0.8580313877466514 0 0.6748563897593921 0.8701182534980567 0 0.6780235548920641 0.8821098830422126 0 0.6932660659505292 0.8976392652209022 0 0.6964537023490311 0.9097568979266051 0 0.6995946773314473 0.9218173079143595 0 0.7027057738748355 0.9338906743309261 0 0.7176550593638986 0.9494047980899588 0 0.721289630054569 0.9608074875709433 0 0.7252687991509001 0.9701828939335684 0 0.7312724814195943 0.9892791037337949 0 0.7375000000004333 1 0 0.3242469361989218 0.06135083019497236 0 0.330145321509354 0.08114027142905396 0 0.3424437603776375 0.09687541265547028 0 0.3453658800291188 0.1084448389245693 0 0.3482100801073006 0.1204726931057319 0 0.3512811340653957 0.1324432944931528 0 0.366255521880097 0.1477488047518227 0 0.3693270902193879 0.1597257429711464 0 0.3723952280170943 0.1717018103152671 0 0.3754759406909745 0.1837551393635876 0 0.3785535467723584 0.1957834307331197 0 0.3816270147182911 0.2077829188194186 0 0.3846991058776932 0.2197666880537582 0 0.3877674590855296 0.2317464462776781 0 0.3908099429147869 0.2437560619649555 0 0.4057468654978794 0.2591623724266308 0 0.4088202023941752 0.2711528823547601 0 0.4119008335181727 0.283133417656889 0 0.4149806374518366 0.2951288945511759 0 0.4299923676144338 0.3104663037075857 0 0.4330649371289366 0.3224801738539191 0 0.436140358626696 0.3344882595651619 0 0.4392241338953098 0.3464579811882299 0 0.4422977861779243 0.3584448371395991 0 0.4453724242498263 0.3704896312504036 0 0.4484425345528041 0.3825584144166574 0 0.463455047492601 0.3979187924443052 0 0.4665314967409673 0.4099409179802759 0 0.4696072978030338 0.4219656085133128 0 0.4726852167808046 0.4339895175892392 0 0.4758500068018357 0.4458865307670417 0 0.4790133013057846 0.4577662257102909 0 0.4941431903842598 0.4730232718516834 0 0.4972200743065883 0.4850543582858585 0 0.5273590127415778 0.5157324354842702 0 0.5547376408097194 0.5793744216465888 0 0.5852439494235604 0.6550901576276694 0 0.5883312734408537 0.6671526195323976 0 0.6157566398118122 0.7308802662814871 0 0.6494439884889849 0.8187711585030554 0 0.6812667712634984 0.894240590382038 0 0.7057966860032023 0.9459980193341364 0 0.7232614897223681 0.9796680690602246 0 0.5122589101216606 0.5004055582400874 0 0.3217262110693824 0.07343190798923309 0 0.3291143264907833 0.09396084762978038 0 0.3543106052824644 0.1444075085351686 0 0.3938320369233761 0.2558185194243382 0 0.4180558772053434 0.307134251569851 0 0.4515079424267666 0.3945735663980306 0 0.4822023829334546 0.4697180942982913 0 0.5002978003274845 0.4970832777919914 0 0.5153697743824566 0.512413317399405 0 0.53044706080154 0.5277703197585415 0 0.5335173437855627 0.5398351983887861 0 0.5365998996967343 0.5519050982442388 0 0.5396767498411034 0.563975811015051 0 0.5427482455554282 0.5760310093838534 0 0.5577952682884489 0.5914381108915374 0 0.5608654344340513 0.603500007546995 0 0.5639558978339375 0.6155608117588039 0 0.5670406986986991 0.6276200084472849 0 0.5701620703018827 0.639669775175381 0 0.5732499718102368 0.6517344394737494 0 0.5914086240238128 0.6792123967092378 0 0.5944933981905078 0.6912867014196205 0 0.5975859737974945 0.703355451779773 0 0.6006890394623701 0.7154235265904769 0 0.6037789919364462 0.7275028382766866 0 0.6188432180089065 0.7429603402412251 0 0.6219214275929958 0.7550510177386577 0 0.6250184780239436 0.7671287039398803 0 0.6281120778873961 0.7792114784250879 0 0.6311843834676671 0.791307836098374 0 0.6342751987231182 0.8033944582025574 0 0.6535337701950328 0.830482046010364 0 0.6373620505967625 0.8154734613617342 0 0.6566411214678587 0.8425907143016724 0 0.6597317898973096 0.8546734058892534 0 0.6628280725173029 0.8667601391964113 0 0.6659953258020395 0.8787870542619314 0 0.6692854528853943 0.8908595733701059 0 0.6844531593362142 0.9063639323188495 0 0.6875691731875053 0.9184294150919509 0 0.6906727611560718 0.9305268145706809 0 0.693775972726591 0.9426297092867735 0 0.7089148660639474 0.9580980312451673 0 0.7136968569570469 0.9707333413496139 0 0.7188863259463589 0.9898010745406014 0 0.7250000000005199 1 0 0.3187555227402138 0.08541028464191575 0 0.3341401190345464 0.1059052011747071 0 0.3370560060155257 0.1172697018033105 0 0.3393805131561312 0.1291170338185572 0 0.3424501907953113 0.1410850486565531 0 0.357420982798069 0.1563922802668488 0 0.3604899219845272 0.1683703404678804 0 0.3635571023187368 0.1803442759718614 0 0.3666410642331699 0.1924472040705097 0 0.3697153792617497 0.2044552482784592 0 0.3727869951556753 0.2164355972969143 0 0.375857590040075 0.2284173195909647 0 0.3789268923441889 0.2403986889058897 0 0.3819684971549769 0.2524077021782564 0 0.39690376730348 0.2678207077357919 0 0.3999721190892712 0.2798156301051369 0 0.4030476140087386 0.2918092918897813 0 0.4061232885749805 0.3038046301304891 0 0.4211299380316861 0.3191419425595061 0 0.4242048745762401 0.3311467955909257 0 0.4272916285491669 0.3430976383790909 0 0.4303780516746814 0.3550518245514148 0 0.4334713454352954 0.3670869102474979 0 0.4365276712912848 0.379213617592047 0 0.4395675660285129 0.3912329133790178 0 0.4545873889987807 0.4065720606614205 0 0.4576571157500466 0.4186184726593345 0 0.4607335604568844 0.430642302932042 0 0.4638106738595427 0.4426666632483747 0 0.4670128052782213 0.4544754913105876 0 0.4702113177137164 0.4663792332725686 0 0.4852600209260824 0.4817071579249208 0 0.4883274345290181 0.4937446172323321 0 0.5184549172659745 0.5244542753309254 0 0.5458048285653867 0.5880869339476225 0 0.5763395235633209 0.6637982099546049 0 0.5794268518637949 0.6758611980349946 0 0.6068713846789595 0.7395821902959435 0 0.6404680126333067 0.8275718785174132 0 0.6724366860638318 0.9029690082478961 0 0.6968794398100376 0.9547336255359123 0 0.7131023657589253 0.9815254945492728 0 0.5033876138148264 0.5091153643284362 0 0.3153390259927304 0.09726920728553373 0 0.3224588761022434 0.1065029717472393 0 0.3452700781295036 0.1530044727588284 0 0.3850074096286105 0.2644428571089307 0 0.4091974394841162 0.3158050845906856 0 0.4426483978332956 0.4032136022006174 0 0.473300584983408 0.4783634041548712 0 0.4913935287792656 0.5057822944935365 0 0.5064766221825586 0.5211436037226478 0 0.521538758228467 0.5365071374316025 0 0.5246164420936483 0.5485612441555603 0 0.5277072054392971 0.5606127074783448 0 0.5307704784695169 0.5726715707679495 0 0.5338348211425438 0.5847265260312604 0 0.5488658682487162 0.6001534809146015 0 0.5519541049076979 0.6122115728188439 0 0.5550426624787932 0.6242689301479019 0 0.5581319968306124 0.6363270919756326 0 0.561255160324021 0.6483801704663519 0 0.5643451513266939 0.6604423906862601 0 0.5825145195875877 0.6879260040017383 0 0.5856147748248262 0.6999951935718971 0 0.5887119882606038 0.7120633512831289 0 0.5918086012234043 0.7241327590565765 0 0.5948928307290126 0.7362090455904871 0 0.6099622244617193 0.7516621609056219 0 0.6130513410414525 0.7637457405962964 0 0.6161420855174883 0.7758295289699739 0 0.6192080989190257 0.7879208041815569 0 0.6222778113193526 0.8000241870957739 0 0.6254273370295308 0.8120697074761081 0 0.6446592014369503 0.8392648569141081 0 0.628531164344184 0.8241537967202858 0 0.6477129214120467 0.851318359026678 0 0.6508021990199762 0.8634015731905711 0 0.6539097589930927 0.8754672900548705 0 0.6571545419575362 0.8875212020748734 0 0.660366465833839 0.8995900806971778 0 0.6755364037145358 0.9150683760669613 0 0.6786397069742277 0.9271650722786201 0 0.6817425266613411 0.9392655894827087 0 0.6848456601418695 0.9513687976845757 0 0.6999717921059283 0.967059533655755 0 0.7028522074612754 0.9790610262711574 0 0.7125000000006066 1 0 0.7063837688746635 0.9905703456780579 0 0.3274639983488057 0.1148949988978074 0 0.3274823605468894 0.1257939046692419 0 0.3309952989497027 0.1374095680439225 0 0.3335600344055476 0.1489136593189562 0 0.3485861031739749 0.165038879214476 0 0.3516546055895731 0.1770144247367055 0 0.3547226097687602 0.1889876826283939 0 0.3578051891464001 0.2011112288608403 0 0.3608803888193675 0.213091850015917 0 0.3639515136347382 0.2250625823602743 0 0.3670155475396844 0.2370665783068605 0 0.3700820733642711 0.2490437161330664 0 0.3731223961458315 0.2610627197979991 0 0.388054448122889 0.2764749364683176 0 0.3911225352911243 0.2884748655286568 0 0.3941961710078239 0.3004685347403525 0 0.397268476461701 0.3124663762432775 0 0.4122716272012281 0.3278076100222459 0 0.4153488388842578 0.3397934347387868 0 0.4184595515713749 0.351702833190879 0 0.4215706921100806 0.3636541177507095 0 0.4246814471079757 0.3756674332008137 0 0.4276817909142804 0.3877957194828598 0 0.4307174376364362 0.3997842998747703 0 0.4457243337490068 0.4151670122859593 0 0.4487857370708108 0.4272005868951996 0 0.4518695249357141 0.4392089653538452 0 0.455001846440367 0.4511015870266732 0 0.4581896855480815 0.4630527078385762 0 0.461341112571987 0.4750224618962954 0 0.4763732189586217 0.4903929537108701 0 0.4794294109813291 0.5024274370275205 0 0.5095539233600993 0.5331905254597273 0 0.5368860627204896 0.5968011311745302 0 0.567434494743572 0.6725070339646431 0 0.5705248193324293 0.6845732728717079 0 0.5980044812456847 0.7482832014912503 0 0.6317014439365881 0.8362544654797757 0 0.6635078940705579 0.9116999472280354 0 0.687948353692427 0.9634735055088484 0 0.4944883854693264 0.5178147196788915 0 0.3114814991107633 0.1089920901336953 0 0.3185620961135634 0.1180648664065823 0 0.3352512797338772 0.1621838526600103 0 0.3761633121211096 0.2730725570488813 0 0.4003421133699204 0.3244621757465612 0 0.4338116448790309 0.4117350243181915 0 0.4644171341764317 0.487044048319929 0 0.482495680921994 0.5144743804046821 0 0.4975887449006682 0.5298476562812855 0 0.5126428620639776 0.5452312614960746 0 0.5157330869631378 0.5572659776243085 0 0.51881045392727 0.5693173750427267 0 0.5218745779014966 0.5813657342923184 0 0.524928392855581 0.5934283621429248 0 0.5399677149742089 0.6088586734653174 0 0.5430560045241011 0.6209153843707829 0 0.5461447932143306 0.6329729232123651 0 0.5492336546051271 0.6450307142846741 0 0.5523523254422941 0.6570847889174219 0 0.5554393917130159 0.6691514133264632 0 0.573615495561587 0.6966398697937888 0 0.5767144404257728 0.7087069669298132 0 0.5798118425181125 0.720775784659317 0 0.5829047896024778 0.7328499540821591 0 0.5859985552380491 0.7449250491525846 0 0.6010901278422527 0.7603626370250114 0 0.6041737028103158 0.7724403949986341 0 0.6072431156324617 0.784487247493201 0 0.6103703432173725 0.7965136698095715 0 0.6136150826945117 0.8086276034149515 0 0.6168245275211337 0.8206405639532233 0 0.6357297270075494 0.8479953319807304 0 0.6200525019013807 0.8327857402538061 0 0.6387836482979108 0.8600662879686688 0 0.6418851121585656 0.8721132851653449 0 0.6450854953043073 0.8841659876113446 0 0.6482847529265451 0.8962572264538103 0 0.6514787354145078 0.9083324519934083 0 0.6666079494299846 0.9237988222564828 0 0.6697094276959283 0.9359014162029367 0 0.6728124258461423 0.9480043134421622 0 0.6760396993953607 0.9598602306071156 0 0.6908498100705792 0.9760896278414755 0 0.6930268299580675 0.9892014876286583 0 0.7000000000006934 1 0 0.3214975241585912 0.1358333380109893 0 0.3233494825757878 0.14552187452021 0 0.3262867082794509 0.1560276675920239 0 0.3400768720195111 0.1740180128128264 0 0.3428747819529583 0.1857130421017813 0 0.3458924526478058 0.1976510394216512 0 0.348965335277913 0.209747558062266 0 0.3520589267811984 0.2216760302391095 0 0.355109633472429 0.2336881187118804 0 0.3581707286493343 0.2457114191592065 0 0.3612374974665873 0.2576873873526739 0 0.3642778782640549 0.2696926125496712 0 0.3792040822813506 0.2850885279737485 0 0.3822753180985394 0.2970852580302629 0 0.3853476299937338 0.3090610372978586 0 0.3884171357802941 0.3210719784723356 0 0.4034203629783447 0.3364415328810839 0 0.4065207857256788 0.3483687400772761 0 0.4096313379881097 0.3603118996951352 0 0.4127958550667404 0.3722594081799918 0 0.415878186892859 0.3842475632532156 0 0.4188335199246332 0.3963241993988411 0 0.421884564068084 0.4083243105992949 0 0.4368641901570149 0.4236920915565499 0 0.4399439335523936 0.4357001808473853 0 0.4430345238361785 0.4477087255492906 0 0.4462395575629283 0.459688341218145 0 0.4493878178638589 0.4716779545253472 0 0.4524475689555226 0.483708442405356 0 0.4674574058384757 0.4990869634106458 0 0.4705094927196543 0.5111265172719119 0 0.500672791713029 0.541887613466621 0 0.5279917371428254 0.6055034101895256 0 0.5585297967094661 0.681216850455728 0 0.561620258189958 0.6932837191353356 0 0.5890924411803101 0.7570016733379586 0 0.6234588398498344 0.8450058319961575 0 0.6545767290471367 0.920435536796959 0 0.6794254627177994 0.9719371113311946 0 0.4856124788168165 0.5265035004932228 0 0.3071883371853999 0.1205625377025096 0 0.3145893475119182 0.1289304509525569 0 0.3228746167247789 0.1650747917797789 0 0.3295915632006078 0.1721859186597824 0 0.367302122175386 0.2816793015183769 0 0.3914918467375529 0.3330585705813778 0 0.425011303109161 0.4203121035298697 0 0.4554836720602387 0.4957411112533295 0 0.4735931153697223 0.5231695042610816 0 0.4886922060670432 0.5385450203517261 0 0.5037566902099095 0.5539303127203965 0 0.5068408269174555 0.5659724939978115 0 0.5099231331582135 0.5780165446866183 0 0.5129818306323972 0.5900697407327868 0 0.5160360663841385 0.6021331862611103 0 0.5310703959968015 0.6175611119567297 0 0.534157730897479 0.6296189331544391 0 0.5372466860368157 0.6416770096858122 0 0.5403363529185804 0.6537361935384606 0 0.5434413529304308 0.665796475226047 0 0.5465332291256393 0.6778609407086797 0 0.5647115027147622 0.7053513943907069 0 0.5678085890916532 0.7174193935164483 0 0.5709021381686489 0.7294913694624912 0 0.573994379537918 0.7415661386047037 0 0.5770866904348058 0.7536422348625386 0 0.5921869697100139 0.7690798874257255 0 0.5952737573439684 0.7811546051855842 0 0.5983622866080407 0.7931652971390248 0 0.6017136645674988 0.8052632681267489 0 0.6049925069990651 0.817254371272981 0 0.6082912960343645 0.8293026754797552 0 0.6267344153783232 0.8567927592947191 0 0.6115077397221801 0.8413571078936395 0 0.6298548562754209 0.8687683550922635 0 0.6330587006678019 0.8808385302911312 0 0.636248520158608 0.8929033768693354 0 0.6394378663852548 0.9049967382887165 0 0.6425438416204776 0.9170716245835343 0 0.6576770899285543 0.9325372818342165 0 0.6607796093946523 0.9446398620632992 0 0.6639307976057387 0.95657000051901 0 0.6679803054883763 0.9686725809970063 0 0.6812153997724353 0.9832878687856549 0 0.68750000000078 1 0 0.3110711312086579 0.1415108918690154 0 0.3160044066775127 0.1542570466910611 0 0.3309193269580434 0.1823302775459761 0 0.3339970053423458 0.1943088823244351 0 0.3370428570331197 0.206281314253276 0 0.3400818754298065 0.2182618141152762 0 0.3431929167525015 0.2302348689271062 0 0.3462404351213107 0.2423147074290558 0 0.3493051846794564 0.2543317807946306 0 0.352399577085763 0.266335686893113 0 0.3554541162935296 0.2783217355373326 0 0.3703797136731631 0.2936709701370905 0 0.3734436059279738 0.3056507639974481 0 0.3765293271816766 0.3176485798865966 0 0.3796015274047327 0.3296412070358052 0 0.3945888766851658 0.3449924069819444 0 0.3977097835634723 0.3569640927302177 0 0.4008288065703551 0.3689350480827989 0 0.4039414555417241 0.3809092163617216 0 0.406986230793188 0.392922720410903 0 0.4100767810471402 0.4049279597704086 0 0.4131279812010015 0.4169449607471871 0 0.4281689524103663 0.4322931648485311 0 0.4312751158808098 0.4443006256514322 0 0.4343044127816745 0.4563329053521462 0 0.4374358843467246 0.4683349613984665 0 0.4405028532582459 0.4803561916586072 0 0.443521844633832 0.4923933182748002 0 0.4585315061345791 0.507789712880314 0 0.4616171856561846 0.519823682647544 0 0.4917759969270826 0.5505823136685141 0 0.5190960887950177 0.6142039163046196 0 0.5496244114669224 0.6899268340025035 0 0.5527151796627927 0.7019944569944676 0 0.5801796109718438 0.7657193156807808 0 0.614709495882842 0.8534039256521602 0 0.6456448638187378 0.9291730928860772 0 0.6724032072233621 0.9794295958440626 0 0.6813073679283443 0.9930080947649643 0 0.4767227366778665 0.5352050583647118 0 0.3024655446074751 0.1319643676349927 0 0.3184231737716178 0.1769942609694455 0 0.3104912237190167 0.1649782148076733 0 0.3585524886543511 0.2903024266357398 0 0.3826606618395849 0.3416212301203168 0 0.4162413365781262 0.4289476722741122 0 0.4465703964673791 0.5044412902830204 0 0.4647106715864293 0.5318591536484948 0 0.4797863357159695 0.5472421129000803 0 0.494861759997087 0.5626231769435812 0 0.4979486499227879 0.5746672485532383 0 0.5010302646833584 0.5867090237997065 0 0.5040831713707351 0.5987595981983431 0 0.5071351775082737 0.6108340899984622 0 0.5221717520497505 0.6262628264181268 0 0.5252591764109441 0.63832192234692 0 0.5283483597806199 0.6503817683762328 0 0.5314424269642725 0.6624426463062498 0 0.5345363329897499 0.6745049044559004 0 0.537628678133164 0.68656981970396 0 0.5558074535821089 0.7140629782702266 0 0.5589001376179623 0.7261335978871301 0 0.5619919514769414 0.7382068519353773 0 0.5650837565423027 0.7502814171667558 0 0.5681729568159797 0.7623589599310383 0 0.5832721350185053 0.7777996411597312 0 0.5863651233843384 0.7898797088483283 0 0.5896448842174774 0.8017987504918997 0 0.5930087971908968 0.8138643633835065 0 0.5964522105375974 0.825914341016167 0 0.5995954675252364 0.8378818116210668 0 0.6178365718831567 0.8653929249324728 0 0.6027153227708453 0.8499469129198955 0 0.6210097319158996 0.8774373534950516 0 0.6242204810331541 0.8895240430132372 0 0.6274038246345857 0.9016377355577732 0 0.6305118252542883 0.9137082596793622 0 0.6336127185984706 0.9258090601094855 0 0.6487471655824523 0.9412752566997886 0 0.6518578263508845 0.9533497343044554 0 0.6552319774481909 0.9675699887799791 0 0.6625000000018206 0.9783496902686156 0 0.6702948582375411 0.9892929631066577 0 0.6750000000008667 1 0 0.304079916822719 0.1535066673643858 0 0.2973197266072447 0.1431816334946395 0 0.3216936668564883 0.1904297016589086 0 0.325092325606151 0.2028515201972149 0 0.3282009407433359 0.2148980007536148 0 0.3312834840181862 0.2268808039216166 0 0.3343309144135814 0.2388764980310106 0 0.337366194215775 0.2509062291068975 0 0.3404715823611588 0.2629796060715646 0 0.3435659490641605 0.2749871706504254 0 0.3466211845650947 0.2869744633994794 0 0.3616228994800473 0.3022850319796727 0 0.3646995429220107 0.3142690025950144 0 0.3677712373278901 0.3262571806167244 0 0.3708490739307623 0.3382467076075619 0 0.3857823291679395 0.3535990255024333 0 0.3889065652435845 0.3655774360417184 0 0.3920038468267824 0.3775733682484617 0 0.3950832558280518 0.3895691857423003 0 0.3981581225157489 0.4015827315306801 0 0.4011819746089182 0.4136057253941687 0 0.4042448132809147 0.4256205655916919 0 0.4193178375534907 0.4409624310106383 0 0.4223964938198148 0.45297861402252 0 0.425485731531896 0.4649938336302364 0 0.4285590849883303 0.4770064407306125 0 0.4316067632409084 0.4890184360591021 0 0.4346428906041435 0.5010666480524248 0 0.4496453554100623 0.516476668435915 0 0.4527325381156491 0.5285111861350671 0 0.482880864252837 0.559276062239128 0 0.5101979361064738 0.6229050759575976 0 0.5407189278062916 0.6986368760878547 0 0.5438088480968751 0.7107054870126167 0 0.5712643784359831 0.7744383216690607 0 0.6058190646881292 0.862017324999133 0 0.6367148920927919 0.9379105905097296 0 0.4678084493951016 0.5438949423510446 0 0.3039213344860019 0.176113232277474 0 0.2981274775881384 0.1647692321046201 0 0.3092642110587823 0.1876834912910875 0 0.3496855141542227 0.2989579851004971 0 0.3738901453347128 0.3502504876453228 0 0.4073274938365748 0.4376323719695752 0 0.4376940460805578 0.5131258131946579 0 0.4558174092832511 0.5405477269153083 0 0.4708989581016302 0.5559297448078746 0 0.4859675317524497 0.5713106304823993 0 0.4890579050400823 0.5833612770142432 0 0.4921385483575552 0.5954032792199234 0 0.4951969526565917 0.6074511217367859 0 0.498259508337251 0.619516598027942 0 0.5132757140391602 0.6349668116362157 0 0.5163602242399044 0.6470266522923336 0 0.5194503835095748 0.659087342470099 0 0.5225417796566796 0.6711491937707601 0 0.525633669256341 0.683213211855307 0 0.5287236361703214 0.6952789082510562 0 0.546899105823448 0.7227758631777053 0 0.5499908002721261 0.7348476600081081 0 0.5530825578381662 0.7469212466278412 0 0.5561740934162942 0.7589963557583348 0 0.5592667902551143 0.7710711691503468 0 0.5743563816319637 0.7865189616135729 0 0.5774503452469542 0.7986011561728018 0 0.5807716771838703 0.8105459794036809 0 0.5843877535988999 0.8224603053348314 0 0.5875722803765041 0.8345331666861677 0 0.5906948251801788 0.8465880848620518 0 0.6089905449719664 0.8740655136934372 0 0.5937979795630502 0.858658182891233 0 0.6121629870253895 0.8861535211371543 0 0.6153723963827689 0.8982546122449865 0 0.6184777102350887 0.9103502474876595 0 0.6215810281250068 0.9224461863955151 0 0.624682859846748 0.9345462294845956 0 0.63981715885743 0.9500134199534502 0 0.6429196508439704 0.9621171782704769 0 0.6529521297958623 0.9798537814097397 0 0.6562500813569366 0.9891747294236456 0 0.6625000000009533 1 0 0.2917580800888471 0.1541986468905285 0 0.3133428591569191 0.1996724184216248 0 0.3163296289587453 0.2115753189862823 0 0.3193996714288596 0.2235513472935627 0 0.3224597970490151 0.2355315682871572 0 0.3255101815555154 0.2475388256290202 0 0.3285810379246979 0.2596391784938289 0 0.3316649232284054 0.2716619514284795 0 0.334620476059191 0.2836614979568347 0 0.3376666316745686 0.2956475261033029 0 0.3527792221444298 0.3109369068324869 0 0.3558522749498207 0.3229237431790605 0 0.3589254252976331 0.3349131399208736 0 0.3619986601592669 0.346905207918564 0 0.3770007732931696 0.3622354476736901 0 0.3800760872820662 0.3742346121747963 0 0.3831444817601185 0.3862240319093027 0 0.3861958590961803 0.3982133377155164 0 0.389242334505925 0.4102459991917611 0 0.3921809478592875 0.4222899940455229 0 0.3952806965277381 0.4343003335439103 0 0.4104050620251696 0.4496477267977432 0 0.4135282217825854 0.4616533801987759 0 0.4166153536308248 0.4736704945139896 0 0.4196959074554767 0.4856910504446834 0 0.42273187329248 0.4977004014328835 0 0.4257818739507512 0.5097589602282799 0 0.4407648528688544 0.5251632863800774 0 0.4438506453602303 0.537199871831378 0 0.4739919539462928 0.5679659061888789 0 0.5013262793377322 0.6315915959899239 0 0.5318236225645843 0.7073439821869736 0 0.5349080513435911 0.7194151544808693 0 0.5623544981558649 0.7831536514180347 0 0.596946117461628 0.8707023149168535 0 0.6277849391169542 0.9466481765063954 0 0.6448685935480942 0.974557391740325 0 0.4589131523390027 0.5525831181671196 0 0.2916691790705997 0.1762105552680303 0 0.2969550259185637 0.1867160549049434 0 0.2857883835103762 0.164999999547049 0 0.3015918288762169 0.1971872483692204 0 0.3408351814933948 0.3076103757742504 0 0.3650726733255839 0.3588998024758161 0 0.3983583606841696 0.4463113742963324 0 0.4288128241041318 0.5218133953028217 0 0.4469356596480483 0.5492371154319746 0 0.46201884130975 0.5646144600650751 0 0.4770785920432998 0.5800099861521445 0 0.48016706642081 0.5920571210068296 0 0.4832474720128953 0.6040994501924187 0 0.4863170122302434 0.6161470179558436 0 0.489383281833239 0.6282176746062952 0 0.5043833603822622 0.6436693325557318 0 0.5074609888697921 0.6557324144195611 0 0.5105530123250315 0.6677925403719225 0 0.5136398235756596 0.6798565660373266 0 0.516729293717305 0.6919212910475261 0 0.5198285846321343 0.7039822740597432 0 0.5379897849632697 0.7314887262019233 0 0.5410815349944582 0.743561699509931 0 0.5441732240212687 0.7556355663877019 0 0.5472652750249341 0.7677097752863254 0 0.5503563871733075 0.7797901181094293 0 0.5654421994666998 0.7952390311844231 0 0.5685558084559792 0.8072449894492634 0 0.5720812503371464 0.8191918232355305 0 0.5754727129728608 0.8311372100005789 0 0.578675324980404 0.8432263344484624 0 0.5817729965335052 0.855316991196042 0 0.6001350587447218 0.8827953867462416 0 0.5849066121260458 0.8673505392954128 0 0.603317752305338 0.8948929031452152 0 0.6064382091469972 0.9069839088657433 0 0.6095496596808817 0.9190813233542815 0 0.6126513951345635 0.9311819982577069 0 0.6157534454150133 0.943283092216711 0 0.6308864738268218 0.9587516006633099 0 0.6340471249807926 0.9703909001741656 0 0.6443771280349297 0.9877715558425544 0 0.6500000000010401 1 0 0.3046047180165135 0.2084268259242477 0 0.3075262680570052 0.2202477707185583 0 0.3105629837717654 0.2321876262637257 0 0.3136279944012644 0.2443423429218734 0 0.3166936145614586 0.2562973634138453 0 0.3197622467548167 0.2683193330139041 0 0.322748532931327 0.2803207118672303 0 0.3253693714027908 0.2923979382736047 0 0.3288194597112252 0.3043081866634398 0 0.343930815125579 0.3195901754221424 0 0.3470036000344849 0.3315785248456871 0 0.3500741211569667 0.3435698319055018 0 0.3531470159342914 0.355563187306399 0 0.3681472686849624 0.3708969208629994 0 0.3712126857958183 0.3828862534630553 0 0.3742818829758454 0.3948382615244693 0 0.3772972529936673 0.4068041994512772 0 0.380286514046774 0.4188398213742788 0 0.3832172040493702 0.4309380661455098 0 0.3862882862025777 0.4429658425170797 0 0.4014522850572598 0.4583317530129512 0 0.4046705329374644 0.4703248446720599 0 0.407744853963672 0.4823465243910686 0 0.410815920601191 0.494361828578199 0 0.4138480413834523 0.5063868124183182 0 0.4168813241412911 0.5184472399105862 0 0.4318832640125678 0.5338527424353761 0 0.4349695086893376 0.5458892459904251 0 0.4651016566720193 0.5766607607932116 0 0.4924464214830847 0.6402797280083987 0 0.5229636462415381 0.7160408427089044 0 0.5260386215883635 0.7281168253411884 0 0.5534449415781216 0.7918735142283521 0 0.5881094526591836 0.8794293541414855 0 0.6197521451354049 0.9554938851679247 0 0.6361589229862231 0.9802674819396592 0 0.4500205315851653 0.5612746743996635 0 0.2794189860412988 0.1755705847790355 0 0.2838596616945015 0.1880552963649648 0 0.2913291558625522 0.1954365340868528 0 0.2929340619183453 0.2054594997823743 0 0.3318523518437375 0.3163483164342791 0 0.3562202587947774 0.3675590802724614 0 0.3893963404556976 0.4549902179367346 0 0.4199342462712474 0.5305024130226758 0 0.4380531523678973 0.5579273744597314 0 0.4531255066844328 0.5733131103502336 0 0.4681882695388325 0.5887061575441657 0 0.4712753620895838 0.6007532752371544 0 0.4743619530274639 0.6128025433029293 0 0.4774338440760269 0.6248461245626626 0 0.4805099764744452 0.6369022565353044 0 0.4955005279039404 0.6523595930107979 0 0.4985590109484288 0.6644375846072926 0 0.5016672431165238 0.676492264306408 0 0.5047788663496131 0.6885352415204242 0 0.5078725388111174 0.7005964488115288 0 0.5110103643140746 0.7126601588346394 0 0.5290795557853449 0.7402023853733299 0 0.5321715942025848 0.7522762865945111 0 0.5352643789174637 0.764351319268566 0 0.5383560197859623 0.7764265655345347 0 0.5414507982398487 0.7885060330389831 0 0.5565936879909633 0.8039055050285111 0 0.5599816807472366 0.8158742258023588 0 0.5633178690640316 0.82788822942247 0 0.5666605279869745 0.8398912236769343 0 0.5697547391094975 0.8519607093394842 0 0.5728541414043871 0.8640340332698607 0 0.5912834980448256 0.8915287134433048 0 0.5760444758243978 0.8760723515845951 0 0.5944078636038961 0.9036220677766273 0 0.5975156122844059 0.9157192739876161 0 0.6006201077425426 0.9278179095016483 0 0.6037227168313347 0.9399182835804651 0 0.6074340256211184 0.9537354350891126 0 0.622563029851373 0.9674916433105568 0 0.6262520244497548 0.9789321089637767 0 0.6375000000011268 1 0 0.6312497439175444 0.9896854529774735 0 0.295635189309949 0.2169257704175521 0 0.2986661036722547 0.2288565067539861 0 0.3017630176107084 0.2409019421476272 0 0.3048045807024909 0.2529930516438779 0 0.3078630494683249 0.2649938853270086 0 0.3109274506949464 0.2769716255031967 0 0.3133141186269759 0.289098620266998 0 0.3164916301580194 0.3010694757145472 0 0.319868782766437 0.3130604813616448 0 0.3349915862781873 0.3283186358557664 0 0.3381480323204632 0.3402615019009015 0 0.3412208863485181 0.3522286911316996 0 0.344294090019961 0.364221573332599 0 0.3592918806335956 0.3795547486644316 0 0.3623626077018515 0.3915174493156406 0 0.3653820729212336 0.4035197283230544 0 0.3684145662820212 0.4154864850692202 0 0.3714479648715137 0.4274775642594235 0 0.3743898322389602 0.4395579476481327 0 0.377374853417001 0.4516402458049913 0 0.3925154967745745 0.4670049852833946 0 0.3957928856509966 0.4790008957419657 0 0.3988696692947852 0.4910233140948951 0 0.4019402865443409 0.5030387565484349 0 0.4049776658874397 0.5150628173082898 0 0.4080118204709108 0.5271261203990467 0 0.423004060142439 0.5425413141622092 0 0.4260856679751768 0.5545784832796334 0 0.4562118378692953 0.5853565877862286 0 0.4835760722877491 0.6489712303421871 0 0.5140751643453914 0.724767967222377 0 0.5170989443526894 0.7368644697426603 0 0.5447647416528003 0.8005624574144141 0 0.5792471259556889 0.8881497280855724 0 0.6138788996653232 0.963339141822585 0 0.4411383130954125 0.5699672297533704 0 0.2726587958581848 0.1858956186712444 0 0.2825815703552466 0.2007141903717866 0 0.283356316804304 0.2131470026600515 0 0.3226682856876019 0.3252020435284309 0 0.3473666255935 0.3762185767930312 0 0.3804563852445262 0.4636563917323397 0 0.4110503016020111 0.5391906334991537 0 0.4291697891771087 0.5666180575315156 0 0.4442362105025946 0.5820066312362101 0 0.4592989443437606 0.5974029023622089 0 0.4623849672059533 0.609451350057822 0 0.4654715475511874 0.6215014093893715 0 0.4685588829886307 0.6335528336634884 0 0.4716395226373418 0.6455965912221977 0 0.4866504765683362 0.6610257146084922 0 0.4897440765337944 0.6730519381313096 0 0.4929150645572253 0.6851290875910341 0 0.4960803373099905 0.6971488217678619 0 0.4991537239824589 0.7092658640343383 0 0.5021578461698635 0.7214204497923848 0 0.520168821442308 0.7489164476716055 0 0.5232604533331375 0.7609912467142191 0 0.5263520518017977 0.7730674763383905 0 0.5295002400517511 0.7851094456593346 0 0.5328247611750443 0.7972186512283114 0 0.5480376687823132 0.8125672794597031 0 0.5513158339080769 0.8245469006781565 0 0.5546213746398102 0.8366030593307079 0 0.5577338387577435 0.8486096258251348 0 0.5608365804880494 0.8606712288558473 0 0.5639728737875477 0.8726874860538729 0 0.5823866903629689 0.9002581005681793 0 0.5671766490135334 0.8847829686613666 0 0.5854877244627567 0.9123561254996695 0 0.588590109069361 0.924454308927728 0 0.591692704717291 0.936553700274903 0 0.5950088684862122 0.9485355928337871 0 0.6045226975153455 0.9662098530315686 0 0.6132734604093711 0.9762568819155459 0 0.6188787875383225 0.9890227298485501 0 0.6250000000012135 1 0 0.2748961207998901 0.1951828406377351 0 0.2865939424036156 0.2253799341900042 0 0.2898465272011645 0.2376241186248596 0 0.2929057411034828 0.2496653373660474 0 0.2959637588070675 0.2616654756267622 0 0.2990274876080953 0.2736419211851068 0 0.3014004739766092 0.2857733415903855 0 0.3044981509868439 0.2977507646625219 0 0.3076607030602664 0.3097352820116192 0 0.3107153878468594 0.3217517806803041 0 0.3261582010234228 0.3369866608375457 0 0.3292952296856534 0.3488981581714549 0 0.3323684481241344 0.3608839321267162 0 0.3354401015802829 0.3728806895734027 0 0.3504362885799697 0.3882158879723868 0 0.3535066737207179 0.4002096300341684 0 0.3564294538532988 0.4122623445435507 0 0.3595478014194367 0.4241506834947664 0 0.3625895416132376 0.4361312006746988 0 0.3655142284564309 0.4482319416330038 0 0.3685084591317733 0.4603155476005972 0 0.3835949012040554 0.4756728269627888 0 0.3868353629526551 0.4876770894846868 0 0.389994528403972 0.4997016768219603 0 0.393065612658268 0.5117184504160859 0 0.3960933482837275 0.5237491852805523 0 0.3991340366397481 0.5358044333730227 0 0.4141194845970269 0.5512304156416233 0 0.4172022086937461 0.5632686805160435 0 0.4473220784452048 0.5940525268047918 0 0.4747225803668647 0.6576528896526677 0 0.5051815634058192 0.7335050569144849 0 0.508152666853757 0.745605925774609 0 0.5361681446340694 0.8092724303016964 0 0.5703564826745441 0.8968913521218351 0 0.5977465185775535 0.9587484105091788 0 0.4322548755534116 0.5786585392815315 0 0.2655172677025657 0.1959606607249631 0 0.2714709362622932 0.2070705915864511 0 0.2740671542934633 0.2215133495482015 0 0.3137876423853011 0.3337089731293223 0 0.3385125890708007 0.3848788450908613 0 0.3715872467731212 0.4723306656332256 0 0.402153947553332 0.547882323639287 0 0.4202855525457723 0.5753090103781955 0 0.4353446255060012 0.5907023534892086 0 0.4504076424257392 0.6060996228594149 0 0.4534930846457886 0.6181486639257915 0 0.4565788040906434 0.630199608460417 0 0.4596749822458674 0.6422158223786636 0 0.4627912507486761 0.6542442525483854 0 0.4778005913692399 0.6696810519066991 0 0.48102781455477 0.6817688604385888 0 0.4842492833361686 0.6938331161341682 0 0.4874721307299844 0.7057581978161266 0 0.490329126559723 0.7180111071834878 0 0.4932438877193288 0.7301904467097831 0 0.51125772942713 0.7576309557694709 0 0.5144009462891083 0.7696206424387155 0 0.5176344163035633 0.7816897238810965 0 0.5209100910622799 0.7937904027115251 0 0.5242569382457387 0.8059730402894785 0 0.539401923760733 0.8212421575330822 0 0.5426028126888066 0.8332200835014725 0 0.5457177273391501 0.845241748525588 0 0.5488174494877412 0.8573168332806541 0 0.5519746774034497 0.869355579240649 0 0.5551875491743016 0.8814371994921992 0 0.573461140268672 0.9089920238745641 0 0.5583311342464817 0.893530905712401 0 0.5765619984563236 0.9210904967663872 0 0.5796633138147346 0.9331897449782138 0 0.5827647101396689 0.9452895680784719 0 0.5863625729921417 0.9585750342197616 0 0.5937518852086517 0.967527125141577 0 0.6000130667620811 0.9783583961974902 0 0.6062495671530906 0.9891748764461591 0 0.6125000000013001 1 0 0.2777412303449122 0.2340829546186222 0 0.2810083614865646 0.2463284895797318 0 0.2840650724028005 0.2583431676998251 0 0.2869991964792948 0.2703166381016605 0 0.2894955935837318 0.282446399143533 0 0.2925673439800129 0.2944203374662149 0 0.2956591052074745 0.3064000792475233 0 0.2987117162947004 0.3183808923581777 0 0.3017864777886218 0.330364946019854 0 0.3172257100649842 0.3455968425707374 0 0.3203522209974461 0.3575693796956748 0 0.3235147157069516 0.3695414452643378 0 0.3265854861735917 0.3815398485539784 0 0.3415746880191491 0.3968818996016185 0 0.3446179016921325 0.4088926012278398 0 0.347699106663203 0.4208959171871452 0 0.3508134062698348 0.4328934390451636 0 0.3536983004288281 0.444827559347358 0 0.3566162086133033 0.4569331901042046 0 0.3596402300025901 0.4689903862249883 0 0.3746854252039692 0.4843438334085177 0 0.3778920514061491 0.4963089119983773 0 0.3810846957871109 0.5083462419321251 0 0.3841838665456968 0.5203925878371538 0 0.3872215359256925 0.5324150512792247 0 0.3902468720674271 0.5444882627734255 0 0.4052361171369102 0.5599188823466571 0 0.4083186699401526 0.5719576341298295 0 0.4384304835370997 0.6027480911411658 0 0.4659016072989666 0.6663149706580752 0 0.4961483893705371 0.7422561315395102 0 0.4992535575961239 0.7542787162388357 0 0.5274629034200687 0.8178367176297652 0 0.5614339645269922 0.9056285031583844 0 0.4233694622016514 0.5873519325005105 0 0.2580043896320641 0.2057516340897104 0 0.2622086567221317 0.2175957452666129 0 0.2658330666849538 0.2306570955977529 0 0.3049519251473296 0.3423339039850326 0 0.329585120999875 0.3935586918515926 0 0.3627077543410114 0.4809958631201053 0 0.3932862258637795 0.556565552281473 0 0.4113994275340049 0.5839999225550245 0 0.4264546427960452 0.5993963999710421 0 0.4415157105033372 0.614795748278142 0 0.4446018337984742 0.6268405521818808 0 0.4476891630378588 0.63887706879179 0 0.4508541105029737 0.650800619658543 0 0.4540320936027727 0.6628900448343107 0 0.4690858693576134 0.6783353487077841 0 0.4722806107185896 0.6904259163843032 0 0.4754937100560244 0.7024427622983499 0 0.4785440081407728 0.7144611938664457 0 0.4811883585243306 0.726682751307884 0 0.4841669941943736 0.7388292399787515 0 0.502346259696313 0.7663450097513573 0 0.5056980074893875 0.7783081920974555 0 0.5089697965237632 0.7903179451809038 0 0.5122743940738186 0.8024336100300267 0 0.5154566392353201 0.8144406957580304 0 0.5306094604971612 0.829781442659309 0 0.5337060074297328 0.8418669781248905 0 0.5368022316790189 0.853952666967178 0 0.5399353846999273 0.8659724052690558 0 0.5431148247333715 0.8780649363657858 0 0.5462753813437431 0.8901683024744705 0 0.5645336301244118 0.9177265035510089 0 0.5493974626052682 0.9022654422338261 0 0.5676344736037681 0.9298253542946346 0 0.5707352913534238 0.9419251376846272 0 0.5736314227739572 0.9540882184750618 0 0.5848786202960841 0.969815524310198 0 0.587903398865919 0.9785831691685847 0 0.5938289164639821 0.9892206803260608 0 0.6000000000013869 1 0 0.2690983299997117 0.2429947401711835 0 0.2721719098792273 0.2549760922011682 0 0.2751738385357299 0.2669245693217757 0 0.2779533337662442 0.2788968796434595 0 0.2806385085790181 0.2911020807494951 0 0.2837271571401024 0.3030768490976902 0 0.2867949076855413 0.3150579920389124 0 0.2898648215370668 0.3270361297364405 0 0.292940233833616 0.3390186374016568 0 0.3081370985762826 0.3543022673900142 0 0.3115398442802505 0.3662142567964559 0 0.3145159845841093 0.3782315991960908 0 0.3174736919625702 0.3902567708109619 0 0.3326434337861471 0.4055640988608043 0 0.3357818794243304 0.4175496538910829 0 0.3387957623462214 0.4295660871612996 0 0.3417792222663298 0.4415730850434259 0 0.3446291592226437 0.4536410605559956 0 0.3476998750354772 0.4656508838465638 0 0.3507751410517522 0.4776707875919968 0 0.3658505350154696 0.4929874041710256 0 0.3689972190664541 0.504945431190588 0 0.3722017067232897 0.5170199135625638 0 0.3753176401900807 0.5290838764891741 0 0.378346212175935 0.5411052592816177 0 0.3813706975336603 0.5531792811531282 0 0.3963551035940763 0.5686058611324541 0 0.399435598930301 0.5806466430121722 0 0.4295395749388575 0.6114430150827848 0 0.4571938857424803 0.6749876783887513 0 0.4872519385386312 0.7509215307986367 0 0.4903557455867158 0.7629448830346648 0 0.5185951606669411 0.8264210009595133 0 0.5525037695077256 0.9143627449280315 0 0.5757039270615244 0.9665072520312338 0 0.4144819176816524 0.5960447034482877 0 0.2501306691081946 0.2152548451754033 0 0.2539881960260558 0.2269777280165415 0 0.2571371644178809 0.2396080536673767 0 0.2960182256282646 0.3510072051868794 0 0.3205543466215268 0.4022559604836538 0 0.3538425910659126 0.4896763314485995 0 0.3844055714658889 0.56525189546762 0 0.402515547752385 0.5926909242864609 0 0.4175644852178901 0.6080905849107989 0 0.4326241667256092 0.6234895472374069 0 0.4357235848330729 0.6355088139672838 0 0.438905920682195 0.6474868542964834 0 0.4421662365481536 0.6594830631363442 0 0.4453616811211564 0.6715429756923949 0 0.4603455116341103 0.6870728760757676 0 0.463497722221526 0.6990651784433959 0 0.4665433924686122 0.7111106532238886 0 0.469133430250527 0.723382338610479 0 0.4721712840934328 0.7354574102713141 0 0.4752550764823748 0.747550644655241 0 0.4936045807225433 0.7747332754859337 0 0.49702026676356 0.786852505270519 0 0.5003228755318885 0.7989756675549639 0 0.5034853883824912 0.8109785323650907 0 0.5065820926488305 0.8230606941632426 0 0.521691618407055 0.8385054535212237 0 0.5247872227684751 0.8505915523098886 0 0.5279203115455273 0.8626123674944828 0 0.5310962605138262 0.8747038916270724 0 0.5342466884310341 0.8868072970244831 0 0.5373616404158863 0.8989024860631394 0 0.555605678475225 0.9264610557998194 0 0.5404717862775144 0.9109984476740352 0 0.5587065082642946 0.9385605268251487 0 0.5618073995307258 0.950661211352019 0 0.5649109450602424 0.9627574883484717 0 0.5774633375147018 0.9788221716318011 0 0.5817235934301169 0.9894482542651246 0 0.5875000000014736 1 0 0.260246503561559 0.2516631555975716 0 0.263302009541255 0.263544836981714 0 0.2661194306336529 0.2756076318793595 0 0.2688703874485716 0.2876297847789961 0 0.2718231033440922 0.2997334332800402 0 0.2748860153488282 0.3117328123311076 0 0.2779391352930269 0.3237136118261333 0 0.281024499501491 0.3356848411887132 0 0.2840930104194807 0.347673849718605 0 0.2991385142861501 0.3629828262448156 0 0.3025388278181821 0.3749028389958283 0 0.305464357336199 0.3869335460831378 0 0.308426243582227 0.3989580315073464 0 0.3236419126665937 0.4142543510188011 0 0.3267843346482338 0.4262382145602998 0 0.3296842289796119 0.4382773767545761 0 0.3327326498500613 0.4502978237732376 0 0.3357561913773691 0.4623187083300112 0 0.338826981437033 0.4743314643656589 0 0.3419073637345372 0.48634848153875 0 0.3569781690093213 0.5016540538599661 0 0.3601932679397503 0.5136802591461932 0 0.3633597530139361 0.5257369265316441 0 0.3664360905014331 0.537761565868494 0 0.3694572480101899 0.5497974243844058 0 0.3724820556187416 0.5618672927302277 0 0.3874724533773977 0.5772931798343164 0 0.3905523913837897 0.5893323361349483 0 0.4206488712867992 0.6201362937657868 0 0.4484015195406852 0.6836556582467234 0 0.478359366907656 0.7595500907340336 0 0.4815926967865339 0.7713588182136185 0 0.5096782608396133 0.8351441681978852 0 0.5435774233725519 0.9230967247471569 0 0.5672890421067569 0.9754926867235293 0 0.40559235984524 0.6047381071697427 0 0.2419071182199534 0.2244570029081684 0 0.2451916404167812 0.2363674663831915 0 0.248214686374256 0.2484713845592809 0 0.2871667884567888 0.3596609899093218 0 0.3115556767317481 0.4109438188524169 0 0.344986056335447 0.4983654475343333 0 0.3755062253826194 0.5739436865043896 0 0.393618129750244 0.60138587053771 0 0.408674574932116 0.6167841633734948 0 0.4237505882524517 0.6321711717684504 0 0.4269122450539161 0.64416458235137 0 0.4301130193591967 0.6561564835772465 0 0.4333761086703997 0.6681924931573967 0 0.4364642268262475 0.680248946405289 0 0.4515293856647831 0.6956934056017616 0 0.454484220775497 0.7077285183695465 0 0.4573798795904452 0.7199291039467282 0 0.4602055359643927 0.7321553463359272 0 0.4632579081076945 0.7441873191005008 0 0.4663451654485755 0.7562441961372667 0 0.4850686676042376 0.7834291988259092 0 0.4883769836086743 0.7955396293213508 0 0.4914739762837546 0.8076194461857644 0 0.4945702044053966 0.8197005402575225 0 0.4976659327236321 0.8317831241283171 0 0.5127739861452589 0.8472278971069704 0 0.5159054004415622 0.8592520740620607 0 0.5190805519125925 0.8713433326489242 0 0.5222279065053588 0.8834463678269375 0 0.5253351539410962 0.8955400335959784 0 0.5284433698966624 0.9076353933760438 0 0.5466779563634141 0.9351954081585877 0 0.5315499748145692 0.9197322492848663 0 0.5497778483631663 0.9472957340291888 0 0.5528880472778227 0.959361462965366 0 0.5562095650323634 0.97130070740982 0 0.568479450152274 0.9885065901613628 0 0.5750000000015603 1 0 0.2514096002815009 0.2604508941210534 0 0.2543994329234351 0.2722847615457103 0 0.2570175815866817 0.284364959004502 0 0.259865379941758 0.2964447116829672 0 0.2629558710131296 0.3084065657141206 0 0.2660208167865986 0.3203874844948646 0 0.2690881621977183 0.332364224839398 0 0.2721711096265252 0.3443440196001648 0 0.2752466055317844 0.3563294771850872 0 0.2903292197555434 0.371632274194051 0 0.2934140984731252 0.3836218706587304 0 0.2964172975969803 0.3956301653298693 0 0.2995202811571436 0.4076178783965592 0 0.3146986653666031 0.4229307073945585 0 0.3177148528284245 0.4349460181976488 0 0.3207208701117181 0.4469687993619603 0 0.3238004537577459 0.458979825594088 0 0.3268803202797501 0.4709923496459452 0 0.3299605805533796 0.4830073616492486 0 0.3330401866849543 0.4950234414432681 0 0.3480989439488871 0.5103788286761174 0 0.3513327555789255 0.5223766225264098 0 0.3544669078810015 0.5344037465141208 0 0.3575543920568907 0.5464404803856825 0 0.3605790381761927 0.5584825361904577 0 0.3635884265829634 0.5705529919192089 0 0.3785822511889985 0.5859834472777947 0 0.381642910111837 0.5980342547529884 0 0.4117596720494525 0.6288300125733535 0 0.4395556047015276 0.6923071622755533 0 0.4695279666534083 0.7682289593740632 0 0.4731385843771346 0.7801316868201691 0 0.5007609335406755 0.8438672906098691 0 0.5346503068727532 0.9318301863721896 0 0.5593773644145934 0.9822265720391941 0 0.396700894432086 0.6134320409060046 0 0.2333452383531068 0.2333452372300146 0 0.2362214882889524 0.2452223507903596 0 0.2391759543319036 0.2572882702749321 0 0.2783213260393584 0.368317214675849 0 0.3026200451893005 0.4196193949772461 0 0.3361317786970576 0.5070072628993807 0 0.3666339004065453 0.5826198392290776 0 0.3847260372871149 0.6100801223471986 0 0.3997843266984912 0.625478484029072 0 0.4148485006113255 0.6408739182850481 0 0.4180354784809679 0.6528726762021598 0 0.4213467116497342 0.6648535727428182 0 0.4244734783078957 0.676898651603589 0 0.427567127899844 0.6889535372536784 0 0.4426103700315663 0.7043303748626173 0 0.4455286583883223 0.7165289608944427 0 0.4484133853260702 0.7286739322756042 0 0.4513030505435142 0.7408753006187015 0 0.4543563881518092 0.7529087035437885 0 0.4574352303337848 0.7649689643380961 0 0.4763734248734192 0.7921873225161125 0 0.4794632192185716 0.8042603000228423 0 0.4825592022445547 0.8163408330830879 0 0.4856545900758807 0.8284223966927897 0 0.4887543138473426 0.8404880752097373 0 0.5038960453344068 0.8558995440276066 0 0.5070702573440317 0.8679839840276375 0 0.5102171853289795 0.8800864732333831 0 0.5133158130216382 0.8921774613558412 0 0.5164167051086456 0.9042734580305728 0 0.5195220665685454 0.916368675825854 0 0.5377501529229692 0.9439288953916245 0 0.5226238191475434 0.9284630519582067 0 0.5408681214398297 0.9559875497263338 0 0.5440740829976682 0.9679804808226398 0 0.5487424347108329 0.979857425614817 0 0.5625000000016469 1 0 0.556036350685604 0.9920566371799029 0 0.2422169880916568 0.2691879136743397 0 0.2451156880758769 0.2811166701905692 0 0.2479561722107312 0.2931458688902063 0 0.2510346584023523 0.3050832828826703 0 0.254105252255148 0.3170576696130742 0 0.2571766745284638 0.3290349215709831 0 0.2602481597089344 0.3410146264691165 0 0.2633262203997425 0.3529970982000689 0 0.2664014433031457 0.364984292032684 0 0.2813957634596557 0.3803079046797609 0 0.2844701805339279 0.3923008733074404 0 0.2875691556696983 0.4042809787996895 0 0.2906773730598368 0.4162802506209466 0 0.3057132091863113 0.4316219913676755 0 0.3087806682706208 0.4436308122164048 0 0.3118592993332615 0.4556396249146635 0 0.3149384988699702 0.467651167295051 0 0.3180163021631236 0.4796660991265856 0 0.3210936011211728 0.4916827186340222 0 0.3241662362264686 0.5036694585506802 0 0.3392150927534939 0.5190021719998377 0 0.3424170856299021 0.5309782863961684 0 0.3455852333898003 0.5430834400258422 0 0.3486854849349869 0.5551336745088808 0 0.3517027733805032 0.5671575003826955 0 0.3547358496015613 0.5792462425153093 0 0.3696655514477099 0.5946852689902703 0 0.3727502254576476 0.6067286194288275 0 0.4028697809936658 0.637526751888723 0 0.4306567699412894 0.7010134209448706 0 0.4606295246022936 0.777024697099585 0 0.4642638362996447 0.7889279812266138 0 0.491876612916166 0.8525328332769604 0 0.5257298514210931 0.940559576027167 0 0.3878095978664 0.62212619769546 0 0.2244570040195787 0.2419071171887153 0 0.2270385378704456 0.253843422005928 0 0.2298199425336021 0.2657731694032044 0 0.2694749543311965 0.3769737561826417 0 0.2937639970699337 0.4282865582345355 0 0.3272731829647327 0.5156615327957235 0 0.3577115581665086 0.5913077558874601 0 0.3758344661044749 0.618773750762202 0 0.390893390187945 0.6341737309461466 0 0.4059649670269159 0.6495447129651131 0 0.4092003028960712 0.6615524481252499 0 0.4124464629273138 0.6735411702353009 0 0.4155806231649745 0.6856007250133819 0 0.4186698410046287 0.6976577499151638 0 0.4337040126384992 0.7130317357434652 0 0.4365998222807266 0.7251618039188582 0 0.4394633651890205 0.737393077938968 0 0.4423508014384221 0.7495425297968922 0 0.4454404481020792 0.7616130737133472 0 0.4487132016036468 0.7736895358646413 0 0.4674607063809244 0.8009086755109556 0 0.4705489919566624 0.8129814345423441 0 0.4736442209566628 0.8250619455902175 0 0.4767393623795548 0.8371419135537805 0 0.4798653569944069 0.8492003644742319 0 0.4950440371721563 0.8646206228371912 0 0.4981963034258735 0.8767242886030426 0 0.5012950502317698 0.8888163490492912 0 0.5043953978969136 0.9009102805498872 0 0.5074958505346466 0.9130053307465011 0 0.5105974036171622 0.9250989486152373 0 0.5288342845092726 0.9526510875087443 0 0.5137065918860558 0.9371928484175002 0 0.5319675528980763 0.9648337721821028 0 0.5352759977478346 0.9781910067134647 0 0.5434762194529852 0.9899287996109618 0 0.5500000000017335 1 0 0.233049443280423 0.2778919967405606 0 0.2360545103623337 0.2898245212880962 0 0.2391334260522684 0.3017544202737312 0 0.2422008811791748 0.3137278660838956 0 0.2452686604626405 0.3257043457271658 0 0.2483379363341253 0.3376837885188431 0 0.2514096197648695 0.3496658894546889 0 0.2544819946231778 0.3616508199906924 0 0.2575559146215155 0.373639478543389 0 0.2725492247662085 0.3889596048038024 0 0.2756355215378599 0.4009486559507539 0 0.2787344069863733 0.4129408450008651 0 0.2818286969560722 0.4249486584965275 0 0.2968419537628879 0.4402927769942718 0 0.2999198289057605 0.4523002312237708 0 0.302998568142876 0.4643095826012639 0 0.3060786915840074 0.4763225188085904 0 0.309151122965628 0.4883389845672734 0 0.3122160023166023 0.5003481097306951 0 0.3153071119915845 0.5123284360943527 0 0.330420733935434 0.5276395485333651 0 0.3335853552214365 0.5397209849095437 0 0.3367018130696033 0.5517627716118252 0 0.3397965056839492 0.5638083434476289 0 0.3428030840902339 0.5758466881792934 0 0.3457763832969369 0.5879458139645618 0 0.3607795012412336 0.6033717386068872 0 0.3638603798623382 0.6154209172563369 0 0.3939774062259961 0.6462234709067953 0 0.4217508925918699 0.7097122555470174 0 0.4521757386028686 0.7857609727184941 0 0.4554331556744858 0.7976175219084618 0 0.4830283200013828 0.8612714287466652 0 0.5168136591875587 0.9492909312468363 0 0.3789178543678312 0.6308206936930575 0 0.2152548462634632 0.2501306681718434 0 0.2175462502058473 0.2620690659459903 0 0.2198924814213365 0.2743583477774759 0 0.2606276323763318 0.385627005485695 0 0.2849042670032169 0.436954465784328 0 0.3183981441843583 0.5243223186967247 0 0.3488063824779716 0.6000248439206747 0 0.3669428015901317 0.6274673802867001 0 0.3820025782841617 0.6428639365540169 0 0.3970619261918463 0.6582746134106814 0 0.4003462710996492 0.6702279431954264 0 0.403595981243352 0.6822505321856813 0 0.4066826140665667 0.6943049838400442 0 0.4097693200304061 0.7063641455160777 0 0.4248029914565377 0.7217349725451508 0 0.4277238203680758 0.7338019569753702 0 0.4307044609139717 0.7459980502339336 0 0.4337710595995901 0.758093678023934 0 0.4369403358304812 0.7702401627721286 0 0.4402306429545523 0.7825065281143384 0 0.4585397938273535 0.8096222340725621 0 0.4616348426591277 0.8217017329521333 0 0.4647301483117614 0.8337793181606654 0 0.4678397803366226 0.8458541747762769 0 0.4709663353040486 0.8579351104663319 0 0.486174409342608 0.8733614081361489 0 0.4892729907474047 0.8854533099340411 0 0.4923718497288654 0.8975469030699061 0 0.4954712469402174 0.9096417339619411 0 0.498571568623927 0.9217357927078234 0 0.5016814973265429 0.9338291892108171 0 0.5198846340288332 0.9613536935249989 0 0.5048010111389021 0.9459294481045698 0 0.5229341090564299 0.9729026147770244 0 0.5312044259248316 0.9900586961396305 0 0.5375000000018204 1 0 0.2235093982250421 0.2864357776525921 0 0.2272328148531585 0.2984315407279009 0 0.2302980129849771 0.3103994194305313 0 0.233363298385507 0.3223728750651923 0 0.2364282257512438 0.3343514261690165 0 0.2394966507814069 0.3463327388197971 0 0.2425655893705629 0.3583172502825517 0 0.2456311899682422 0.3703013500159805 0 0.2487045750530618 0.3822914100449141 0 0.2637084876677891 0.3976155324132969 0 0.2667983931256338 0.4096077662995532 0 0.269895488133537 0.4216089867236617 0 0.272968560715563 0.4336162076532877 0 0.2879817628978563 0.4489615589473459 0 0.2910592295421912 0.4609700326300289 0 0.294136836370375 0.4729798438119917 0 0.2972082275776069 0.4849969990668666 0 0.3002783188860508 0.4970153494533316 0 0.3033449942151943 0.5090234388422377 0 0.3064331387737887 0.521003061553732 0 0.3215391359375251 0.5363457146199697 0 0.3246470647243482 0.5483949677165511 0 0.3278195608492488 0.5604448342829017 0 0.3309111922099358 0.5724879747878727 0 0.3339300279633318 0.5845214302500827 0 0.3369804664621422 0.5966059129485827 0 0.3518883848445336 0.6120678626171678 0 0.3549821488305894 0.6241064579250154 0 0.3850921751973192 0.6548891195004268 0 0.4128499568563255 0.71841760813737 0 0.4434367226866625 0.7941859891255429 0 0.4465320078751898 0.8062633848232732 0 0.4741096168564723 0.8700088433847426 0 0.5079111887867245 0.9580329670966695 0 0.5249998407361925 0.982462667915751 0 0.3700259067480063 0.6395147552279905 0 0.2057516351455188 0.258004388790085 0 0.2073765032796078 0.2701682111523759 0 0.2096562615908142 0.2840904442321115 0 0.2517820258363365 0.3942847802492898 0 0.2760437772830652 0.445622729399175 0 0.3095312854943083 0.5330295559131668 0 0.3400522563645682 0.6086583283500608 0 0.3580628093380128 0.6361552127814374 0 0.3731159897688697 0.651538207098164 0 0.3882977148576648 0.6669262867656927 0 0.3915798407774108 0.6789405560508717 0 0.3946961495370583 0.690962116179192 0 0.3977838485667148 0.7030127674979996 0 0.4008691983900621 0.7150715987060116 0 0.4158873862958489 0.7304379694144127 0 0.4189454298324533 0.7425308878151906 0 0.4220905394961242 0.7546292153625305 0 0.4252395180742015 0.766686765974986 0 0.4282471446488174 0.7788513949415248 0 0.4314113008639755 0.7908959966455806 0 0.4496264017117219 0.8183416291535217 0 0.4527209983494451 0.8304205207782069 0 0.4558258289362394 0.8424937251935496 0 0.4589359728213089 0.8545727391022651 0 0.4620604899053125 0.8666572001281516 0 0.4772374596673442 0.8820943811578341 0 0.4803486853187005 0.8941829236326168 0 0.4834471276932917 0.9062776745956926 0 0.4865461412597127 0.9183730816297011 0 0.4896525634659293 0.9304649272152568 0 0.4927630825775563 0.9425663935127411 0 0.5107478372780441 0.9698626481199446 0 0.4958803566725623 0.9546534643020517 0 0.5142876030741058 0.9804349602999972 0 0.5250000000019071 1 0 0.5187513336974827 0.9896091623915639 0 0.2153378447404791 0.2950955078447796 0 0.2183981912996262 0.3070675581162373 0 0.221459466140128 0.3190422563162307 0 0.224521550349958 0.3310203849314222 0 0.227588646734541 0.3429994624669899 0 0.2306110558171445 0.3549795292132732 0 0.2336699668296276 0.366962874051844 0 0.2367656956765276 0.378939639366571 0 0.2398580348783287 0.390949453232123 0 0.2548665689386043 0.4062802489165023 0 0.2579507579494776 0.4182767063736684 0 0.2610321119923938 0.4302783545543101 0 0.2641070229250933 0.4422840509617244 0 0.2791211278921754 0.4576306347047476 0 0.2821991709655826 0.4696406511566673 0 0.2852709587624996 0.4816516023382263 0 0.288333436897081 0.4936736954217863 0 0.2914058638180295 0.505691455641487 0 0.2944849481802336 0.5177117589254819 0 0.2975582149089 0.5297169599145856 0 0.3126130973816815 0.5450393203787613 0 0.3157867781192613 0.5570978769880728 0 0.3189609204931276 0.5691558652340003 0 0.3220339406891832 0.5811774622052348 0 0.325097252350904 0.5932200154970302 0 0.3282258592479556 0.6052689547811292 0 0.343138553588087 0.6207024522977854 0 0.3462244167014888 0.632746401784094 0 0.3763217389545358 0.6635779791852372 0 0.4039574556679592 0.7271339698145913 0 0.4345249058122464 0.8029050479827284 0 0.437619167254684 0.8149819839685433 0 0.465190686918138 0.8787335316733247 0 0.4989839980657221 0.9667546929247028 0 0.3611487014360172 0.6481956237406188 0 0.1959606617376349 0.2655172669551799 0 0.1970006024664429 0.2778793016801526 0 0.2062136035176058 0.2946002727971586 0 0.2429358195139016 0.4029458597493274 0 0.2671837412018001 0.4542904118352727 0 0.3006459817795961 0.5417499603152274 0 0.3313126275606232 0.617309522902547 0 0.3493062415203968 0.6447901547107537 0 0.3643307927657908 0.6601732351651195 0 0.3795235383592167 0.6755949575865015 0 0.3827003069080013 0.6876385500129656 0 0.385795383059536 0.6996630140427698 0 0.3888636054673174 0.7117213244002274 0 0.3919476552859705 0.7237827081025356 0 0.4070526176451578 0.7391971080291367 0 0.4101474452661777 0.7512619268344737 0 0.4132387585346698 0.7633307767678922 0 0.4163311060469316 0.7754011035383398 0 0.4194246269762723 0.7874731440315026 0 0.4225184958359083 0.7995473436151515 0 0.4407136445426673 0.827058713551277 0 0.4438163234902797 0.8391344090171193 0 0.4469237506842502 0.8512130785989234 0 0.4500302200328186 0.8632997183366486 0 0.4531285733642186 0.8753867924898717 0 0.4683268346858712 0.8908198048704051 0 0.4714211832822915 0.9029138861092344 0 0.4745209199359598 0.9150092180221847 0 0.4776253753569933 0.9271015946701766 0 0.480739903124121 0.9391976314714925 0 0.4838495143476055 0.9512927524334662 0 0.5018872613505385 0.978392392406821 0 0.4869705094059478 0.9633252921817733 0 0.5064052363259477 0.9893802761888781 0 0.5125000000019937 1 0 0.1974261165514418 0.2903080303542891 0 0.2067192484310186 0.3039511534632421 0 0.2095578027028889 0.3157063952177235 0 0.2126151939886407 0.3276901859352889 0 0.2156824517450681 0.3396659878528022 0 0.2187484011461522 0.3516440069484 0 0.2216320156739553 0.3636255499952434 0 0.2248034124897724 0.3756160802804153 0 0.2279210130358993 0.3875991868267115 0 0.2310105543715187 0.3996089412660686 0 0.2460178873758951 0.4149412111751752 0 0.2490946584926608 0.4269418926222595 0 0.2521717113930246 0.4389456270454513 0 0.2552478486409337 0.4509505281893439 0 0.2702593999616179 0.466299616887098 0 0.2733340551439952 0.4783101931520449 0 0.2764030549947936 0.4903201308278764 0 0.2794679274954886 0.5023429662780445 0 0.2825355460766836 0.5143702546019331 0 0.2856165161956614 0.5263928351093787 0 0.2886994578625249 0.5384158938885406 0 0.3037809370246501 0.5537645627128419 0 0.3069688283397748 0.5658043109935383 0 0.3100769634794587 0.5778438084498376 0 0.3131733987366546 0.5898845243735664 0 0.3162574924605233 0.6019215068450685 0 0.3193420321685829 0.6139602836622182 0 0.3343997867049593 0.6293499908220312 0 0.3374877016584225 0.6413952515216894 0 0.3675281326514521 0.6722095626785036 0 0.3950567445536718 0.7358417083726201 0 0.4256126301454504 0.8116233117769351 0 0.4287076639310615 0.8236983215017697 0 0.4562675673881293 0.8874617818499002 0 0.4901672368931236 0.9746715550394637 0 0.3523995005557637 0.6568209564657446 0 0.1858956196419102 0.2726587951963961 0 0.1865427838446713 0.2851321559700389 0 0.1968993769876624 0.3014276566786951 0 0.234083471701781 0.4116036420147379 0 0.2583211044003855 0.4629594987411552 0 0.2917881462712436 0.5504296390822487 0 0.3224269716149573 0.6260013913535618 0 0.3405759993965581 0.6534404140844456 0 0.3555558336599308 0.6688421321348275 0 0.370713496006236 0.6842768108257382 0 0.3738095230275478 0.6963063292310041 0 0.3768831799523484 0.7083627107197232 0 0.3798842389755838 0.7204430926336485 0 0.3830523137992985 0.7324891636838287 0 0.3981503589593658 0.7479063666432308 0 0.4012365064247266 0.7599749142985237 0 0.4043263490465581 0.772044790785011 0 0.407418205196436 0.7841171100764588 0 0.4105093037216235 0.7961916762524772 0 0.4136057796911999 0.8082652233127956 0 0.4318064980739161 0.8357749909337622 0 0.4349128130726752 0.8478536274871447 0 0.4380173082101226 0.8599387351574439 0 0.441115262921571 0.8720202116219162 0 0.4442249952842037 0.8840992998389339 0 0.459387636576081 0.8995483262825048 0 0.4624958954838454 0.911645369252002 0 0.465594613398758 0.9237398714964546 0 0.4687046091306732 0.9358334128756726 0 0.4718165657575115 0.9479229017482302 0 0.4749344151906605 0.9599757184908763 0 0.4927698672261947 0.9876664077739667 0 0.4781316099139016 0.971731234167186 0 0.5000000000020587 1 0 0.1871119670000895 0.2962224766479844 0 0.1981140855636586 0.3126168387397156 0 0.2007133113644244 0.3243551457207198 0 0.2037782884734235 0.3363338054270344 0 0.2068083234783068 0.3483206497457323 0 0.2097305547478116 0.3603428640979516 0 0.2128243415880749 0.3722882027090918 0 0.2160009737449978 0.3842791422372374 0 0.2190876167396153 0.3962725425506968 0 0.222152948679221 0.4082613634912161 0 0.2371598645630147 0.4236037168316178 0 0.2402356176821587 0.4356057397533344 0 0.2433128696826582 0.4476111672814806 0 0.2463872816670211 0.4596167607353634 0 0.2613940366059694 0.4749695788781463 0 0.2644688282764905 0.4869817148655708 0 0.2675342728253586 0.4989960796769979 0 0.2705953122447959 0.5110192754035467 0 0.2736642920180701 0.5230494103932253 0 0.2767508067220144 0.5350659845980676 0 0.2798466102759044 0.5470865972956214 0 0.2949420873715919 0.5624578747862499 0 0.2980778129042972 0.5744871307577154 0 0.3012048856146493 0.5865360059170144 0 0.3042907998880294 0.5985724909200608 0 0.3073736339009926 0.6106106519057657 0 0.3104560969064516 0.6226513377113259 0 0.3255124880246081 0.6380447959000589 0 0.3285986391658077 0.650090468604718 0 0.3587375611352371 0.6808925219321621 0 0.3861270035751163 0.7445630329782285 0 0.4167007615299157 0.8203405681953501 0 0.4197979314040253 0.8324169607060092 0 0.4473466775002635 0.8961829359443609 0 0.4822601753964375 0.9801593107823332 0 0.3436337834394639 0.6654954089788799 0 0.1755705857091012 0.2794189854568997 0 0.1758013531492009 0.2917580796067994 0 0.1861095453949329 0.3080602835666658 0 0.2252153971216898 0.4202511256915947 0 0.2494581448712354 0.4716264867892012 0 0.2829458696680077 0.5591134524935855 0 0.3135392726342415 0.6346941367104755 0 0.331685161689783 0.6621384712970411 0 0.3467543789329895 0.6775406844736175 0 0.3618260581324589 0.6929475247266021 0 0.3649140169444406 0.7050027045028708 0 0.3678652993858825 0.7170931192244842 0 0.3709750232299188 0.7291538193965728 0 0.3741559552861918 0.7412186283380262 0 0.3892129077452167 0.7566250397808153 0 0.3923116753993723 0.7686886882641766 0 0.3954075584509947 0.7807595498031495 0 0.3984951377427421 0.7928355854663843 0 0.4015924881444484 0.8049072919714929 0 0.4046934939694823 0.8169815176794015 0 0.4228970021111019 0.8444957259342554 0 0.4260027648970086 0.8565783038048168 0 0.429098909102589 0.8686639525466329 0 0.4322024681773693 0.8807388774197139 0 0.4353221960530188 0.8928241845361446 0 0.4504712170606022 0.9082816212813325 0 0.4535698654500087 0.9203764721796619 0 0.4566728734934318 0.9324710209160814 0 0.4597783236532236 0.9445674569516014 0 0.4628858250640218 0.9566709748902333 0 0.4660890973899159 0.9684036472040538 0 0.4791179756229756 0.989274321552932 0 0.4702356520015362 0.9788514684251506 0 0.4875000000020284 1 0 0.1807651195813878 0.3004930869893023 0 0.1888095220563468 0.3210308625816162 0 0.1918425125747378 0.333012530469888 0 0.1948381622337187 0.3450095402051874 0 0.1978649865577147 0.3569997916738994 0 0.2008893177815332 0.3689934891594567 0 0.2039702887197171 0.3809737498502104 0 0.2071436752477807 0.3929395249567602 0 0.2102127468508074 0.404927405365081 0 0.2132781859292847 0.416914831633813 0 0.22829343686457 0.4322576422544904 0 0.2313782031501829 0.4442710878805772 0 0.2344542664404565 0.4562760545315905 0 0.2375252860239251 0.4682828006462948 0 0.2525271176117792 0.4836413170681995 0 0.2556038987674163 0.495655893562388 0 0.2586760468067526 0.5076626779094291 0 0.2617467073629752 0.5196851381877372 0 0.2648152031127218 0.5317213640855546 0 0.2679257378345881 0.5437434417892238 0 0.27103286913847 0.5557629288134074 0 0.2860909300215784 0.5711481526775699 0 0.2892425712462841 0.5831886390463434 0 0.292326840765544 0.5952235738636756 0 0.2954144539070487 0.6072423179037731 0 0.298501892494697 0.6192758513044715 0 0.301586170327759 0.6313301932155823 0 0.3166233578886966 0.6467389212918964 0 0.3197066944954938 0.6587861905140053 0 0.3498424001709005 0.6895939056828888 0 0.3771669632041424 0.7532864488154245 0 0.4077871931581892 0.8290594448840638 0 0.4108852195436902 0.8411382020241827 0 0.4384470790698946 0.9049177052176056 0 0.3347722338155951 0.6741887874933293 0 0.1650000004356499 0.2857883829973422 0 0.1740376127813278 0.3059315081357597 0 0.1769345245958559 0.3177356474885416 0 0.2163504640369501 0.4289168081781656 0 0.2405898096262467 0.4802954949846583 0 0.2741383124567208 0.567813772971969 0 0.3046592431290676 0.64338466007426 0 0.322791133386817 0.6708359444480597 0 0.3378595885361387 0.6862405226934387 0 0.3529295498394097 0.7016497682213935 0 0.3558722955902531 0.7137431374268685 0 0.3589662720640397 0.7258008461546903 0 0.3620715338484549 0.737862883172647 0 0.3651647582031803 0.7499295182037671 0 0.3802968606248039 0.7653287488278729 0 0.3833898701039336 0.7773990860896868 0 0.3864836893662608 0.7894752841521409 0 0.3895817500593994 0.8015485893577965 0 0.3926785689378133 0.8136226941694651 0 0.3957777672726687 0.8256990360787581 0 0.4139857955316411 0.8532192066908305 0 0.417082784558835 0.8653023762254112 0 0.4201805037141629 0.8773850245430636 0 0.4232963334785195 0.8894657366640903 0 0.4264179516160853 0.9015526287105305 0 0.4415462462779912 0.9170119524178025 0 0.4446463896988029 0.929107945663457 0 0.4477493910619615 0.9412051652526651 0 0.4508537280468238 0.953305034632502 0 0.4539544684157146 0.9654064233750808 0 0.4573665530012992 0.9776915239647808 0 0.4750000000019764 1 0 0.4674713722006607 0.9891631378012342 0 0.1645977873186611 0.2983566473289299 0 0.1799251130205082 0.3296718128112537 0 0.1829387277290812 0.3416562629927408 0 0.1859349495704431 0.3536733920831573 0 0.1889786517315739 0.3656615809637958 0 0.1920479409075885 0.3776421877294311 0 0.1951264271978988 0.389620039114736 0 0.1982569870469427 0.4016012339233165 0 0.2013446124383463 0.4135863868212432 0 0.2043944298594882 0.4255811689965057 0 0.219436366974051 0.4409239788712582 0 0.2225212611418235 0.4529384594800188 0 0.225596463685043 0.464942581484419 0 0.228666916624305 0.47694640124069 0 0.2436590606545361 0.4923132726120438 0 0.2467483087860586 0.5043197777835124 0 0.2498312202751464 0.5163446827274651 0 0.2529139558494067 0.528368207642206 0 0.256003161178801 0.5404040412472635 0 0.2591060030607999 0.5524233879178454 0 0.2622385429483777 0.5644592063931103 0 0.2772697631095012 0.5798431140469802 0 0.2803631385832407 0.5918743196940651 0 0.2834444690907533 0.6039097140648426 0 0.2865536424010019 0.6158852234836958 0 0.289650604097835 0.6279364014703821 0 0.2927156400470682 0.6400037701693488 0 0.307733444274481 0.6554338582603519 0 0.3108124070098551 0.6674835030713833 0 0.3409474428530935 0.6982926477388992 0 0.3682356530701544 0.7619912734877888 0 0.3988731086022008 0.8377781927425971 0 0.4019702864549833 0.8498596811873392 0 0.4295234436360106 0.913647886862619 0 0.3258783036700235 0.6828871929535426 0 0.1541986477306638 0.2917580796448226 0 0.1635065882330943 0.3128404436729628 0 0.1680707860352352 0.3263380311415289 0 0.2074855855604479 0.437586796930051 0 0.2317439939463118 0.4889636450762215 0 0.2653057127515285 0.5764954960712851 0 0.2957677790688658 0.6520787048449261 0 0.3138965191089003 0.6795341342628172 0 0.3289633379983543 0.6949384834596944 0 0.3438788075919758 0.7103836706571207 0 0.3469711743018501 0.7224454664608863 0 0.350061350631113 0.7345066610260156 0 0.3531505557270427 0.7465707606577082 0 0.3562466072467023 0.7586362736211452 0 0.3713747092041848 0.7740467199244121 0 0.3744720615621194 0.7861167917166538 0 0.3775730054403348 0.7981877649934488 0 0.3806676107247974 0.8102629153938474 0 0.383764136131239 0.8223392627200228 0 0.3868615777388356 0.8344178574647625 0 0.4050680003120796 0.8619413934423454 0 0.4081638422742753 0.8740266760313171 0 0.4112675996255225 0.8861038618253381 0 0.4143872816849581 0.8981898429497512 0 0.4175006007326774 0.9102833979592961 0 0.432621378551251 0.9257423301672266 0 0.4357219136291753 0.9378401450355285 0 0.4388231178503126 0.9499393883168208 0 0.4419241567607737 0.9620396963588543 0 0.4451243273972814 0.9738382541636816 0 0.4559306586027171 0.9896734892497812 0 0.4625000000019244 1 0 0.1531812407390661 0.3039274915892923 0 0.1710736178622639 0.3383084096861069 0 0.1740188960468848 0.3503343978778753 0 0.1770725122612868 0.3623273016051688 0 0.1801371006142435 0.3743102492996582 0 0.1832076499271763 0.3862912247458055 0 0.1862860285946625 0.3982785128755145 0 0.1893792125217622 0.4102650257706913 0 0.1924564763222967 0.4222568627337824 0 0.1955271092432979 0.4342544850759582 0 0.2105845390933403 0.4495986294923762 0 0.2136623166588527 0.4616055737371383 0 0.2167368831285963 0.4736117914379421 0 0.2198149455556068 0.4856239965085828 0 0.2348245053009095 0.5009860856874703 0 0.2379097389974106 0.5130145211548207 0 0.2409954789224965 0.5250216020521481 0 0.2441087550718146 0.5370544689358269 0 0.2471813569808221 0.549084628690791 0 0.2502733033467133 0.5611122777210814 0 0.2533560444813736 0.5731445573765875 0 0.2683990189926218 0.5885257212021067 0 0.2714819593939316 0.6005591150981086 0 0.2745972599601144 0.6125361334861167 0 0.2777346114923523 0.6245548870088873 0 0.2807840156085552 0.6366147892354973 0 0.283841227318456 0.6486859113412772 0 0.2988311840549073 0.6641311697656416 0 0.3019153873311188 0.6761809269654551 0 0.3319138128568808 0.7070210047593282 0 0.3593432700196185 0.7707005352545917 0 0.3899583031252493 0.8464981515653331 0 0.3930539224997052 0.8585805037895475 0 0.4205978684575371 0.9223785343156683 0 0.449289357998567 0.9820733356741577 0 0.3169733719683334 0.6915764606559632 0 0.1431816342950651 0.29731972622178 0 0.151301446107069 0.3142770601665426 0 0.159247860440899 0.3349783009662857 0 0.1561840013772666 0.3230119549126661 0 0.1986393532548323 0.4462553029277542 0 0.2229017001424933 0.4976421403009161 0 0.2564368462305466 0.5851770708611314 0 0.2868668496303712 0.6607758955245681 0 0.3050001557174659 0.6882316496157976 0 0.3200135348280572 0.7035958044783913 0 0.3349976756552984 0.7190848151652749 0 0.338071523162233 0.7311504994648061 0 0.3411577286213893 0.743213813197631 0 0.3442473748982531 0.7552791945013644 0 0.347338031561965 0.7673463596216511 0 0.3624392788539874 0.7827688951721941 0 0.3655710709841368 0.7948280514292296 0 0.3686628833241841 0.8069037389250793 0 0.3717561490894661 0.8189794462028358 0 0.3748518796111451 0.831057898830498 0 0.3779473542395258 0.8431374257694122 0 0.3961503080347717 0.8706628586248872 0 0.3992461771186687 0.882747855823748 0 0.4023579812408046 0.8948303222533127 0 0.4054690935402091 0.9069184299541546 0 0.408574551467877 0.9190135323036275 0 0.4236961162943058 0.9344749880437702 0 0.4267952537275232 0.9465731096778986 0 0.4298947022518558 0.9586732338104329 0 0.4331443196963514 0.9702362420958284 0 0.4377559720302016 0.9808134643180162 0 0.4500000000018723 1 0 0.4435120252924998 0.9902123431857774 0 0.1423013407498435 0.3090129925007161 0 0.1622020239608395 0.3469772040178105 0 0.1651847708567774 0.3589748772537794 0 0.1682282759745876 0.3709791881719886 0 0.1712982622888196 0.3829616391806004 0 0.1743714219579573 0.3949457142299255 0 0.1774446797092241 0.4069324394867193 0 0.1805199096521397 0.4189232725702294 0 0.1835911955841462 0.4309181503171375 0 0.1866883493412997 0.44291938465662 0 0.2017234450885218 0.4582648680913977 0 0.2048021490353569 0.470273719765901 0 0.2078796739831708 0.4822854517790756 0 0.2109581202613968 0.4943002095872165 0 0.2259842292786471 0.5096631571973074 0 0.2290648308609359 0.5216864200874084 0 0.2321507269757216 0.5337099200152968 0 0.2352338022134506 0.5457368044613813 0 0.2383160042650429 0.5577656606994319 0 0.2413976602318124 0.5697962640889224 0 0.2444784580354208 0.5818279190899374 0 0.2595200063049033 0.5972097746367331 0 0.2626327494043715 0.6091865742007452 0 0.2657716207292548 0.621201269969518 0 0.2688805216130259 0.6332317991932004 0 0.2719131399760759 0.6453066998750643 0 0.2749455498399407 0.6573815593629597 0 0.2899360908571443 0.6728288010560641 0 0.2930196463865185 0.6848797670797151 0 0.3230696523225781 0.7157084334001924 0 0.3504291924195944 0.7794148639327656 0 0.3810427530478631 0.8552185857842439 0 0.3841377220039213 0.8673000598526199 0 0.4116717883439017 0.9311093716136636 0 0.3080767542025271 0.7002746082150775 0 0.1319643683854359 0.3024655442800601 0 0.1437585702174967 0.3208529825738475 0 0.1472169210410453 0.3318449008090014 0 0.1503848999569556 0.3436290502164134 0 0.1897771909444028 0.4549221480370209 0 0.2140369053922741 0.5063188836527495 0 0.2475590984320552 0.5938599605283508 0 0.2779771653034265 0.6694713539928886 0 0.2961040661763717 0.6969306835960257 0 0.3111091549996815 0.7123262035774546 0 0.3260956037348138 0.7277907426524558 0 0.3291659524549523 0.7398573727527641 0 0.3322540922011619 0.751921329919147 0 0.3353420674501106 0.7639879525462103 0 0.3384326174397193 0.7760564576184509 0 0.3535201361349017 0.7914843201536295 0 0.3566574552424523 0.8035461575572221 0 0.359750970706348 0.8156201194470049 0 0.36284407394991 0.8276970411976606 0 0.3659379865178941 0.8397763596282939 0 0.3690322981737897 0.8518573723570061 0 0.3872353393305308 0.8793816569080641 0 0.3903355072132395 0.8914666607945865 0 0.3934422282622304 0.9035552821722979 0 0.3965508057223935 0.9156488899745747 0 0.3996480862823074 0.927743680928118 0 0.4147687473143322 0.9432069144639478 0 0.417866222875014 0.9553061716730498 0 0.4208812856430874 0.9674142605451497 0 0.4245286571533868 0.9788137158223957 0 0.4309371446431233 0.9897068949662571 0 0.4375000000018203 1 0 0.1309380686817486 0.3163472760445396 0 0.1533020986012564 0.3556381881064025 0 0.156319538384157 0.3676457793360026 0 0.1593876188838341 0.3796271413812679 0 0.1624573975647007 0.3916116185220945 0 0.1655286054168534 0.4035984219023087 0 0.1686017508531698 0.4155883130431104 0 0.1716752997077375 0.4275788387230941 0 0.1747541474937465 0.4395831294027102 0 0.1778410995273723 0.4515830921791384 0 0.192863870828318 0.4669316455710001 0 0.195938987940823 0.4789423159351655 0 0.1990136146234137 0.4909564408722668 0 0.202088504745922 0.502974733146926 0 0.2171166799137693 0.518339655973147 0 0.2201966100389389 0.5303645169638593 0 0.2232769917253631 0.5423904792475338 0 0.226357324107801 0.5544188078230535 0 0.2294382472293916 0.5664486017620152 0 0.2325188311688245 0.5784794428255425 0 0.2355989664484878 0.5905110509215468 0 0.2506650228689061 0.6058343104175539 0 0.2537984287908649 0.6178535727657569 0 0.25692129211284 0.6298907724588474 0 0.2599939683518807 0.6419215912371066 0 0.2630162903419287 0.6539813236506694 0 0.2660586264693863 0.6660681717932915 0 0.281045989184137 0.6815260335867112 0 0.2841218443034501 0.6935798541904061 0 0.3141414806523389 0.7244143857462779 0 0.3415222703398493 0.7881260964567726 0 0.3721262962148044 0.8639385321859355 0 0.3752240874941271 0.8760204315478891 0 0.4027434849052574 0.939840973824924 0 0.2991803947493035 0.7089738249449262 0 0.1205625383731968 0.3071883369221746 0 0.1351762632596883 0.3283232231549329 0 0.1384119990107551 0.340374523072804 0 0.1413926603398263 0.3523259958812888 0 0.1809267226672912 0.4635900935971446 0 0.2051647122731875 0.5149948622238988 0 0.2387003446108594 0.6024829919757557 0 0.2690790155235246 0.678168065701332 0 0.2872077262143535 0.7056305776823721 0 0.3022180409615672 0.7210216669928518 0 0.3171912348101031 0.7364971957879154 0 0.320262627079313 0.7485633467303763 0 0.3233513923552078 0.7606282833942721 0 0.3264389697150328 0.7726965924596799 0 0.3295248892031635 0.7847677051125803 0 0.3446129516407707 0.8001952442758494 0 0.3477431822128104 0.8122607044757406 0 0.3508385411808084 0.8243364458116879 0 0.3539307160757343 0.8364147189585383 0 0.3570231082622599 0.8484952798641532 0 0.3601160008620851 0.8605770958501024 0 0.3783254725709301 0.8881031293474012 0 0.3814273861632407 0.9001929544434404 0 0.3845287178688382 0.9122844871743787 0 0.3876256444794138 0.9243774663423636 0 0.390722119590423 0.936472562943428 0 0.4058383785884894 0.9519393301904573 0 0.4089361063880359 0.9640404412832766 0 0.4111695858073365 0.9774892603433136 0 0.418552104009065 0.9888722584326199 0 0.4250000000017684 1 0 0.1176584057018418 0.319603675498032 0 0.1251449940847376 0.3269841773820146 0 0.1444070608583654 0.3643124018640086 0 0.1474769566163313 0.3762932893568602 0 0.1505434664847152 0.388276699520405 0 0.1536123178364989 0.400263440645196 0 0.1566835243566283 0.4122529374882736 0 0.1597590274836567 0.4242456890225925 0 0.1628349945462029 0.4362438192285681 0 0.1659116335803865 0.4482453192066594 0 0.1689915154052821 0.4602485254076086 0 0.1840020703830519 0.4755949659123318 0 0.187079901394011 0.487605263463427 0 0.190144106707676 0.4996281422253171 0 0.1932208192299762 0.5116481129123907 0 0.2082429218839628 0.5270187936518839 0 0.2113210759077606 0.539043954763317 0 0.2144002992792894 0.5510719788766748 0 0.2174796179538936 0.5631008607325746 0 0.2205597582942231 0.5751312941318742 0 0.2236397655957816 0.5871480650895953 0 0.2267394022923177 0.5991400910293991 0 0.2418266764329902 0.6145080110715315 0 0.2449380688875012 0.6265430279280209 0 0.2480340875734944 0.6385803903423123 0 0.2511060903045341 0.650610995239321 0 0.254135029929272 0.6626845804368313 0 0.2571631765992657 0.6747755443579883 0 0.2721421727307587 0.6902283594998607 0 0.2752263418628641 0.7022804997516281 0 0.3052579977557783 0.7331154669350204 0 0.3326152627726434 0.7968383137155747 0 0.3632109712270594 0.872659709811258 0 0.3663101267728254 0.8847437546760326 0 0.393814167665628 0.9485726291377032 0 0.2902843009278461 0.7176742152930197 0 0.1089920907478123 0.3114814988958745 0 0.1266989534546771 0.337327744586893 0 0.1294399451669165 0.3489937627531337 0 0.1324959174319473 0.3609771191767726 0 0.1720662675971221 0.4722516577261023 0 0.1962966568205778 0.5236694760712665 0 0.2298702903772863 0.6111595804904792 0 0.2601756681339704 0.6868728643071622 0 0.2783111562815423 0.7143309486246051 0 0.2933123577355536 0.7297282909831875 0 0.3082910234188927 0.7452015337990681 0 0.311362771529848 0.7572681149235426 0 0.314447826155781 0.7693323637866765 0 0.3175313239085312 0.7814052623158374 0 0.3206160012578775 0.7934796465894999 0 0.3357098317278275 0.8089103226169421 0 0.3388269136032658 0.8209776931120114 0 0.341920969821615 0.8330541431215512 0 0.3450140764449876 0.8451335885282939 0 0.3481064126023646 0.8572145769235218 0 0.35119928654212 0.8692974381320939 0 0.3694094887900007 0.8968309311018678 0 0.3725071834082248 0.9089212669584414 0 0.3756039443667121 0.9210121402667548 0 0.3787024126863709 0.9331054542245096 0 0.3818004754054958 0.9452012268334605 0 0.3969066378334053 0.9606727104960056 0 0.3992086088968211 0.9720244799709687 0 0.4060585963242603 0.9897757533970641 0 0.4125000000017163 1 0 0.1055994419314422 0.3233950294757598 0 0.1144050855020105 0.3326543573793345 0 0.1355520891368364 0.3729594548106503 0 0.1386291981701805 0.3849423356836454 0 0.1416958869273421 0.3969275008003763 0 0.1447656872064256 0.4089165513577107 0 0.1478371265215879 0.4209090180603097 0 0.1509104975097136 0.4329052354674426 0 0.1539837116658046 0.4449045329411891 0 0.1570575865758306 0.4569080279381273 0 0.1601304074500337 0.4689132909324495 0 0.1751485745828368 0.4842502089909354 0 0.1782340513087279 0.4962707075501419 0 0.1813110662619661 0.5082895511910772 0 0.1843879000354478 0.5203085497518136 0 0.1993760180853831 0.5356929319247375 0 0.2024491007990158 0.547721858677934 0 0.2055272963067027 0.5597518145483094 0 0.2086106771782996 0.571781123179519 0 0.2116799943986881 0.583810382677121 0 0.2147744769630281 0.5958192882182411 0 0.2178844992471511 0.6078317651455269 0 0.23298136396158 0.6231938053342481 0 0.2360665644532378 0.6352316155954291 0 0.2391465256772864 0.6472705889963694 0 0.2422185409720565 0.6593016380005078 0 0.2452330766788288 0.6713634504718705 0 0.2482631351574949 0.6834808715798255 0 0.2632426830265343 0.6989285045510747 0 0.2663296913858071 0.7109794784977937 0 0.2963400158852464 0.7418210420910447 0 0.3237070462995617 0.8055511017584728 0 0.3542941319810749 0.8813818365011887 0 0.3573897762670285 0.8934681378699563 0 0.3848973633105392 0.9573002955980114 0 0.4000768386519633 0.9818625332563369 0 0.2813870077559222 0.7263742335491897 0 0.09726920782269013 0.3153390258270395 0 0.1174879225637343 0.3456746151093186 0 0.1205526963035272 0.3576468688300097 0 0.1236310527862122 0.3696242309215446 0 0.1632131927160996 0.480912121160697 0 0.1874661330947972 0.5323305476502995 0 0.2210124412867627 0.6198496563602425 0 0.2512758691079162 0.6955891878251289 0 0.2694141536364176 0.7230315012815974 0 0.2844206178203271 0.7384233451234583 0 0.2993899853047529 0.7539061984039674 0 0.3024600746067266 0.765973133216726 0 0.3055391424575224 0.7780447598278148 0 0.3086211215446578 0.7901174542276412 0 0.3117066641248782 0.8021921146632086 0 0.326806303425774 0.8176226288774195 0 0.3299063126254301 0.8296961522672011 0 0.3330052418279497 0.8417711642403257 0 0.3360963046804507 0.8538525933171487 0 0.3391883238345732 0.8659349653889095 0 0.3422815860000331 0.8780189283919804 0 0.3604869726336473 0.9055575889171281 0 0.3635826002975865 0.9176484427525529 0 0.3666800177804816 0.9297391424558414 0 0.3697810776833793 0.9418348030050727 0 0.3728826025078105 0.9539335690780939 0 0.3875165631985359 0.9689017271337029 0 0.3898173539463077 0.9798958760165003 0 0.4000000000016644 1 0 0.3941300482850912 0.9901272965538372 0 0.09259792385886835 0.3274485860847257 0 0.1025212563191148 0.3330840000715569 0 0.1055927909385491 0.3428021170230207 0 0.1267054933756961 0.381606586196782 0 0.129778416149051 0.3935913653520966 0 0.1328475122960188 0.4055782056901847 0 0.135916677982996 0.4175702165774807 0 0.1389852482208654 0.4295653784157158 0 0.1420543967133349 0.4415639782611038 0 0.1451250380085667 0.45356662915782 0 0.148196797515884 0.4655719088655538 0 0.1512715267678105 0.477574345846449 0 0.1663181375110817 0.4929207672534639 0 0.1694035124512083 0.5049327252845395 0 0.1724808180541494 0.5169510021172543 0 0.1755589080298225 0.5289702214190406 0 0.1905412341624171 0.5443514874003166 0 0.1936189256676288 0.5563811632176254 0 0.1966939774628647 0.5684204707684937 0 0.1997333634330601 0.5804625750873089 0 0.2028014984552602 0.5924923979380912 0 0.2059044672771601 0.6045031762973611 0 0.2090174205010153 0.6165167074511136 0 0.2240964199752583 0.6318831029368402 0 0.2271785365918805 0.6439213897130467 0 0.2302584780429582 0.6559610537838672 0 0.2333295129808416 0.6679915639560112 0 0.2363454179044094 0.6800981346927182 0 0.2393634423683333 0.6921891503835464 0 0.2543481189982085 0.7076272920219091 0 0.2574321806642174 0.7196799636099241 0 0.2874566771208055 0.750522219005289 0 0.3147976199595863 0.8142643021566454 0 0.3453749120815293 0.8901048938472045 0 0.3484677049783914 0.9021936279223701 0 0.3759803878175891 0.9660348865725463 0 0.27249010128394 0.7350753433180879 0 0.08541028511428159 0.3187555226136437 0 0.1086509813297763 0.3543135948767349 0 0.1117146895742191 0.3662890311281622 0 0.1147864815060202 0.3782699473017758 0 0.1543608321699493 0.4895810696453271 0 0.1786382623032853 0.54099232013141 0 0.2121274096285297 0.6285372293742428 0 0.2423835988959401 0.7042930462453008 0 0.2605169295838545 0.7317326310057226 0 0.2755130048562161 0.7471309994574927 0 0.2904842327108947 0.7626125478043864 0 0.2935491980263135 0.7746829443017416 0 0.2966253105031243 0.7867574011182664 0 0.2997089085006563 0.7988323535446634 0 0.3027969054120694 0.8109052056862885 0 0.3178945505607568 0.8263380034760323 0 0.3209887942238012 0.8384135334854543 0 0.3240846745104429 0.8504918484311648 0 0.3271771849724535 0.8625726450083453 0 0.3302700934518197 0.8746553717744492 0 0.3333629580579679 0.8867398104566617 0 0.3515621081126775 0.9142844219131816 0 0.3546593565057959 0.9263762114818235 0 0.3577586131806788 0.9384706686844444 0 0.3608586558756484 0.9505679988250845 0 0.3639562263201976 0.9626675800311226 0 0.378729110014433 0.9776545760833948 0 0.3818548293788627 0.9894948520512896 0 0.3875000000016123 1 0 0.08094311196313786 0.3269780553565436 0 0.09414737232475009 0.3397016253774515 0 0.09675303800231776 0.3509780988947828 0 0.1178587102999808 0.3902538638608841 0 0.1209294907095294 0.4022409594146308 0 0.1239980789663092 0.4142311778747508 0 0.1270656880480946 0.4262233916118585 0 0.13012800134251 0.4382222627652884 0 0.1331944817165017 0.4502248392564308 0 0.136263976772268 0.4622296329438079 0 0.139335707811869 0.4742365388722132 0 0.1424119875419045 0.4862407973081562 0 0.1574516545613988 0.5015891480707895 0 0.1605344332324166 0.5136066150209367 0 0.1636110449363537 0.5256258473337264 0 0.1666894689672743 0.5376467415018553 0 0.1817233327036603 0.553013774005167 0 0.1847823255509816 0.5650416716679894 0 0.1878086425823487 0.5770914727157153 0 0.190845202739145 0.5891474024324783 0 0.1939214744180544 0.6011761088256108 0 0.1970216875994885 0.6131895243564629 0 0.2001540179669996 0.625188893172846 0 0.2152103458787742 0.6405716502837191 0 0.2182909816177174 0.652612376874608 0 0.2213708465987906 0.6646518983554444 0 0.2244411517168536 0.6766831734888814 0 0.2274450314254908 0.6887689176057196 0 0.2304676017187488 0.7009047443525855 0 0.2454525454592506 0.7163309062748593 0 0.2485330138499317 0.7283818817361434 0 0.2785338681408185 0.7592279168501611 0 0.3058879670810657 0.8229781357412476 0 0.3364535309564852 0.8988271772774925 0 0.3395454232583744 0.9109177234475688 0 0.3672148065801527 0.9741940823996608 0 0.263592005575978 0.7437758805835504 0 0.07343190839847019 0.3217262109759768 0 0.08245718051958717 0.3364843494034438 0 0.09981068588830264 0.3629536730153342 0 0.1028755722433478 0.3749335283382855 0 0.105943762229845 0.3869163530184695 0 0.145498493921401 0.4982492382324075 0 0.1697701188628065 0.5496680700804164 0 0.2032432368172076 0.6372213532057224 0 0.2334802307467576 0.7129916736070216 0 0.2516192054762638 0.7404340899851112 0 0.2666194194740438 0.7558246835896363 0 0.2815731560393445 0.7713175439058406 0 0.2846266886657963 0.7833977283447445 0 0.2877065358926516 0.7954762867812876 0 0.2907969135265567 0.807545658791289 0 0.2938866966649892 0.8196180409155561 0 0.3089803060488839 0.8350532683282259 0 0.3120736297995969 0.8471307196159434 0 0.3151668915584052 0.8592104349197711 0 0.3182595698137577 0.8712918950838875 0 0.3213520326571342 0.8833741936549738 0 0.324444841915518 0.8954595540667429 0 0.3426366938294167 0.9230108314356662 0 0.3457324298196049 0.9351047681488414 0 0.3488313204742238 0.9472016072503251 0 0.351928246046707 0.9593003000525256 0 0.355606572224095 0.9706638140833654 0 0.3684931112833517 0.9873228808351632 0 0.3750000000015603 1 0 0.07020174676052864 0.3332228853970827 0 0.08483021079008642 0.3477034582784326 0 0.08790812359893294 0.3596195971001778 0 0.1090129114557287 0.3989023007630735 0 0.1120806251866625 0.410892141641627 0 0.115146780481467 0.4228830290347641 0 0.1182047519491087 0.4348822006686051 0 0.1212636931265655 0.4468806493091508 0 0.1243317843357653 0.4588858831014141 0 0.1274010605839365 0.470894353521605 0 0.1304735943819768 0.4829029958796174 0 0.1335488122404522 0.4949133602686012 0 0.1485884732828922 0.5102619820655738 0 0.151664027332387 0.5222803700270175 0 0.1547403235682643 0.534301246998788 0 0.1578181561031136 0.5463227430477505 0 0.1728425495165012 0.561685368367344 0 0.1758757766630699 0.5737283695419705 0 0.1789062012763832 0.58578062638812 0 0.181964182446375 0.5978308499736866 0 0.1850432529403732 0.6098612176157893 0 0.1881456696165162 0.6218719655406904 0 0.1912683140903216 0.633877140149656 0 0.2063240669054464 0.6492606334101725 0 0.2093988149490043 0.6613048435465021 0 0.2124820603266543 0.6733434642045188 0 0.2155518190822492 0.685374473314905 0 0.2185578432432334 0.6974988544224885 0 0.2215630126736362 0.7095852468097767 0 0.2365492529709245 0.7250299406922915 0 0.2396363293881837 0.7370829797258465 0 0.269641105968147 0.7679282275826704 0 0.2969766410092005 0.8316922829676913 0 0.3275388859393682 0.9075446664485484 0 0.3306261354807408 0.919639434868337 0 0.3590589853851929 0.9801469084540049 0 0.2546944512972797 0.7524776745097097 0 0.06135083051496888 0.3242469361383752 0 0.07324742134138705 0.3448031275395367 0 0.09097019683217636 0.371597081123103 0 0.09403318891890367 0.3835787353721901 0 0.09709713897411922 0.3955648909578529 0 0.1366354387222436 0.5069229586515487 0 0.1608972896754007 0.5583433294189809 0 0.1943425056989295 0.6459224735711999 0 0.2245630665486592 0.7216801625149759 0 0.2427212949953282 0.7491359166764636 0 0.2577027228016403 0.764533347371263 0 0.2726291830095118 0.7800230646006681 0 0.2757115060196703 0.7921128970135072 0 0.278798230029821 0.8041865249436935 0 0.2818809530905456 0.816260275264223 0 0.2849661720838937 0.8283349601744626 0 0.3000678082592719 0.8437687107543563 0 0.3031584152686316 0.8558476492903264 0 0.3062496574751697 0.8679288514838104 0 0.3093417481073064 0.8800106647828568 0 0.3124342606569944 0.8920936203886354 0 0.3155273832251588 0.9041778561741458 0 0.3337134162533 0.9317378465062648 0 0.3368056883395703 0.9438342215758823 0 0.339901380653125 0.9559332642938123 0 0.3429979177951106 0.9680336283955714 0 0.3484531327697996 0.9797373741678684 0 0.3625000000015083 1 0 0.3552646712071503 0.989662134868861 0 0.05662185826844369 0.3353686972398589 0 0.06328921503743579 0.3432678759070551 0 0.07600645905011275 0.3562844600519052 0 0.07906704012751545 0.3682602997050847 0 0.1001634604373802 0.4075541297036578 0 0.1032305788699311 0.4195436577044572 0 0.1062910844264204 0.4315366970425292 0 0.1093462154871025 0.4435331159227193 0 0.1123999131198906 0.4555390693217238 0 0.1154665432404572 0.4675510803033896 0 0.1185367669932077 0.4795600791999768 0 0.1216099320034139 0.4915702236260713 0 0.124690313961246 0.503581385116242 0 0.1397177331732483 0.5189369457250023 0 0.1427923432967652 0.5309558064139629 0 0.1458691329411712 0.5429768545104909 0 0.1489459194764786 0.5549978554130562 0 0.1639429119090957 0.5703571292327934 0 0.1669720291431088 0.5824139488798615 0 0.1700050429985356 0.5944833593919834 0 0.1730845938359162 0.6065144425235649 0 0.1761625105747662 0.6185438029377562 0 0.1792565303185657 0.6305654537854294 0 0.1823356812983019 0.6426091753412814 0 0.1974183624141828 0.6579631719536867 0 0.2005065718312339 0.6699975164805831 0 0.2035932302095729 0.6820359054409472 0 0.2066632008258484 0.6940670231778705 0 0.2096576714309224 0.7061604316668275 0 0.2126516623534958 0.7182756142947614 0 0.2276570982262053 0.7337242804097549 0 0.2307383057143965 0.7457844210673688 0 0.2607033694193006 0.7766431550721233 0 0.2880537793040823 0.8404105764723475 0 0.3186188519889122 0.9162700975546413 0 0.3217091406750127 0.9283660296115153 0 0.2457935047302679 0.7611767204217476 0 0.04918394795064049 0.3263141726373354 0 0.06459074224138514 0.3531659438713974 0 0.0821286932915023 0.380238414474513 0 0.08518803018536866 0.392223902018891 0 0.08824637019987117 0.4042157081802826 0 0.1277688057542222 0.5155948405014656 0 0.1520161202580559 0.5670025127191869 0 0.185435965920367 0.6546261920266457 0 0.2157105460437291 0.7303296852448888 0 0.2338225921785306 0.7578374734500223 0 0.2488077517062334 0.7732281705093278 0 0.2637389851698985 0.7887464063028103 0 0.2668031374137791 0.8008254308009802 0 0.2698917499522733 0.8128957000393452 0 0.2729569450743734 0.8249764347484346 0 0.2760420173601717 0.837052150678524 0 0.2911464018732812 0.8524874688549421 0 0.2942410338394497 0.8645655389891906 0 0.2973318016106407 0.8766474135439541 0 0.3004239065264154 0.8887306884972431 0 0.3035179306141538 0.9008159869290715 0 0.3066111867953241 0.9129021274164001 0 0.3247917679155201 0.9404625756437117 0 0.3278791029238474 0.9525647654551587 0 0.3309691625821541 0.9646645762955434 0 0.334591131271442 0.9783653501901928 0 0.3427611780778384 0.9896689976843331 0 0.3500000000014564 1 0 0.04429600402776906 0.3375649506061635 0 0.0524049080417082 0.34833981501022 0 0.06716395414443138 0.3649223814413249 0 0.07022434265114183 0.3769009619346396 0 0.09131336236786049 0.4162084296372377 0 0.09437920231853208 0.4281977869191259 0 0.09743531242274049 0.4401895137554642 0 0.1004779263289441 0.4521889436935538 0 0.1035428585125174 0.4641996750795799 0 0.1065997528740454 0.4762143877444459 0 0.1096707989528832 0.4882268529460916 0 0.1127447514707739 0.5002388622894314 0 0.1158206139679279 0.5122523002701825 0 0.1308435654880223 0.5276122179775837 0 0.1339208287590512 0.5396313367368172 0 0.1369979981728487 0.5516491110894425 0 0.1400767023681816 0.5636639836606949 0 0.1550714145609908 0.5790457890026626 0 0.1581169439989792 0.5910845031875562 0 0.1611688428684143 0.6031355717187634 0 0.164216352071113 0.6151881464972928 0 0.1672868109656165 0.6272282961223024 0 0.1703706110921747 0.6392596438937497 0 0.1734529621724473 0.6512937115129217 0 0.188516870620499 0.6666625115678609 0 0.1916251195875149 0.6786858952935645 0 0.1947062134088728 0.6907305966710475 0 0.1977733160787083 0.7027586779172449 0 0.2007832959993392 0.7148426987532864 0 0.2038300330695202 0.7269120856913355 0 0.2187923500179181 0.7423863425124468 0 0.2218573467291795 0.7544644711060846 0 0.2518129955736557 0.7853464483436365 0 0.2791285629703735 0.8491292165320324 0 0.3097003798178689 0.9249904708089005 0 0.3127899681194293 0.9370895789465805 0 0.2368948296291011 0.7698787520076904 0 0.03694827719583835 0.3279250292555594 0 0.05543249583323566 0.361378003278343 0 0.07328293968313476 0.3888828362641939 0 0.07633538679832272 0.4008709457954154 0 0.0793910397608654 0.41286883578387 0 0.1188979781661756 0.5242678839396908 0 0.1431571145431601 0.5756777714679235 0 0.1765359396641348 0.6633276643334118 0 0.2069012933042577 0.7389677189590916 0 0.2249239198108643 0.7665398446954601 0 0.239896390811404 0.7819415020815812 0 0.2548357243766025 0.7974578858804626 0 0.2578966737475055 0.8095324910527252 0 0.2609437141889422 0.8216180515518272 0 0.2640265678986185 0.8336951587062227 0 0.2671218421051326 0.8457682545804405 0 0.2822315822997297 0.8612020144416427 0 0.2853209974108877 0.8732845861741527 0 0.2884128424853428 0.8853670298315049 0 0.2915050990934505 0.8974518152094417 0 0.2945973813989627 0.9095388524721919 0 0.2976903415346394 0.9216278664185625 0 0.3158814626471868 0.9491880462496123 0 0.3189466046558853 0.9612472019710183 0 0.3219246418105883 0.9728184313197639 0 0.3307581332157782 0.9902491268790775 0 0.3375000000014043 1 0 0.03173184804990192 0.3391124097460466 0 0.03883629812297044 0.3486919779674063 0 0.04408889725278282 0.35909524587006 0 0.05831765906126411 0.3735637468033556 0 0.06138335168762114 0.3855475173489129 0 0.08246053689334736 0.4248655438176461 0 0.0855307984589767 0.436863093642625 0 0.08858021912384209 0.448844332306814 0 0.09164527143580245 0.4608435181203483 0 0.09469735211405717 0.4728576624260251 0 0.09774604247643467 0.4848778764583169 0 0.1008042546181723 0.4968948324653281 0 0.1038783986429295 0.5089086150464889 0 0.1069529936976985 0.5209238819714832 0 0.1219739979262191 0.5362860029354688 0 0.1250503337852824 0.548303966511527 0 0.1281303026043227 0.5603216189744658 0 0.1312143703614897 0.5723416143375326 0 0.1462166754025845 0.587707899347888 0 0.1492648315927183 0.5997438892893552 0 0.1523049784658133 0.6118035087623157 0 0.155324825325793 0.6238820945125746 0 0.1584055122974009 0.6359140895395311 0 0.1614861695007161 0.6479471370610327 0 0.1645712293159914 0.6599806583330137 0 0.1796297469712959 0.6753564288734877 0 0.1827297034756137 0.6873921541433727 0 0.1858168546681267 0.6994229928269542 0 0.1888863697568924 0.7114536987168122 0 0.1919406559434256 0.723503051065026 0 0.1950172930642041 0.7355672390961225 0 0.2099478453594742 0.7510483148270231 0 0.2129423163391428 0.7631887904996176 0 0.2428957519584957 0.7940615702155138 0 0.2702117515613886 0.857843046054846 0 0.3007806634681748 0.9337171591926114 0 0.3038763941928126 0.9458131921731328 0 0.3250000000013525 0.9822474940937055 0 0.2279957729772174 0.7785810286926915 0 0.02466093093987413 0.3290772530655663 0 0.04658650686736027 0.3703424652010432 0 0.06443298066080483 0.3975329312862755 0 0.06748407178612213 0.4095219925778005 0 0.07053378512110824 0.4215245883532758 0 0.1100282757914382 0.5329407196571828 0 0.1342982461263585 0.584366457682971 0 0.1676541236295842 0.6720160027208856 0 0.1980962788948304 0.7476059276242858 0 0.2160242631959555 0.7752424036209373 0 0.2310038104579548 0.7906353320074236 0 0.2459173985589864 0.8061617109790885 0 0.2489478339213207 0.8182538439256422 0 0.2520268125919409 0.8303340130106098 0 0.2551155292391309 0.8424075319881579 0 0.2582066236011125 0.85448242352286 0 0.2733094075328497 0.8699221405250178 0 0.2764016295262489 0.8820034286299242 0 0.2794934261544809 0.8940868707848588 0 0.2825845767874658 0.9061725944183676 0 0.2856735078432661 0.9182622229310082 0 0.2887662635308615 0.9303530826767414 0 0.3069792106597087 0.9579120559862786 0 0.3098965410139572 0.9697656094580143 0 0.3138722769723525 0.9804692104180709 0 0.318707668017688 0.9899691865469846 0 0.3250000000013522 1 0 0.01910355599583217 0.3416049609951568 0 0.02699376760806909 0.3504890306146395 0 0.0336421261075479 0.3577344777739433 0 0.03504080711806135 0.36746631389181 0 0.04949896878427218 0.3822310262467896 0 0.05253390321470365 0.3941993757628091 0 0.07360388799048419 0.4335251355571504 0 0.07666929986229973 0.4455213100770091 0 0.07973905426063728 0.4575205947664521 0 0.08279246272435489 0.4695156284845084 0 0.08584988221704409 0.4815233280750814 0 0.08888604834718945 0.4935422848046227 0 0.09193689000020773 0.5055638870932038 0 0.09501036554042455 0.5175794010828791 0 0.09808340861924975 0.5295958090223982 0 0.1131040198119662 0.5449583396290737 0 0.1161820306061817 0.556976852389147 0 0.1192624988638914 0.5689963500931999 0 0.1223449674400146 0.5810196272025914 0 0.1373529871001417 0.5963872762644618 0 0.1404109811853957 0.6084127788826463 0 0.1434440377514454 0.6204585716732629 0 0.1464641550388014 0.632542287405418 0 0.1495285932152142 0.6445948557549748 0 0.1526074170057699 0.6566317274895581 0 0.1556888857072158 0.6686674437964391 0 0.1707479456052294 0.6840464397182255 0 0.1738380536491136 0.6960797337587201 0 0.1769274864298482 0.7081156960772126 0 0.1800108390443703 0.7201606549401887 0 0.1830880355331027 0.7322044138339929 0 0.186178035728304 0.7442506133720674 0 0.2010974868715172 0.7596766382606124 0 0.2040930330469008 0.7718231371085449 0 0.2339929669175863 0.802761291339914 0 0.2612991819174855 0.866559789485307 0 0.2918617097534107 0.9424471107268044 0 0.2949584251695242 0.9545431728391379 0 0.2190968658223948 0.78728415728044 0 0.01233909414134175 0.3297692325790432 0 0.03758867117835624 0.3788913023178884 0 0.05557823079492458 0.4061749199685219 0 0.05862815475665986 0.4181773895529282 0 0.06168209770754567 0.430181188859411 0 0.1011583095189272 0.541613420110462 0 0.1254229086761292 0.5930448259123846 0 0.1587728190760458 0.6807001215569072 0 0.1891830356163293 0.7562996492678932 0 0.2071250052470615 0.7839455158175525 0 0.2220769233763024 0.7993457825078309 0 0.2369797317142351 0.8148733699135409 0 0.2400305140483786 0.8269641254677598 0 0.2431161260115161 0.8390460375678668 0 0.2462047342260509 0.8511202603296739 0 0.249293865318376 0.8631965470348284 0 0.2643913024813582 0.8786399783642344 0 0.267482840798177 0.8907219924997845 0 0.270572873578955 0.9028057124847553 0 0.2736586417304464 0.9148941329646328 0 0.276748708635024 0.9269859461194 0 0.2798396107753464 0.9390796874456823 0 0.2980543475743743 0.9666426894875153 0 0.30153702061154 0.9785427030332197 0 0.3061677903789892 0.9894718380567379 0 0.3125000000013003 1 0 0.00925643287612132 0.339102155066285 0 0.01802511706674458 0.3539059777301961 0 0.02325086043585579 0.3629298205258006 0 0.02563606659783351 0.3755228766355486 0 0.04062692057355013 0.3908692206162506 0 0.04368098730505385 0.4028587701762621 0 0.06474612997333279 0.4421866178127752 0 0.06781807704503759 0.4541930811709134 0 0.07088486567267475 0.4661944697824192 0 0.0739484360366916 0.4781956665041516 0 0.07698081810034031 0.4901947242882673 0 0.08001525873529008 0.5022158811754102 0 0.08307069282470951 0.5142337313312224 0 0.08613980945775246 0.5262504820324791 0 0.08921228473380718 0.5382681259700868 0 0.1042343237989404 0.5536317783268578 0 0.1073125311120614 0.5656516088886451 0 0.110392758062978 0.5776732625352019 0 0.1134702651719202 0.5896970689646729 0 0.1285014521901411 0.6050712449767023 0 0.1315234335962464 0.6171108298028889 0 0.1345364541722418 0.6291756071303809 0 0.1375642544391003 0.6412503427013871 0 0.1406449010254175 0.6532831565052321 0 0.1437254064002302 0.6653176914067911 0 0.1468065665875005 0.6773514299420673 0 0.161863226829723 0.6927341972559803 0 0.1649532911968852 0.7047666005860482 0 0.1680382658952495 0.7168082911310866 0 0.1711210559857749 0.7288534830616502 0 0.1742045389158529 0.7408995730820738 0 0.177272889807858 0.7529317561546064 0 0.192170046572385 0.7684003099813099 0 0.1951411833786053 0.7805947555143431 0 0.2250841854395434 0.8114899824160872 0 0.2523834314485838 0.8752750800092353 0 0.2829345479007717 0.9511754132437165 0 0.2860770458937328 0.9631579418168111 0 0.2101926652343094 0.7959824465048031 0 0 0.33 0 0.009538839054949459 0.3489659719380265 0 0.02930979431286197 0.3870098496444067 0 0.04674777877377773 0.4148428737169777 0 0.04979954945536999 0.426839247550632 0 0.05281602302452679 0.4388370178334243 0 0.09228779731138004 0.5502867753062746 0 0.1165472644072496 0.6017229037998474 0 0.1498923859781823 0.6893852400016356 0 0.1802699163918581 0.76500054568711 0 0.1982254437524261 0.7926484236358247 0 0.2131774348232268 0.8080791542476167 0 0.2280539150043003 0.823621943801837 0 0.2311187673164682 0.8356824249364726 0 0.234199594164045 0.8477598473478404 0 0.2372826347315841 0.8598358378161091 0 0.2403713913615608 0.8719131950814181 0 0.2554733084272499 0.887356911874849 0 0.2585634201629134 0.8994397438758744 0 0.261651594745108 0.911524590646827 0 0.2647368993076403 0.9236178408431313 0 0.2678214004436836 0.9357178583927288 0 0.270911752580987 0.9478067380897089 0 0.2894158062835622 0.9745700733429317 0 0.2921176423034202 0.987698782850115 0 0.3000000000012483 1 0 0 0.3424074074074548 0 0.01074513000994141 0.3610185185186057 0 0.01272160061481471 0.3739319009285305 0 0.01956491679199941 0.3835046584318207 0 0.03175741620074365 0.3995160234539852 0 0.03481607757468787 0.4115132135857412 0 0.05588399775940835 0.4508501830677106 0 0.05895575819969261 0.4628583528202161 0 0.06202697593137411 0.4748671851501672 0 0.06506280874265519 0.4868666158092608 0 0.06809267860452491 0.498871900533489 0 0.07112833672629515 0.5108910908247688 0 0.07419473299417152 0.5229050281160503 0 0.07726670023744811 0.5349218608465087 0 0.08034109431488966 0.5469405867631726 0 0.09536459142148693 0.5623063062021927 0 0.09844185716807881 0.5743273220532754 0 0.1015185144243242 0.5863498797907878 0 0.1045925215841865 0.5983721993265084 0 0.1195894116171313 0.6137661253196022 0 0.1225746566884858 0.6258433161291959 0 0.1256135638172979 0.6378941160682238 0 0.1286840310787795 0.6499322919488419 0 0.1317627705814217 0.661968272469163 0 0.1348429521912304 0.6740029363709158 0 0.1379245236194106 0.6860368183495449 0 0.1529791426445956 0.7014172474143107 0 0.1560652389139419 0.7134578881806259 0 0.1591488318877509 0.7255007486745906 0 0.1622307781920809 0.7375463784415169 0 0.16531264962815 0.7495934553075526 0 0.168383437693848 0.7616278208140368 0 0.1832241199444266 0.777146936020387 0 0.1862735081649952 0.7892556593722071 0 0.2161627236241425 0.8201875638950675 0 0.2434625725358572 0.8839936370015292 0 0.2740060660433382 0.9599046476677107 0 0.2773820649347162 0.9713082434236053 0 0.2012925540040612 0.8046853733611925 0 0 0.3548148148148881 0 0.02021498396330682 0.3939182047066697 0 0.03799288632800335 0.4235053539351579 0 0.04100728154879568 0.4355271516861547 0 0.04388790673246093 0.4474859101729155 0 0.08341619063809225 0.558960257044403 0 0.1076386456802243 0.6103951839174935 0 0.1410080371118187 0.6980716254910029 0 0.171385968716302 0.7735968018844274 0 0.1893256851435822 0.8013520243068656 0 0.2042555572610018 0.816783776800719 0 0.2191471262681761 0.8323454897690337 0 0.2222035062939471 0.8443985102643179 0 0.2252717964047035 0.8564760131726026 0 0.2283610365715013 0.8685524339448307 0 0.2314513775650962 0.8806297718210164 0 0.2465541064623023 0.8960752185929018 0 0.2496443037596203 0.9081588740364837 0 0.2527273584307795 0.9202450407680002 0 0.2557996790822791 0.9323447984180134 0 0.2588887244244807 0.9444747397689738 0 0.2619802320273614 0.9565355380552545 0 0.2813590072822558 0.9805124208921361 0 0.2875000000011962 1 0 0 0.3672222222223236 0 0.009942138471180036 0.3871404602439479 0 0.02180533031133488 0.4077551089173895 0 0.02667579916198379 0.4201825404097671 0 0.04695441178789933 0.4595007168690117 0 0.05005401560553802 0.4715107763865762 0 0.05311216188409976 0.4835259588534496 0 0.0561477782784732 0.495532405148802 0 0.05918811461077531 0.5075458669608286 0 0.06224443124281274 0.5195570033108002 0 0.06532056149523285 0.5315752779921727 0 0.06839486435351602 0.5435940933704357 0 0.07146922245411827 0.5556136728494134 0 0.0864918372370086 0.570981109258724 0 0.08956837036712456 0.5830030103678004 0 0.09264206742033165 0.5950239381077084 0 0.09570321550021534 0.607038693791247 0 0.1106593886912197 0.6224598015798928 0 0.1136541318594503 0.6345483594416581 0 0.1167240415373063 0.6465846880352484 0 0.1198012669428265 0.6586191735524795 0 0.1228802125114216 0.6706537659951601 0 0.1259606108493939 0.6826883001094901 0 0.1290422040041296 0.6947232413116462 0 0.1440941643013214 0.7101079589557342 0 0.1471774815676261 0.7221491458227971 0 0.1502591790300571 0.734192669664362 0 0.1533401022590433 0.7462347131643365 0 0.1564204526900594 0.7582728848851055 0 0.1594834767276271 0.7702968404151258 0 0.1743953264412647 0.7857965361766757 0 0.177421081698779 0.7979335441590767 0 0.2072562271487227 0.8289470403123425 0 0.2345423662376543 0.8927116366351746 0 0.2656321719818224 0.9684929618580205 0 0.2790829353854205 0.990225816580233 0 0.2689515838177556 0.9808824272036972 0 0.192392693618645 0.8133891060639377 0 0 0.3796296296297976 0 0.0103357566724611 0.3993899429225168 0 0.02956050412351537 0.4323354226063488 0 0.03198681962889771 0.4441599580184504 0 0.03501414688612318 0.4560869047794116 0 0.07454351861123927 0.5676343393132075 0 0.09871052496089153 0.619103814979878 0 0.1321249610738743 0.7067599759037182 0 0.1625335276152995 0.7823322195373761 0 0.1804435149279579 0.8100734922098108 0 0.195367348783954 0.8255297286403286 0 0.2102295756383476 0.8410505540094377 0 0.2132644287758878 0.8531136797514229 0 0.2163494339729375 0.8651916204758235 0 0.2194395853931262 0.8772681653020158 0 0.2225308626328784 0.8893474986468417 0 0.2376332648443254 0.9047945211498112 0 0.2407229222138763 0.9168777768517979 0 0.2437915541349247 0.9289720574055087 0 0.2468601496663882 0.9410682630380105 0 0.2499692178670405 0.9533828543669134 0 0.2531378418194657 0.9665658257738646 0 0.2750000000011442 1 0 0 0.3920370370372307 0 0.01005208728894484 0.4110444021851989 0 0.0174503323743268 0.4168530960555615 0 0.01912710482593385 0.4283586346897809 0 0.03814196799157318 0.4681375719156241 0 0.04113281783858913 0.4801748727109885 0 0.04419014421688838 0.4921862118009322 0 0.0472407616118957 0.5041978769348527 0 0.05029979125217071 0.5162113110655815 0 0.05337436182445088 0.528229018586439 0 0.05644893978881299 0.5402475849576041 0 0.05951883373271576 0.5522673063394935 0 0.06259608505754111 0.5642866091417387 0 0.07761846283634252 0.5796559706403579 0 0.08069470244818926 0.5916785134272176 0 0.08377156675352168 0.603701682255099 0 0.08679301951132941 0.6157209383771873 0 0.1017219853715813 0.6311696645927799 0 0.104768768599871 0.6432327226772913 0 0.1078388580772813 0.6552719526153912 0 0.110918039072704 0.6673044762705754 0 0.1139977777406108 0.6793388481373199 0 0.1170775810844281 0.6913741930447412 0 0.1201584624812212 0.7034102600096125 0 0.1352073423712407 0.7187987775177829 0 0.1382892828177514 0.7308395218737782 0 0.14137107321277 0.7428775629426594 0 0.1444503784262216 0.754910247654874 0 0.1475417527133705 0.7669548931486975 0 0.1506357209368838 0.7789964222211118 0 0.1655337525077859 0.7945140560865794 0 0.1685320619262688 0.8066515946187655 0 0.198328566930045 0.8376325332744012 0 0.2256220133854662 0.9014291725989481 0 0.2594834206809025 0.9765114893098794 0 0.2686407902507288 0.9918342176639374 0 0.1834958916182242 0.8220963462555737 0 0 0.4044444444446639 0 0.02070371382717895 0.4401802481789274 0 0.0225783056727792 0.4523324622936817 0 0.02614966627710744 0.4644460676666686 0 0.06566897721978678 0.5763089660998416 0 0.08974689501077918 0.6278386076206677 0 0.1232395561735143 0.7154479921365304 0 0.1537040048572858 0.7910252381756516 0 0.1715469228780284 0.8187811940727125 0 0.186441321892538 0.8341896657726577 0 0.2013076573191825 0.8497451080624625 0 0.2043504370502082 0.8618217640645436 0 0.2074364564299969 0.8739043994054893 0 0.2105245717443944 0.8859828545611356 0 0.213612917450031 0.8980639708701001 0 0.2287125176072781 0.9135135992125221 0 0.2317899912425594 0.9255965500858655 0 0.2348492241736658 0.937699915271365 0 0.2379379640730362 0.9497908074165494 0 0.2410033717045908 0.9616501506028385 0 0.2497607394601815 0.9784010608883217 0 0.2576694320482316 0.9880628445357578 0 0.2625000000010923 1 0 0.01035222479312906 0.4230562747464179 0 0 0.4168518518521316 0 0.0101656578537922 0.4353782490807239 0 0.02968191955835245 0.476683834943001 0 0.03221530822911902 0.4888350529433353 0 0.03528488028618398 0.5008498686247753 0 0.03835839833129034 0.5128659328467822 0 0.04141927017524128 0.5248708915537379 0 0.04435572065475527 0.5369388407366329 0 0.04755302546454464 0.5489256595783725 0 0.05074649034314774 0.5608624951599912 0 0.05372125524849448 0.5729611872317961 0 0.06874484339946824 0.5883309555846347 0 0.07182076050819844 0.6003539044046805 0 0.07488620479087582 0.6123669096691777 0 0.07788345848061945 0.6244076538797847 0 0.09280948159755231 0.6398837970835626 0 0.09587734535460546 0.651925508388741 0 0.09895760488129463 0.6639561442058858 0 0.1020364946520732 0.6759886586784942 0 0.1051154060189246 0.688023271570478 0 0.1081940926430544 0.700059355235961 0 0.1112736034648114 0.7120968544004711 0 0.1263209183851446 0.7274872299076264 0 0.1294018967481499 0.7395270965751857 0 0.1324862804667066 0.7515611367139919 0 0.1355763177546253 0.7635955334282816 0 0.1386593527623523 0.7756425326749808 0 0.1417500621894188 0.7876636911353208 0 0.1566260664535253 0.8032177498146296 0 0.1596210330915363 0.8153895313697845 0 0.1893692707975252 0.8463331028491783 0 0.2167021844899411 0.9101471080271403 0 0.2438898233110117 0.9710083305387798 0 0.1745931865782653 0.8307981266360033 0 0.01086455884912331 0.4476142719425214 0 0.01287239139705691 0.4617730354067373 0 0.02017282118036564 0.4726250204512357 0 0.0567956958523174 0.5849832275098282 0 0.08087330272665361 0.6365140363687267 0 0.1143540650512339 0.7241348678092444 0 0.1447288517194543 0.7997204415168977 0 0.1626307359369304 0.8274694047429644 0 0.1775466867020394 0.8428341500213098 0 0.1923507794925546 0.8584581835707115 0 0.1954346536832697 0.8705396118649226 0 0.1985490047018879 0.8826043842697917 0 0.201620068771218 0.894700753772806 0 0.2046934670074931 0.9067808741960983 0 0.2197901478535083 0.9222298878518539 0 0.2228653440564861 0.9343063431384464 0 0.2259470155903382 0.9464082036444619 0 0.229010890963796 0.9584867536618255 0 0.2326896172981527 0.9694950246919474 0 0.238446958482759 0.9793000257399336 0 0.2440010198346718 0.9893201440216743 0 0.2500000000010403 1 0 0 0.4292592592595735 0 0 0.4416666666670066 0 0.01996852193530033 0.4851903989463162 0 0.02333878789142749 0.4975037058286833 0 0.0270773856926514 0.5093500096013619 0 0.02949897394562855 0.521470211272545 0 0.03251773119494757 0.5333976018624567 0 0.03573672247213674 0.5452360003061862 0 0.03931454330838091 0.5571205190074323 0 0.04177519924720963 0.5696136896611146 0 0.04484762372783421 0.5816355967309605 0 0.05987078767284902 0.5970053314004058 0 0.06294416006961519 0.6090279644456411 0 0.06596108302151163 0.6210496255820219 0 0.06897869867650415 0.6331264353108688 0 0.08392925787338985 0.6485725535173057 0 0.08699846013684281 0.6606081951442603 0 0.09007755377526901 0.6726385163298314 0 0.09315396622182281 0.6846733427198816 0 0.0962307287012938 0.6967091844105362 0 0.09930865642703844 0.7087462116629457 0 0.102388281458286 0.7207833905083023 0 0.1174343562998192 0.7361730161169362 0 0.1205162910663496 0.7482100304085332 0 0.1236017255921231 0.7602463492744189 0 0.1266856943464986 0.772288882347357 0 0.129774208005202 0.7843121242524937 0 0.1327383942420234 0.7964316874237081 0 0.14760930193151 0.8119804407325332 0 0.1506529625389555 0.8241139335935111 0 0.1804927897474677 0.8549849011967591 0 0.2077822851792554 0.9188641178777101 0 0.1657048467796354 0.8395149833115004 0 0 0.454074074074455 0 0.01010172213499843 0.4748127539578263 0 0.0479246477264481 0.5936617138813288 0 0.07197595181281059 0.6452432740885541 0 0.1054681678305076 0.7328212512867194 0 0.1356634506665434 0.8085607155472054 0 0.1537279356769012 0.836172639194861 0 0.1686632348010043 0.8515426869410001 0 0.1834737460507972 0.8671611146700388 0 0.1865674709701854 0.8792231979033518 0 0.1897108066122628 0.8912754881110457 0 0.1927678441464456 0.9034273820392409 0 0.1958065473604342 0.9155328958198656 0 0.2108682005389882 0.9309469880105704 0 0.213950017077819 0.9430304955584776 0 0.2170252070620936 0.9551023181625291 0 0.2201792658459742 0.9670500009667571 0 0.2255014234719978 0.9785121846561063 0 0.2316262002768272 0.9895337133424538 0 0.2375000000009883 1 0 0 0.4664814814819163 0 0.01120555590352578 0.4971246575063041 0 0.008255159994764907 0.4854625991193157 0 0.01836997013641581 0.505426139909491 0 0.01929501816677229 0.5164982390023263 0 0.02098882328563897 0.5293703598235765 0 0.02309630287403261 0.5424885627427661 0 0.03014818890357247 0.553128937078293 0 0.02952652716430955 0.5647597099068364 0 0.03301895789393666 0.5784096959276945 0 0.03599303738731466 0.5903310143588253 0 0.05099457329410029 0.6056812826925642 0 0.05406266683718088 0.6177009323984197 0 0.05707838571962916 0.6297478538427642 0 0.06008849733486716 0.6418167128362791 0 0.07504100561187443 0.65726051002999 0 0.07811986933781244 0.6692891522514355 0 0.0811965800708188 0.6813200248748342 0 0.08426703411255758 0.6933604004551155 0 0.087345977581904 0.7053951524124581 0 0.0904241156158252 0.7174322070515284 0 0.09350301784147938 0.7294694759851592 0 0.1085488228214759 0.7448586782375588 0 0.1116306262061236 0.7568966458086838 0 0.1147138293028199 0.7689363597416273 0 0.1177946777299626 0.780980488619277 0 0.1208057770104532 0.7930773547094419 0 0.1237080158610687 0.80525579738089 0 0.1386678385073913 0.8207227519218884 0 0.1417231695142058 0.832835694026546 0 0.1716777408005127 0.8636925091414662 0 0.1988677230448851 0.9275887151848297 0 0.1567906313062103 0.8482060993402444 0 0 0.4788888888893493 0 0.03904616842427305 0.6023338305953887 0 0.06309684717308918 0.653924869958264 0 0.09658256842039971 0.7415072754462373 0 0.1266406735778409 0.8173441077592566 0 0.1448191898330974 0.8448801269198827 0 0.1598060041045228 0.8602497087101089 0 0.174743285917334 0.8758002201667004 0 0.1778633481646301 0.8878432195667885 0 0.1809463428142159 0.8999581742427367 0 0.1839459828552115 0.9121579212616735 0 0.1868904077768728 0.9242569207239213 0 0.2019544580782283 0.9396700507184516 0 0.2050203894965515 0.9517545390812125 0 0.2080436633980826 0.9638839160624405 0 0.2111549736513758 0.9771778131670721 0 0.2186759069059505 0.9894644994335657 0 0.2250000000009362 1 0 0 0.4912962962967824 0 0.009736575025055375 0.5105207178568014 0 0.009902801092779332 0.5232298826441151 0 0.01044785465385896 0.5352338267194708 0 0.02068253835939812 0.5554499764311508 0 0.02137448267497801 0.5754944759552427 0 0.02393107901187213 0.5872071712185574 0 0.02750669023447522 0.5989217306416925 0 0.04211914966551217 0.6143567370973951 0 0.04518287757077633 0.6263676997176197 0 0.04819649087693482 0.6384257172113761 0 0.05120654659904331 0.6505220940632328 0 0.06616359342803632 0.6659402996926678 0 0.06924152591201825 0.6779678289091854 0 0.07231252086091004 0.6900062968755876 0 0.07538577527985185 0.7020438574983987 0 0.07846251936927892 0.7140814575487401 0 0.08153959823610615 0.7261180501291991 0 0.08461803748187753 0.7381555752050755 0 0.09966312763273505 0.7535449888103285 0 0.1027439849251848 0.7655845259028873 0 0.1058242505447981 0.7776262871238542 0 0.1088316236014641 0.7897625118156617 0 0.111760125078359 0.8019177748133438 0 0.1146907380093317 0.8140919403022712 0 0.1297174728152923 0.829501619872279 0 0.132816082676564 0.8415473761718255 0 0.1628873841819505 0.8724164231641904 0 0.1899464820967668 0.9363109038612349 0 0.1479099626713706 0.8569336454739638 0 0 0.5037037037042373 0 0.01069526186644469 0.5472143826731065 0 0.01843788474245062 0.5653876261644496 0 0.03017046218638446 0.6110107797177922 0 0.05421063435246135 0.6625942857814109 0 0.08769736625128208 0.7501929831658799 0 0.1177095543484608 0.8261686844233669 0 0.1359288189811186 0.8535846815888584 0 0.1509570079615077 0.868968352869179 0 0.1660250547759987 0.8845124365024122 0 0.1692264252206211 0.8964611618467659 0 0.1721636498861244 0.9085838726309069 0 0.1750636918235568 0.9208301472936613 0 0.1779910709487251 0.9329895556075585 0 0.1930256721859068 0.9483886781710089 0 0.1960997456449443 0.9605191688425291 0 0.1991388752000064 0.9723580213440491 0 0.2060950206057783 0.9899143026726336 0 0.2125000000008843 1 0 0 0.5161111111116921 0 0 0.5285185185191252 0 0 0.54092592592658 0 0.01019570735021234 0.5597745912015206 0 0.01127878477377581 0.5852611150024177 0 0.0104101681633551 0.5714593773274974 0 0.01659939038962812 0.597028796864187 0 0.02095527844537307 0.6066524589101837 0 0.03324383528576408 0.6230303039999804 0 0.03630772617892726 0.6350409941413789 0 0.03932904353962526 0.6470083977124241 0 0.04235483399617738 0.6591631620163745 0 0.05728677432342903 0.6746195392604237 0 0.06035949282327169 0.6866498743068028 0 0.0634247169669421 0.6986957952091892 0 0.06650222930688908 0.7107315357260778 0 0.06957742019509724 0.7227679424747789 0 0.07265546472501606 0.7348030545206249 0 0.07573372007313545 0.7468398204507021 0 0.09077589640570295 0.7622325112083018 0 0.09385571197967746 0.7742723325562828 0 0.09693444898315995 0.786312879099853 0 0.09978840352578214 0.7985848993098598 0 0.1027361924620542 0.8107341453619396 0 0.1057320041525119 0.8228229386033689 0 0.1208100764747242 0.8382121943865037 0 0.123920098658587 0.8502465804900121 0 0.1540769325484875 0.8810744901056041 0 0.181013528340519 0.9450234340887128 0 0.2004365849481835 0.9817211116980729 0 0.1390148529934754 0.8656433986289314 0 0 0.5533333333340349 0 0.02010220308229202 0.6182449011597049 0 0.04533265340667181 0.6712715331679393 0 0.07881081084588515 0.7588797210965917 0 0.1088166572850008 0.8348695663696197 0 0.1270261166207756 0.862294494770224 0 0.1421083325808101 0.8777016831208201 0 0.1572345119985686 0.8931293083045038 0 0.1603067443509836 0.9051196327339671 0 0.1632336924057071 0.9173659954543225 0 0.166177383267052 0.9295085607102618 0 0.1691281155637941 0.9417128284936123 0 0.1840975376835824 0.957110286700239 0 0.187272335905536 0.9696195716962255 0 0.1906262473961115 0.9812775162830678 0 0.1939860701627531 0.9912375738113925 0 0.2000000000008322 1 0 0 0.5657407407414687 0 0.007014306743272603 0.5967662205104809 0 0 0.5781481481489228 0 0.0103976463340855 0.6080560861675419 0 0.02448989847230367 0.6312748660453212 0 0.02773537733107074 0.6432887865696808 0 0.03067105926425913 0.6556585730271529 0 0.03337906681500348 0.6679240883460877 0 0.04840896270893359 0.6832968959116937 0 0.05148198246775939 0.6953189869422963 0 0.05455070030057944 0.7073797962555989 0 0.05761909001937433 0.7194174347313647 0 0.06069512136619696 0.7314506878016089 0 0.06377267654400977 0.7434841392828322 0 0.06684877190837085 0.7555226362209521 0 0.08188849518946323 0.770919649137473 0 0.08496778873277952 0.7829592749838172 0 0.08794479843411696 0.7950390706749887 0 0.09066537001984361 0.8074348206219097 0 0.09375717454752565 0.8194852776231289 0 0.09684232687521706 0.831529243396927 0 0.1119206968768695 0.8469017924023393 0 0.1150389066036013 0.858936414430005 0 0.1452313181839397 0.8897512526982734 0 0.1721222697993891 0.9537851903056059 0 0.1301143537771939 0.8743508045920965 0 0 0.5905555555563559 0 0.009240315927405828 0.6189676596280654 0 0.01294809307521137 0.6283064704831235 0 0.03645602970219183 0.6799494993529285 0 0.06992330736189795 0.767566358370919 0 0.09993314931043164 0.8435626795772209 0 0.1181257140076551 0.8709978983215034 0 0.1332183272330655 0.8864023756699539 0 0.1483466102081701 0.9018018297765139 0 0.1513761826218409 0.9138542566126598 0 0.1543629291940516 0.9260194608719625 0 0.1573192497160841 0.9382028410874996 0 0.1602677772911963 0.9504268704954462 0 0.1751632093381577 0.9661982592748644 0 0.178151394056921 0.9786469237016352 0 0.1817288061994445 0.9904012896399588 0 0.1875000000007802 1 0 0 0.6029629629638107 0 0 0.6153703703712551 0 0.01654051201348027 0.6385723078534389 0 0.0192448518659474 0.6509050409554161 0 0.02156261272586076 0.6637832401869526 0 0.02423403862210867 0.6762468188514842 0 0.03953236712995244 0.6919746407374137 0 0.04266537533981318 0.7039931437309926 0 0.04566647848896992 0.7160615306609642 0 0.04873679818029979 0.7280998821268292 0 0.05181379798014712 0.7401311167224705 0 0.05488936390665481 0.7521648047334348 0 0.05796278408938216 0.7642022381052604 0 0.07300169068487407 0.7796062347445902 0 0.07605901798565529 0.7916233201667975 0 0.07898137202652733 0.8037273354886161 0 0.08177755019890022 0.8161315542779004 0 0.08488996065235016 0.8282024750894168 0 0.08795309867955886 0.8402233715109335 0 0.1030312177883458 0.855600608850788 0 0.1061346311605794 0.8676450392932833 0 0.1363247185074833 0.8984596193801521 0 0.1631971159014939 0.9625765991823168 0 0.1212144971273128 0.8830578220650467 0 0 0.6277777777786986 0 0.007636394469217784 0.6357683286542883 0 0.02767446102423398 0.6882477839956526 0 0.06103676065470801 0.7762478737463856 0 0.09104570038237859 0.8522586989702645 0 0.1092246943835448 0.879703689512526 0 0.1243092534315764 0.8951145267030444 0 0.1394193828941447 0.9105215738132024 0 0.1425184297179251 0.922602520292276 0 0.1455602200397949 0.9346910885924367 0 0.1484190729406158 0.9468582373612786 0 0.1513859331249707 0.9590490414699755 0 0.16613428804796 0.9749661142996162 0 0.1681031194457761 0.9887789589950919 0 0.1750000000007281 1 0 0.009036066224495057 0.6463083793644766 0 0.01024424914994982 0.6585859769515716 0 0.0111016405970863 0.6711290657405355 0 0.01342018528057023 0.6850722984085086 0 0.03105819319248227 0.7005029972740937 0 0.03391377243840765 0.7126494433640924 0 0.03685935556088901 0.7247296506375265 0 0.03985658980938699 0.7367805751304759 0 0.04293304314662064 0.748810381709848 0 0.04595675130329273 0.760838267590125 0 0.04900319223164594 0.7728815194498317 0 0.06411238796915315 0.7882883395687763 0 0.06718148032823003 0.8003180335760005 0 0.07014435158350836 0.8122379320968199 0 0.07302513582114001 0.8246721222355103 0 0.07599883707850787 0.8368939104618374 0 0.07906318198427426 0.8489154541908974 0 0.09414144605684147 0.864303288363695 0 0.09723495107890609 0.8763526840264249 0 0.1274234190940033 0.907166157619925 0 0.1546315462485134 0.9711737462971155 0 0.1123128428586158 0.8917636394848714 0 0 0.6401851851861535 0 0.02013859751136733 0.6971672850126025 0 0.05214294727572032 0.7849276058686138 0 0.08215607139262213 0.8609579963107885 0 0.1003232834258097 0.8884087599913405 0 0.1154049688616146 0.9038240886433457 0 0.1305191274511462 0.9192431216617655 0 0.1336163307985779 0.9313233703783035 0 0.1366705291441572 0.9433648447141962 0 0.1398167399156884 0.9554899390532485 0 0.1436474288989342 0.9678841872180024 0 0.1566499907086916 0.9828519327489498 0 0.1625000000006761 1 0 0 0.6525925925936003 0 0 0.6650000000010197 0 0 0.6774074074084013 0 0.009848545096591402 0.6959633227297115 0 0.02240886442405767 0.709390488681972 0 0.02548645112531967 0.7212330994891369 0 0.02837038413745513 0.7333112366124741 0 0.03127771394377735 0.7453833374419776 0 0.03410354685406931 0.7574758704357594 0 0.03678077010263659 0.7695058979595668 0 0.04013913996413588 0.78156723342904 0 0.05522802665986111 0.7969747025772005 0 0.05828459585594234 0.8089903116261339 0 0.06120496226774062 0.8211652882429427 0 0.06413515314583285 0.833401573244145 0 0.06709068130557763 0.8455662158823057 0 0.07017602244254478 0.8576094811611946 0 0.08524610453821688 0.8730047027306208 0 0.08833570628877954 0.8850548766671238 0 0.1185115962278927 0.915890264888499 0 0.1477135383724693 0.9787381021847803 0 0.1563217643358971 0.9926157041602183 0 0.1034122572599924 0.9004710402058715 0 0 0.6898148148157613 0 0.01098381476166965 0.7065363788265011 0 0.04327036868607091 0.7936170732934001 0 0.07326428261754175 0.8696536997637649 0 0.09142283193979434 0.8971142345385652 0 0.1065055921133167 0.9125339210201102 0 0.1216204534148986 0.9279699194972154 0 0.1246981889044901 0.9400422463424276 0 0.1277914324231987 0.9521267801421114 0 0.1303435275215425 0.9661468277229003 0 0.1374167614668602 0.977990781091933 0 0.1453753391989094 0.9890618701114473 0 0.1500000000006241 1 0 0 0.7022222222231429 0 0.01256286742539755 0.7203157343756401 0 0.01936867845709734 0.7292066945197019 0 0.02040708363814444 0.7399924718797817 0 0.02210856467846332 0.7523963833319813 0 0.02304667718293956 0.7661098430740624 0 0.02825008936589027 0.7781946086823928 0 0.03150197135283694 0.7904834281383328 0 0.04634156975809468 0.8056574944154331 0 0.04939839956309111 0.8176718753307484 0 0.05230756724024878 0.8298863724217954 0 0.05511921193705526 0.8422170312204513 0 0.05820440989370155 0.8542592578528831 0 0.06128801182493277 0.866304090571716 0 0.07635206282924339 0.8817024816527052 0 0.07943751926927356 0.8937561159095604 0 0.1095994973714871 0.9246040364282448 0 0.09451076853458701 0.9091779726343761 0 0 0.7146296296305246 0 0.03440598911456964 0.8023200981615002 0 0.06437246492712755 0.8783510280199891 0 0.08252265565750598 0.9058152180090802 0 0.09759639970797536 0.9212477662245213 0 0.1127816859022703 0.9367302985708409 0 0.1159084253767237 0.9487117434720596 0 0.1186625608458037 0.9603303029589572 0 0.1251639540296891 0.9787384729109997 0 0.1315171752769285 0.9893233096279875 0 0.1375000000005722 1 0 0.01063489702151208 0.7335065408814369 0 0 0.7270370370379062 0 0.01068226359056145 0.7461506384911187 0 0.01052552339565303 0.7580555555562996 0 0.01846500709490187 0.7766666666673866 0 0.02034972561330971 0.786986079307936 0 0.02252978611034049 0.7992342157609308 0 0.03745788903686967 0.8143405208166402 0 0.04052774357018515 0.8263674660120834 0 0.04345993295758778 0.838495000480402 0 0.04632940846054813 0.8507840237810547 0 0.04931729841685687 0.8629526157943116 0 0.0523995976125662 0.8749979863427463 0 0.06745713218523131 0.8903996375590972 0 0.07054139362642683 0.9024526930345802 0 0.1007360019159054 0.9333692747195514 0 0.1199058150706235 0.9704673306850503 0 0.08560304539070093 0.9178866389843785 0 0.01074513000987598 0.7704629629636878 0 0.02556467542539703 0.8109929533815448 0 0.0554812008417787 0.8870459735107672 0 0.07362150054896091 0.9145073960029093 0 0.08869335348904131 0.929968766304972 0 0.1039316327347331 0.9454565884211892 0 0.1071494530049381 0.957588925701629 0 0.1101585715070659 0.969431307065495 0 0.1187255508012822 0.9896256696012824 0 0.11361568153177 0.9793678382733926 0 0.1250000000005201 1 0 0 0.7394444444452662 0 0 0.7518518518526134 0 0 0.7642592592599863 0 0.01014495261081743 0.7826249062003737 0 0.0112065471450713 0.7947126503981995 0 0.01204650220911256 0.8087297480551628 0 0.02888022379636322 0.8229477482260067 0 0.03183151566702609 0.8351070320212624 0 0.03448996381795347 0.8473831317296938 0 0.03735051980908101 0.8596035946618341 0 0.0404294745544706 0.8716481151783586 0 0.04350959262449434 0.8836947513382949 0 0.05856398147974085 0.899093265531431 0 0.06164557261784848 0.9111445251954031 0 0.09183377502402609 0.9420925859019618 0 0.07669978114114694 0.9265926647640219 0 0 0.7766666666673896 0 0.01790150432213175 0.8209045308088816 0 0.04659050001329432 0.89573950801124 0 0.06471483925151142 0.9232245656744458 0 0.07978660685726718 0.9386833200980629 0 0.0951048304545162 0.9542475148876198 0 0.09828102538821155 0.9663563869846904 0 0.1015075316622406 0.9783678607351194 0 0.1125000000004681 1 0 0.1062326661197186 0.9895763886424092 0 0 0.7890740740747344 0 0 0.8014814814820662 0 0.007659093442914931 0.8202820314793933 0 0.02227705450974431 0.8309842618223773 0 0.02202689875334221 0.8434619980552149 0 0.02571825891251909 0.856169892888542 0 0.02911215142830518 0.8681297844468974 0 0.0315357402998424 0.8803542437635632 0 0.03462026341376217 0.8923886889499129 0 0.04967094306413345 0.9077852275307882 0 0.05273540869691458 0.9198564730730344 0 0.08287600192286949 0.9507572284106429 0 0.06778699467031299 0.9353065169369642 0 0 0.8138888888894696 0 0.01074513000985824 0.8325000000005205 0 0.03769968052101025 0.904429418002843 0 0.05579977783388466 0.931939818074342 0 0.07086319359666417 0.947384362133083 0 0.08608659081560746 0.9629228484949468 0 0.08916065113430738 0.9752000347505592 0 0.09227222597428753 0.9885597148028479 0 0.100000000000416 1 0 0 0.8262962962968513 0 0.01770561572859926 0.8518102171831601 0 0.01875915541070488 0.8632403583920208 0 0.02034439485101463 0.8758401374135636 0 0.02076919316726986 0.8886436952947043 0 0.02575998690260763 0.9009830937512879 0 0.04077539958299352 0.916470988621725 0 0.04381270144643876 0.9285847741211335 0 0.07395582531788775 0.9594607582112566 0 0.05886455095672643 0.9440254316574612 0 0 0.8387037037041897 0 0.01002328303499667 0.8458565171840371 0 0.02909798592562503 0.912949566729457 0 0.04687406775851119 0.9406689182216006 0 0.0619531440176161 0.9560959990339741 0 0.07714121067585246 0.971515167724912 0 0.07943590364363129 0.9832177419343823 0 0.08750000000036418 1 0 0.009662053718180319 0.8575520730495672 0 0.01001245782561081 0.8699400453703958 0 0.01044219763365858 0.8817253423951781 0 0.01325956570365577 0.8995281940375383 0 0.01739343366701016 0.9095806845869248 0 0.03222038846639559 0.9251037474380368 0 0.03488720476010115 0.9373136954777169 0 0.06558908641428862 0.9680334557918073 0 0.08125000000033818 0.9929679638900172 0 0.04995765635186382 0.9527315027309247 0 0 0.8511111111115713 0 0.008703089024414964 0.8912364162630086 0 0.02123199815931825 0.9214480505783628 0 0.03797180635735933 0.949369024750049 0 0.05307744545848875 0.9660859351652787 0 0.06813145604885813 0.9802582788149271 0 0.07009802327500628 0.9908281049000947 0 0.07500000000031215 1 0 0 0.8635185185189748 0 0 0.8759259259263066 0 0 0.8883333333336514 0 0.007873617364792189 0.9078283486372505 0 0 0.9007407407410539 0 0.009421965228062119 0.9179117840574111 0 0.02320504776089119 0.9339544180282857 0 0.02650796987679406 0.945877925860531 0 0.05919253807214573 0.9760649361390403 0 0.0410862517052975 0.9606406635366969 0 0.01073380927594345 0.930876165256734 0 0.03009778656144071 0.9575128649437478 0 0.04979204114993244 0.9782184916937982 0 0.05750603581596637 0.9878510050397877 0 0.06250000000026001 1 0 0 0.9131481481483843 0 0 0.9255555555557314 0 0.0130592160755195 0.9443848520232057 0 0.02031374233373963 0.9538813000641952 0 0.04344597509129785 0.9706739678370648 0 0.03278331588342595 0.9681158626801445 0 0 0.9379629629631597 0 0.02147332676903663 0.9641383566359855 0 0.03777573718367953 0.9789435439864175 0 0.04398138870488487 0.9889692833152208 0 0.05000000000020799 1 0 0 0.9503703703705487 0 0.01105407149022796 0.9573445012420315 0 0.02354467416136858 0.9776776440574957 0 0.01123701724687043 0.9703286271495909 0 0.03136482680520049 0.989238428595329 0 0.03750000000015596 1 0 0 0.962777777777879 0 0.01070907755474478 0.9817635815427359 0 0 0.9751851851852422 0 0.01889585481469781 0.9898221880465079 0 0.02500000000010405 1 0 0.009092035120625565 0.9909330519583848 0 0 0.9875925925926616 0 0.01250000000005203 1 0 0 1 0 </DataArray>
      </Points>
      <Cells>
        <DataArray type="Int32" Name="connectivity" format="ascii">0 1 2 1 3 2 4 0 2 3 5 2 6 0 4 5 4 2 3 7 5 6 4 8 4 5 9 7 10 5 11 6 8 8 4 9 5 12 9 7 13 10 5 10 12 14 11 8 15 8 9 12 16 9 10 13 17 13 18 17 12 10 19 20 11 14 14 8 15 16 15 9 21 16 12 10 17 19 18 22 17 18 23 22 21 12 19 20 14 24 25 14 15 16 25 15 21 26 16 19 17 27 17 22 27 22 23 28 23 29 28 30 21 19 31 20 24 14 32 24 32 14 25 16 26 25 33 26 21 30 19 27 22 34 27 22 28 34 28 29 35 33 21 30 36 31 24 32 36 24 37 32 25 26 37 25 38 26 33 34 30 27 34 28 39 29 40 35 28 35 39 33 30 41 42 31 36 32 43 36 37 43 32 38 37 26 38 33 44 30 34 41 45 34 39 40 46 35 39 35 47 40 48 46 48 49 50 44 33 41 51 42 36 43 52 36 53 43 37 53 37 38 54 38 44 34 45 41 55 45 39 35 46 47 55 39 47 46 48 50 49 56 50 49 57 56 58 44 41 59 42 51 52 51 36 60 52 43 60 43 53 53 38 54 61 54 44 45 58 41 55 62 45 46 63 47 63 55 47 46 50 64 50 56 65 56 57 66 57 67 66 67 68 69 58 61 44 59 51 70 51 52 71 60 72 52 60 53 73 73 53 54 61 74 54 62 58 45 75 62 55 63 46 64 75 55 63 64 50 65 56 76 65 56 66 76 67 69 66 69 68 77 68 78 77 58 79 61 80 59 70 51 71 70 52 72 71 81 72 60 81 60 73 74 73 54 82 74 61 62 79 58 83 62 75 84 63 64 75 63 84 85 64 65 76 85 65 76 66 86 66 69 86 87 69 77 78 88 77 79 82 61 80 70 89 71 90 70 72 91 71 92 72 81 81 73 93 73 74 93 82 94 74 83 79 62 83 75 95 85 84 64 95 75 84 85 76 96 76 86 96 86 69 87 87 77 97 78 98 88 77 88 97 99 82 79 100 80 89 70 90 89 91 90 71 92 91 72 92 81 101 101 81 93 74 94 93 102 94 82 99 79 83 103 83 95 85 104 84 104 95 84 105 85 96 86 106 96 86 87 107 87 97 108 88 98 109 97 88 110 98 111 109 111 112 113 102 82 99 114 100 89 89 90 115 91 116 90 92 117 91 118 92 101 119 101 93 94 119 93 102 120 94 99 83 103 121 103 95 105 104 85 104 121 95 106 105 96 106 86 107 107 87 108 108 97 122 88 109 110 122 97 110 109 111 113 112 123 113 112 124 123 102 99 125 126 100 114 114 89 115 90 116 115 91 117 116 118 117 92 118 101 127 101 119 127 94 120 119 128 120 102 99 103 125 103 121 129 105 130 104 104 130 121 131 105 106 132 106 107 133 107 108 134 108 122 109 135 110 135 122 110 136 109 113 123 136 113 123 124 137 124 138 137 139 140 141 138 139 142 128 102 125 126 114 143 144 114 115 116 144 115 116 117 145 118 146 117 147 118 127 119 148 127 119 120 148 128 149 120 125 103 129 121 150 129 131 130 105 130 150 121 131 106 132 133 132 107 134 133 108 151 134 122 136 135 109 135 151 122 136 123 152 123 137 152 137 138 142 139 141 142 141 140 153 140 154 153 155 128 125 156 126 143 114 144 143 116 145 144 117 146 145 147 146 118 157 147 127 148 157 127 120 149 148 158 149 128 155 125 129 150 159 129 131 160 130 130 160 150 161 131 132 133 162 132 163 133 134 151 164 134 136 165 135 135 165 151 166 136 152 137 167 152 137 142 168 142 141 169 170 141 153 154 171 153 158 128 155 172 156 143 143 144 173 145 174 144 146 175 145 176 146 147 177 147 157 157 148 178 148 149 178 158 179 149 159 155 129 150 180 159 161 160 131 150 160 180 162 161 132 163 162 133 164 163 134 164 151 181 166 165 136 151 165 181 167 166 152 167 137 168 168 142 169 169 141 170 171 170 153 171 154 182 154 183 182 158 155 184 185 156 172 172 143 173 144 174 173 175 174 145 176 175 146 176 147 177 177 157 186 157 178 186 149 179 178 187 179 158 184 155 159 180 188 159 161 189 160 160 189 180 162 190 161 163 191 162 192 163 164 193 164 181 166 194 165 165 194 181 195 166 167 196 167 168 197 168 169 198 169 170 171 199 170 200 171 182 183 201 182 183 202 201 187 158 184 185 172 203 172 173 204 174 205 173 175 206 174 207 175 176 176 177 208 209 177 186 178 210 186 179 210 178 187 211 179 188 184 159 212 188 180 161 190 189 189 212 180 162 191 190 192 191 163 192 164 193 213 193 181 195 194 166 194 213 181 195 167 196 197 196 168 198 197 169 199 198 170 200 199 171 201 200 182 201 202 214 202 215 214 216 187 184 217 185 203 203 172 204 173 205 204 174 206 205 207 206 175 207 176 208 208 177 209 218 209 186 210 218 186 179 211 210 219 211 187 188 216 184 212 220 188 189 190 221 189 221 212 190 191 222 192 223 191 224 192 193 213 225 193 226 194 195 226 213 194 227 195 196 197 228 196 229 197 198 199 230 198 231 199 200 200 201 232 233 201 214 215 234 214 201 233 232 215 235 234 235 236 237 219 187 216 238 217 203 239 203 204 205 239 204 206 240 205 207 241 206 242 207 208 243 208 209 218 244 209 218 210 245 210 211 245 219 246 211 188 220 216 212 247 220 221 190 222 212 221 247 191 223 222 224 223 192 225 224 193 248 225 213 226 195 227 248 213 226 228 227 196 229 228 197 230 229 198 231 230 199 231 200 249 249 200 232 234 233 214 233 250 232 235 237 234 237 236 251 236 252 251 253 219 216 254 217 238 238 203 255 203 239 255 205 240 239 206 241 240 242 241 207 243 242 208 244 243 209 256 244 218 256 218 245 211 246 245 257 246 219 220 253 216 220 247 258 259 221 222 247 221 259 223 260 222 224 261 223 225 262 224 263 225 248 264 226 227 248 226 264 228 265 227 229 266 228 267 229 230 268 230 231 269 231 249 250 249 232 270 233 234 270 250 233 234 237 271 272 237 251 251 252 273 252 274 273 274 275 276 257 219 253 254 238 277 278 238 255 239 279 255 240 279 239 240 241 280 242 281 241 282 242 243 283 243 244 284 244 256 256 245 285 245 246 285 257 286 246 253 220 258 247 287 258 260 259 222 247 259 287 223 261 260 224 262 261 263 262 225 263 248 288 265 264 227 248 264 288 228 266 265 267 266 229 267 230 268 268 231 269 289 269 249 250 289 249 270 234 271 290 250 270 237 272 271 291 272 251 291 251 273 274 276 273 276 275 292 275 293 292 257 253 294 295 254 277 238 278 277 296 278 255 279 296 255 279 240 280 241 281 280 282 281 242 282 243 283 283 244 284 284 256 297 256 285 297 246 286 285 298 286 257 294 253 258 287 299 258 260 300 259 259 300 287 260 261 301 261 262 302 263 303 262 304 263 288 305 264 265 288 264 305 266 306 265 307 266 267 267 268 308 309 268 269 289 310 269 290 289 250 311 270 271 290 270 311 272 312 271 291 313 272 314 291 273 276 314 273 276 292 315 292 293 316 298 257 294 317 295 277 278 317 277 296 318 278 319 296 279 319 279 280 281 320 280 321 281 282 282 283 322 283 284 323 324 284 297 285 325 297 286 325 285 298 326 286 299 294 258 327 299 287 260 301 300 300 327 287 301 261 302 262 303 302 304 303 263 328 304 288 306 305 265 328 288 305 307 306 266 307 267 308 308 268 309 310 309 269 289 329 310 290 329 289 312 311 271 330 290 311 272 313 312 314 313 291 314 276 315 315 292 331 293 332 316 292 316 331 333 298 294 334 295 317 278 318 317 296 335 318 319 335 296 320 319 280 321 320 281 321 282 322 322 283 323 323 284 324 336 324 297 325 336 297 286 326 325 337 326 298 299 333 294 327 338 299 300 301 339 300 339 327 301 302 340 303 341 302 304 342 303 328 343 304 306 344 305 344 328 305 345 306 307 346 307 308 347 308 309 310 348 309 310 329 349 330 329 290 312 350 311 350 330 311 313 351 312 352 313 314 353 314 315 354 315 331 332 355 316 316 356 331 332 357 355 357 358 359 337 298 333 360 334 317 317 318 361 318 335 362 319 363 335 320 363 319 364 320 321 365 321 322 366 322 323 367 323 324 336 368 324 325 369 336 325 326 369 337 370 326 299 338 333 327 371 338 339 301 340 327 339 371 302 341 340 303 342 341 304 343 342 328 372 343 345 344 306 344 372 328 345 307 346 346 308 347 348 347 309 310 349 348 329 373 349 330 373 329 351 350 312 374 330 350 352 351 313 352 314 353 354 353 315 354 331 375 316 355 356 331 356 375 355 357 359 358 376 359 358 377 376 378 337 333 379 334 360 360 317 361 361 318 362 362 335 380 335 363 380 364 363 320 364 321 365 366 365 322 367 366 323 368 367 324 368 336 381 336 369 381 326 370 369 382 370 337 338 378 333 338 371 383 384 339 340 339 384 371 341 385 340 341 342 386 342 343 387 343 372 388 389 344 345 389 372 344 345 346 390 391 346 347 348 392 347 349 393 348 373 394 349 374 373 330 395 350 351 374 350 395 396 351 352 397 352 353 354 398 353 399 354 375 356 355 400 356 401 375 402 355 359 359 376 403 376 377 404 377 405 404 405 406 407 382 337 378 379 360 408 360 361 409 410 361 362 411 362 380 363 412 380 364 412 363 413 364 365 366 414 365 367 415 366 416 367 368 417 368 381 369 418 381 369 370 418 382 419 370 378 338 383 371 420 383 385 384 340 371 384 420 341 386 385 386 342 387 343 388 387 372 421 388 389 345 390 389 421 372 390 346 391 392 391 347 393 392 348 394 393 349 422 394 373 422 373 374 395 351 396 374 395 423 396 352 397 398 397 353 399 398 354 401 399 375 355 402 400 401 356 400 402 359 403 376 424 403 376 404 424 405 407 404 407 406 425 406 426 425 382 378 427 428 379 408 408 360 409 361 410 409 410 362 411 429 411 380 412 429 380 413 412 364 414 413 365 415 414 366 416 415 367 416 368 417 430 417 381 418 430 381 370 419 418 431 419 382 427 378 383 420 432 383 385 433 384 384 433 420 385 386 434 435 386 387 388 436 387 388 421 437 438 389 390 438 421 389 439 390 391 392 440 391 393 441 392 442 393 394 443 394 422 422 374 423 395 396 444 423 395 444 445 396 397 398 446 397 399 447 398 448 399 401 402 449 400 449 401 400 450 402 403 424 450 403 404 451 424 407 451 404 407 425 452 426 453 425 426 454 453 454 455 456 431 382 427 457 428 408 408 409 458 410 459 409 460 410 411 461 411 429 412 462 429 413 462 412 463 413 414 464 414 415 465 415 416 466 416 417 430 467 417 418 468 430 419 468 418 431 469 419 432 427 383 470 432 420 385 434 433 433 470 420 434 386 435 436 435 387 436 388 437 421 471 437 439 438 390 438 471 421 440 439 391 392 441 440 442 441 393 442 394 443 443 422 472 472 422 423 444 396 445 473 423 444 446 445 397 398 447 446 448 447 399 448 401 474 450 449 402 474 401 449 450 424 475 424 451 475 451 407 452 452 425 476 425 453 476 453 454 456 455 477 456 455 478 477 479 431 427 480 428 457 457 408 458 409 459 458 460 459 410 461 460 411 481 461 429 462 481 429 463 462 413 463 414 464 464 415 465 465 416 466 467 466 417 430 482 467 430 468 482 419 469 468 483 469 431 432 479 427 470 484 432 433 434 485 433 485 470 434 435 486 487 435 436 488 436 437 471 489 437 490 438 439 490 471 438 491 439 440 441 492 440 493 441 442 442 443 494 443 472 495 472 423 473 496 444 445 496 473 444 446 497 445 447 498 446 499 447 448 448 474 500 501 449 450 474 449 501 502 450 475 451 503 475 504 451 452 505 452 476 453 506 476 453 456 506 456 477 507 477 478 508 478 509 508 483 431 479 480 457 510 457 458 511 459 512 458 460 513 459 461 514 460 481 515 461 516 481 462 516 462 463 463 464 517 464 465 518 465 466 519 466 467 520 482 521 467 482 468 522 468 469 522 483 523 469 432 484 479 470 524 484 485 434 486 470 485 524 486 435 487 487 436 488 489 488 437 471 525 489 491 490 439 490 525 471 492 491 440 493 492 441 493 442 494 494 443 495 495 472 526 526 472 473 497 496 445 496 527 473 498 497 446 499 498 447 499 448 500 474 528 500 501 450 502 474 501 528 503 502 475 504 503 451 505 504 452 505 476 529 476 506 529 506 456 507 507 477 530 531 477 508 509 532 508 509 533 532 533 534 535 536 483 479 537 480 510 510 457 511 458 512 511 459 513 512 460 514 513 461 515 514 481 538 515 516 538 481 516 463 517 464 518 517 518 465 519 519 466 520 467 521 520 482 539 521 482 522 539 469 523 522 540 523 483 484 536 479 484 524 541 542 485 486 524 485 542 486 487 543 544 487 488 489 545 488 489 525 546 491 547 490 490 547 525 492 548 491 549 492 493 550 493 494 551 494 495 552 495 526 527 526 473 497 553 496 496 553 527 498 554 497 555 498 499 499 500 556 500 528 557 558 501 502 528 501 558 503 559 502 504 560 503 561 504 505 562 505 529 506 563 529 563 506 507 477 531 530 564 507 530 532 531 508 532 533 535 534 565 535 534 566 565 540 483 536 537 510 567 568 510 511 512 568 511 512 513 569 513 514 570 514 515 571 515 538 572 573 538 516 573 516 517 517 518 574 575 518 519 576 519 520 521 577 520 539 578 521 522 579 539 523 579 522 540 580 523 536 484 541 524 581 541 542 486 543 581 524 542 487 544 543 545 544 488 489 546 545 546 525 582 491 548 547 525 547 582 549 548 492 549 493 550 551 550 494 552 551 495 583 552 526 527 583 526 497 554 553 527 553 584 555 554 498 555 499 556 556 500 557 528 585 557 559 558 502 528 558 585 503 560 559 561 560 504 561 505 562 563 562 529 564 563 507 531 586 530 586 564 530 532 587 531 588 532 535 535 565 589 565 566 590 566 591 590 540 536 592 593 537 567 510 568 567 568 512 569 513 570 569 514 571 570 571 515 572 538 594 572 573 594 538 573 517 574 574 518 575 576 575 519 577 576 520 521 578 577 595 578 539 579 595 539 523 580 579 596 580 540 592 536 541 581 597 541 598 542 543 598 581 542 544 599 543 545 600 544 545 546 601 602 546 582 547 548 603 547 603 582 549 604 548 605 549 550 551 606 550 552 607 551 608 552 583 527 584 583 553 554 609 584 553 609 555 610 554 611 555 556 612 556 557 585 613 557 614 558 559 585 558 614 560 615 559 561 616 560 617 561 562 618 562 563 564 619 563 587 586 531 586 620 564 587 532 588 588 535 589 565 621 589 622 565 590 591 623 590 624 625 626 591 624 627 596 540 592 628 593 567 568 629 567 630 568 569 570 631 569 571 632 570 633 571 572 594 634 572 635 594 573 635 573 574 636 574 575 576 637 575 638 576 577 578 639 577 640 578 595 595 579 641 579 580 641 596 642 580 597 592 541 581 643 597 599 598 543 598 643 581 544 600 599 545 601 600 601 546 602 644 602 582 548 604 603 603 644 582 605 604 549 606 605 550 551 607 606 608 607 552 645 608 583 584 645 583 554 610 609 584 609 646 611 610 555 612 611 556 613 612 557 613 585 647 615 614 559 647 585 614 560 616 615 617 616 561 618 617 562 619 618 563 564 620 619 648 586 587 648 620 586 587 588 649 650 588 589 565 622 621 621 650 589 623 622 590 623 591 627 624 626 627 626 625 651 625 652 651 653 596 592 654 593 628 629 628 567 630 629 568 631 630 569 632 631 570 632 571 633 634 633 572 594 655 634 635 655 594 636 635 574 637 636 575 638 637 576 639 638 577 640 639 578 640 595 656 595 641 656 580 642 641 657 642 596 597 653 592 597 643 658 659 598 599 659 643 598 600 660 599 600 601 661 601 602 662 602 644 663 603 604 664 603 664 644 605 665 604 666 605 606 607 667 606 668 607 608 669 608 645 584 646 645 610 670 609 609 670 646 611 671 610 672 611 612 613 673 612 674 613 647 615 675 614 675 647 614 615 616 676 617 677 616 678 617 618 679 618 619 620 680 619 648 587 649 681 620 648 649 588 650 622 682 621 682 650 621 623 683 622 684 623 627 626 684 627 626 651 685 652 686 651 652 687 686 657 596 653 654 628 688 689 628 629 630 689 629 631 690 630 691 631 632 632 633 692 693 633 634 655 694 634 695 655 635 695 635 636 696 636 637 697 637 638 698 638 639 699 639 640 700 640 656 641 701 656 642 701 641 657 702 642 653 597 658 643 703 658 660 659 599 659 703 643 600 661 660 661 601 662 662 602 663 644 704 663 604 665 664 644 664 704 666 665 605 667 666 606 668 667 607 668 608 669 705 669 645 646 705 645 610 671 670 646 670 706 672 671 611 673 672 612 674 673 613 707 674 647 615 676 675 675 707 647 616 677 676 678 677 617 678 618 679 680 679 619 681 680 620 648 649 708 681 648 708 649 650 709 683 682 622 650 682 709 684 683 623 684 626 685 685 651 710 651 686 710 686 687 711 657 653 712 713 654 688 628 714 688 628 689 714 630 690 689 691 690 631 691 632 692 633 693 692 694 693 634 715 694 655 715 655 695 695 636 696 696 637 697 697 638 698 698 639 699 699 640 700 700 656 716 656 701 716 642 702 701 717 702 657 712 653 658 703 718 658 660 719 659 659 719 703 660 661 720 721 661 662 722 662 663 704 723 663 665 724 664 664 724 704 666 725 665 667 726 666 668 727 667 728 668 669 729 669 705 646 706 705 670 671 730 706 670 730 672 731 671 732 672 673 733 673 674 734 674 707 676 735 675 735 707 675 676 677 736 678 737 677 738 678 679 680 739 679 740 680 681 649 741 708 742 681 708 741 649 709 683 743 682 682 744 709 745 683 684 746 684 685 747 685 710 710 686 748 687 749 711 686 711 748 749 750 751 717 657 712 752 713 688 688 714 753 714 689 754 689 690 755 691 756 690 757 691 692 693 758 692 694 759 693 760 694 715 715 695 761 695 696 761 696 697 762 697 698 763 698 699 764 699 700 765 766 700 716 701 767 716 701 702 767 717 768 702 718 712 658 703 769 718 660 720 719 703 719 769 720 661 721 722 721 662 723 722 663 770 723 704 665 725 724 724 770 704 666 726 725 667 727 726 728 727 668 729 728 669 771 729 705 706 771 705 671 731 730 772 706 730 732 731 672 732 673 733 733 674 734 734 707 773 735 676 736 773 707 735 677 737 736 738 737 678 739 738 679 740 739 680 740 681 742 741 774 708 774 742 708 744 741 709 745 743 683 682 743 744 745 684 746 747 746 685 775 747 710 775 710 748 749 751 711 711 776 748 751 750 777 750 778 777 779 717 712 780 713 752 752 688 753 714 781 753 754 689 755 714 754 781 690 756 755 757 756 691 758 757 692 759 758 693 760 759 694 760 715 782 715 761 782 696 762 761 697 763 762 763 698 764 764 699 765 765 700 766 783 766 716 767 783 716 702 768 767 784 768 717 718 779 712 718 769 785 719 720 786 769 719 786 720 721 787 788 721 722 722 723 789 770 790 723 724 725 791 770 724 791 725 726 792 726 727 793 728 794 727 795 728 729 796 729 771 706 772 771 731 797 730 797 772 730 798 731 732 732 733 799 733 734 800 734 773 801 802 735 736 773 735 802 737 803 736 738 804 737 805 738 739 806 739 740 807 740 742 808 774 741 774 809 742 808 741 744 810 743 745 743 811 744 812 745 746 747 813 746 814 747 775 776 775 748 751 776 711 815 751 777 778 816 777 778 817 816 784 717 779 818 780 752 819 752 753 781 819 753 820 754 755 781 754 821 756 820 755 757 822 756 758 823 757 759 824 758 760 825 759 826 760 782 782 761 827 761 762 827 762 763 828 829 763 764 830 764 765 831 765 766 783 832 766 767 833 783 768 833 767 784 834 768 779 718 785 769 835 785 720 787 786 835 769 786 787 721 788 788 722 789 723 790 789 836 790 770 725 792 791 836 770 791 792 726 793 727 794 793 795 794 728 795 729 796 837 796 771 772 837 771 798 797 731 797 838 772 798 732 799 733 800 799 734 801 800 801 773 839 803 802 736 839 773 802 737 804 803 805 804 738 805 739 806 806 740 807 809 807 742 808 840 774 774 840 809 811 808 744 810 811 743 810 745 812 813 812 746 814 813 747 841 814 775 776 841 775 776 751 842 751 815 842 816 815 777 817 843 816 817 844 843 784 779 845 846 780 818 818 752 819 781 847 819 754 820 821 847 781 821 756 822 820 757 823 822 758 824 823 759 825 824 826 825 760 848 826 782 848 782 827 827 762 828 828 763 829 830 829 764 831 830 765 832 831 766 849 832 783 833 849 783 768 834 833 850 834 784 845 779 785 835 851 785 787 852 786 852 835 786 853 787 788 854 788 789 790 855 789 856 790 836 792 857 791 857 836 791 792 793 858 793 794 859 795 860 794 861 795 796 837 862 796 772 838 837 863 797 798 863 838 797 864 798 799 800 865 799 801 866 800 801 839 867 802 803 868 839 802 868 804 869 803 870 804 805 805 806 871 806 807 872 873 807 809 808 874 840 840 875 809 811 874 808 810 876 811 877 810 812 813 878 812 814 879 813 880 814 841 881 841 776 881 776 842 815 882 842 883 815 816 816 843 884 843 844 885 844 886 885 850 784 845 846 818 887 818 819 888 847 889 819 820 890 821 890 847 821 820 822 891 822 823 892 823 824 893 824 825 894 826 895 825 896 826 848 897 848 827 897 827 828 898 828 829 830 899 829 831 900 830 901 831 832 902 832 849 849 833 903 833 834 903 850 904 834 851 845 785 835 905 851 787 853 852 852 905 835 854 853 788 855 854 789 856 855 790 856 836 906 857 792 858 906 836 857 793 859 858 794 860 859 861 860 795 862 861 796 907 862 837 838 907 837 863 798 864 908 838 863 865 864 799 800 866 865 801 867 866 867 839 909 803 869 868 909 839 868 870 869 804 870 805 871 806 872 871 872 807 873 875 873 809 840 874 910 840 910 875 811 876 874 877 876 810 878 877 812 813 879 878 880 879 814 880 841 911 911 841 881 882 881 842 883 882 815 883 816 884 884 843 912 843 885 912 886 913 885 914 850 845 915 846 887 887 818 888 819 889 888 916 889 847 820 891 890 916 847 890 891 822 892 823 893 892 893 824 894 825 895 894 896 895 826 917 896 848 897 917 848 898 897 828 899 898 829 830 900 899 901 900 831 901 832 902 902 849 918 849 903 918 834 904 903 919 904 850 851 914 845 851 905 920 853 921 852 921 905 852 854 922 853 855 923 854 924 855 856 856 906 925 926 857 858 906 857 926 859 927 858 860 928 859 861 929 860 862 930 861 907 931 862 908 907 838 863 864 932 908 863 932 933 864 865 866 934 865 866 867 935 936 867 909 869 937 868 937 909 868 870 938 869 939 870 871 871 872 940 941 872 873 875 942 873 910 874 943 910 944 875 874 876 943 877 945 876 946 877 878 879 947 878 948 879 880 880 911 949 911 881 950 950 881 882 951 882 883 952 883 884 953 884 912 912 885 954 886 955 913 885 913 954 919 850 914 956 915 887 957 887 888 889 957 888 916 958 889 891 959 890 959 916 890 960 891 892 893 961 892 893 894 962 894 895 963 896 964 895 965 896 917 966 917 897 966 897 898 899 967 898 900 968 899 969 900 901 901 902 970 971 902 918 903 972 918 904 972 903 919 973 904 914 851 920 905 974 920 853 922 921 921 974 905 854 923 922 924 923 855 924 856 925 925 906 975 927 926 858 975 906 926 859 928 927 860 929 928 861 930 929 862 931 930 976 931 907 976 907 908 864 933 932 908 932 977 934 933 865 866 935 934 935 867 936 978 936 909 869 938 937 937 978 909 939 938 870 939 871 940 940 872 941 942 941 873 944 942 875 910 943 979 944 910 979 876 945 943 946 945 877 947 946 878 948 947 879 948 880 949 911 980 949 911 950 980 950 882 951 951 883 952 953 952 884 981 953 912 981 912 954 913 955 982 913 983 954 955 984 982 919 914 985 986 915 956 957 956 887 889 958 957 987 958 916 891 960 959 987 916 959 961 960 892 961 893 962 894 963 962 895 964 963 965 964 896 965 917 988 988 917 966 967 966 898 968 967 899 969 968 900 969 901 970 970 902 971 989 971 918 972 989 918 904 973 972 990 973 919 985 914 920 974 991 920 921 922 992 921 992 974 922 923 993 924 994 923 995 924 925 996 925 975 927 997 926 997 975 926 928 998 927 928 929 999 929 930 1000 930 931 1001 976 1002 931 976 908 977 932 933 1003 977 932 1003 934 1004 933 934 935 1005 935 936 1006 936 978 1007 937 938 1008 937 1008 978 939 1009 938 1010 939 940 1011 940 941 942 1012 941 1013 942 944 943 1014 979 1015 944 979 945 1014 943 1016 945 946 1017 946 947 1018 947 948 1019 948 949 980 1020 949 980 950 1021 1021 950 951 1022 951 952 953 1023 952 981 1024 953 983 981 954 913 982 1025 983 913 1025 984 1026 982 984 1027 1026 1028 1029 1030 1031 1028 1032 1027 1031 1033 990 919 985 986 956 1034 956 957 1035 958 1036 957 987 1037 958 960 1038 959 1038 987 959 1039 960 961 1040 961 962 963 1041 962 964 1042 963 1043 964 965 965 988 1044 988 966 1045 1045 966 967 1046 967 968 1047 968 969 1048 969 970 970 971 1049 989 1050 971 972 1051 989 972 973 1051 990 1052 973 991 985 920 974 1053 991 992 922 993 974 992 1053 923 994 993 995 994 924 996 995 925 1054 996 975 998 997 927 997 1054 975 928 999 998 999 929 1000 930 1001 1000 931 1002 1001 1055 1002 976 1055 976 977 933 1004 1003 1056 977 1003 934 1005 1004 1005 935 1006 1006 936 1007 978 1057 1007 938 1009 1008 1008 1057 978 1010 1009 939 1011 1010 940 1012 1011 941 1013 1012 942 1015 1013 944 1014 1058 979 1058 1015 979 1016 1014 945 1016 946 1017 1017 947 1018 1018 948 1019 1020 1019 949 1020 980 1059 980 1021 1059 1021 951 1022 1023 1022 952 1024 1023 953 1060 1024 981 1060 981 983 982 1061 1025 1062 983 1025 982 1026 1061 1026 1027 1033 1028 1030 1032 1030 1029 1063 1033 1031 1032 1029 1064 1063 1065 990 985 1066 986 1034 1034 956 1035 957 1036 1035 958 1037 1036 987 1067 1037 1039 1038 960 1038 1067 987 1039 961 1040 1041 1040 962 963 1042 1041 1043 1042 964 1043 965 1044 988 1068 1044 988 1045 1068 1045 967 1046 1046 968 1047 1047 969 1048 1048 970 1049 971 1050 1049 989 1069 1050 989 1051 1069 973 1052 1051 1070 1052 990 991 1065 985 991 1053 1071 1072 992 993 1053 992 1072 994 1073 993 995 1074 994 1075 995 996 1054 1076 996 998 1077 997 997 1077 1054 998 999 1078 1079 999 1000 1001 1080 1000 1002 1081 1001 1055 1082 1002 1056 1055 977 1004 1083 1003 1083 1056 1003 1004 1005 1084 1085 1005 1006 1086 1006 1007 1057 1087 1007 1009 1088 1008 1008 1088 1057 1089 1009 1010 1090 1010 1011 1091 1011 1012 1092 1012 1013 1093 1013 1015 1094 1058 1014 1095 1015 1058 1094 1014 1016 1016 1017 1096 1017 1018 1097 1018 1019 1098 1099 1019 1020 1100 1020 1059 1059 1021 1101 1101 1021 1022 1023 1102 1022 1024 1103 1023 1060 1104 1024 1060 983 1062 1061 1062 1025 1061 1026 1105 1105 1026 1033 1032 1030 1106 1030 1063 1107 1108 1033 1032 1063 1064 1109 1064 1110 1109 1110 1111 1112 1070 990 1065 1113 1066 1034 1034 1035 1114 1036 1115 1035 1036 1037 1116 1037 1067 1117 1118 1038 1039 1118 1067 1038 1119 1039 1040 1041 1120 1040 1041 1042 1121 1043 1122 1042 1123 1043 1044 1044 1068 1124 1045 1125 1068 1045 1046 1125 1046 1047 1126 1047 1048 1127 1128 1048 1049 1050 1129 1049 1069 1130 1050 1051 1131 1069 1052 1131 1051 1070 1132 1052 1065 991 1071 1053 1133 1071 1073 1072 993 1053 1072 1133 994 1074 1073 1075 1074 995 1076 1075 996 1134 1076 1054 998 1078 1077 1077 1134 1054 1078 999 1079 1080 1079 1000 1001 1081 1080 1002 1082 1081 1135 1082 1055 1135 1055 1056 1004 1084 1083 1056 1083 1136 1084 1005 1085 1085 1006 1086 1087 1086 1007 1137 1087 1057 1089 1088 1009 1088 1137 1057 1089 1010 1090 1090 1011 1091 1091 1012 1092 1092 1013 1093 1093 1015 1095 1138 1058 1094 1095 1058 1138 1094 1016 1096 1017 1097 1096 1018 1098 1097 1098 1019 1099 1099 1020 1100 1139 1100 1059 1139 1059 1101 1102 1101 1022 1023 1103 1102 1024 1104 1103 1140 1104 1060 1140 1060 1062 1062 1061 1141 1061 1105 1141 1105 1033 1108 1106 1030 1107 1108 1032 1106 1107 1063 1142 1063 1109 1142 1110 1112 1109 1112 1111 1143 1111 1144 1143 1070 1065 1145 1146 1066 1113 1113 1034 1114 1035 1115 1114 1036 1116 1115 1116 1037 1117 1067 1147 1117 1118 1039 1119 1118 1147 1067 1120 1119 1040 1120 1041 1121 1042 1122 1121 1123 1122 1043 1123 1044 1124 1124 1068 1148 1068 1125 1148 1125 1046 1126 1047 1127 1126 1127 1048 1128 1129 1128 1049 1050 1130 1129 1149 1130 1069 1131 1149 1069 1052 1132 1131 1150 1132 1070 1145 1065 1071 1133 1151 1071 1072 1073 1152 1133 1072 1152 1073 1074 1153 1075 1154 1074 1076 1155 1075 1134 1156 1076 1077 1078 1157 1077 1157 1134 1078 1079 1158 1079 1080 1159 1081 1160 1080 1081 1082 1161 1135 1162 1082 1135 1056 1136 1083 1084 1163 1136 1083 1163 1084 1085 1164 1165 1085 1086 1087 1166 1086 1137 1167 1087 1168 1088 1089 1168 1137 1088 1089 1090 1169 1090 1091 1170 1091 1092 1171 1092 1093 1172 1093 1095 1173 1138 1094 1174 1095 1138 1175 1094 1096 1174 1096 1097 1176 1097 1098 1177 1098 1099 1178 1179 1099 1100 1139 1180 1100 1181 1139 1101 1102 1181 1101 1102 1103 1182 1103 1104 1183 1140 1184 1104 1185 1140 1062 1185 1062 1141 1105 1186 1141 1105 1108 1186 1187 1106 1107 1188 1108 1106 1189 1107 1142 1109 1190 1142 1109 1112 1190 1112 1143 1191 1144 1192 1143 1150 1070 1145 1146 1113 1193 1194 1113 1114 1115 1194 1114 1115 1116 1195 1116 1117 1196 1147 1197 1117 1198 1118 1119 1198 1147 1118 1120 1199 1119 1200 1120 1121 1122 1201 1121 1202 1122 1123 1203 1123 1124 1204 1124 1148 1148 1125 1205 1125 1126 1205 1126 1127 1206 1207 1127 1128 1208 1128 1129 1130 1209 1129 1210 1130 1149 1149 1131 1211 1131 1132 1211 1150 1212 1132 1151 1145 1071 1133 1213 1151 1152 1073 1153 1213 1133 1152 1074 1154 1153 1075 1155 1154 1076 1156 1155 1134 1214 1156 1157 1078 1158 1134 1157 1214 1158 1079 1159 1080 1160 1159 1160 1081 1161 1082 1162 1161 1215 1162 1135 1215 1135 1136 1163 1084 1164 1216 1136 1163 1164 1085 1165 1166 1165 1086 1087 1167 1166 1217 1167 1137 1168 1089 1169 1217 1137 1168 1090 1170 1169 1091 1171 1170 1171 1092 1172 1172 1093 1173 1095 1175 1173 1218 1138 1174 1175 1138 1218 1174 1096 1176 1176 1097 1177 1177 1098 1178 1178 1099 1179 1180 1179 1100 1219 1180 1139 1219 1139 1181 1102 1182 1181 1182 1103 1183 1104 1184 1183 1220 1184 1140 1220 1140 1185 1185 1141 1221 1141 1186 1221 1186 1108 1222 1187 1188 1106 1189 1187 1107 1108 1188 1222 1190 1189 1142 1190 1112 1191 1191 1143 1223 1144 1224 1192 1143 1192 1223 1225 1150 1145 1226 1146 1193 1113 1227 1193 1227 1113 1194 1194 1115 1195 1116 1196 1195 1117 1197 1196 1147 1228 1197 1199 1198 1119 1198 1228 1147 1200 1199 1120 1201 1200 1121 1202 1201 1122 1202 1123 1203 1204 1203 1124 1229 1204 1148 1229 1148 1205 1126 1206 1205 1206 1127 1207 1208 1207 1128 1209 1208 1129 1210 1209 1130 1210 1149 1230 1149 1211 1230 1132 1212 1211 1231 1212 1150 1151 1225 1145 1151 1213 1232 1233 1152 1153 1233 1213 1152 1154 1234 1153 1154 1155 1235 1155 1156 1236 1156 1214 1237 1238 1157 1158 1214 1157 1238 1239 1158 1159 1160 1240 1159 1241 1160 1161 1162 1242 1161 1215 1243 1162 1216 1215 1136 1244 1163 1164 1244 1216 1163 1245 1164 1165 1166 1246 1165 1167 1247 1166 1248 1167 1217 1249 1168 1169 1217 1168 1249 1170 1250 1169 1170 1171 1251 1252 1171 1172 1253 1172 1173 1175 1254 1173 1255 1218 1174 1175 1218 1256 1255 1174 1176 1257 1176 1177 1258 1177 1178 1259 1178 1179 1180 1260 1179 1219 1261 1180 1262 1219 1181 1182 1262 1181 1263 1182 1183 1184 1264 1183 1220 1265 1184 1220 1185 1266 1266 1185 1221 1186 1267 1221 1267 1186 1222 1187 1268 1188 1269 1187 1189 1188 1270 1222 1189 1190 1271 1272 1190 1191 1273 1191 1223 1192 1224 1274 1192 1275 1223 1224 1276 1274 1231 1150 1225 1226 1193 1277 1227 1278 1193 1279 1227 1194 1279 1194 1195 1196 1280 1195 1196 1197 1281 1197 1228 1282 1199 1283 1198 1198 1283 1228 1200 1284 1199 1201 1285 1200 1202 1286 1201 1287 1202 1203 1204 1288 1203 1229 1289 1204 1290 1229 1205 1206 1290 1205 1291 1206 1207 1208 1292 1207 1209 1293 1208 1294 1209 1210 1295 1210 1230 1211 1296 1230 1212 1296 1211 1231 1297 1212 1225 1151 1232 1213 1298 1232 1234 1233 1153 1233 1298 1213 1154 1235 1234 1235 1155 1236 1156 1237 1236 1237 1214 1299 1239 1238 1158 1299 1214 1238 1240 1239 1159 1241 1240 1160 1242 1241 1161 1162 1243 1242 1215 1300 1243 1216 1300 1215 1245 1244 1164 1301 1216 1244 1246 1245 1165 1166 1247 1246 1248 1247 1167 1248 1217 1302 1250 1249 1169 1217 1249 1302 1250 1170 1251 1171 1252 1251 1253 1252 1172 1254 1253 1173 1175 1256 1254 1303 1218 1255 1256 1218 1303 1255 1176 1257 1258 1257 1177 1259 1258 1178 1260 1259 1179 1180 1261 1260 1304 1261 1219 1304 1219 1262 1263 1262 1182 1264 1263 1183 1184 1265 1264 1305 1265 1220 1305 1220 1266 1267 1266 1221 1270 1267 1222 1269 1268 1187 1188 1268 1270 1269 1189 1271 1190 1272 1271 1273 1272 1191 1273 1223 1306 1192 1274 1275 1223 1275 1306 1274 1276 1307 1276 1308 1307 1231 1225 1309 1310 1226 1277 1193 1278 1277 1227 1311 1278 1279 1311 1227 1280 1279 1195 1280 1196 1281 1197 1282 1281 1228 1312 1282 1199 1284 1283 1228 1283 1312 1200 1285 1284 1201 1286 1285 1287 1286 1202 1288 1287 1203 1204 1289 1288 1313 1289 1229 1313 1229 1290 1290 1206 1291 1292 1291 1207 1208 1293 1292 1294 1293 1209 1294 1210 1295 1314 1295 1230 1296 1314 1230 1212 1297 1296 1315 1297 1231 1309 1225 1232 1298 1316 1232 1234 1317 1233 1233 1317 1298 1234 1235 1318 1235 1236 1319 1237 1320 1236 1237 1299 1321 1239 1322 1238 1322 1299 1238 1323 1239 1240 1241 1324 1240 1242 1325 1241 1242 1243 1326 1243 1300 1327 1301 1300 1216 1245 1328 1244 1328 1301 1244 1329 1245 1246 1247 1330 1246 1331 1247 1248 1248 1302 1332 1333 1249 1250 1249 1333 1302 1334 1250 1251 1252 1335 1251 1253 1336 1252 1337 1253 1254 1256 1338 1254 1303 1255 1339 1256 1303 1340 1339 1255 1257 1258 1341 1257 1259 1342 1258 1343 1259 1260 1261 1344 1260 1345 1261 1304 1304 1262 1346 1346 1262 1263 1263 1264 1347 1265 1348 1264 1305 1349 1265 1350 1305 1266 1267 1350 1266 1351 1267 1270 1269 1352 1268 1268 1353 1270 1354 1269 1271 1272 1355 1271 1356 1272 1273 1357 1273 1306 1275 1274 1358 1275 1359 1306 1360 1274 1307 1308 1361 1307 1315 1231 1309 1362 1310 1277 1278 1362 1277 1278 1311 1363 1364 1311 1279 1364 1279 1280 1365 1280 1281 1282 1366 1281 1282 1312 1367 1283 1284 1368 1312 1283 1368 1284 1285 1369 1285 1286 1370 1287 1371 1286 1372 1287 1288 1289 1373 1288 1374 1289 1313 1313 1290 1375 1375 1290 1291 1292 1376 1291 1293 1377 1292 1378 1293 1294 1379 1294 1295 1314 1380 1295 1296 1381 1314 1296 1297 1381 1315 1382 1297 1316 1309 1232 1298 1383 1316 1234 1318 1317 1298 1317 1383 1318 1235 1319 1236 1320 1319 1237 1321 1320 1321 1299 1384 1323 1322 1239 1384 1299 1322 1324 1323 1240 1241 1325 1324 1242 1326 1325 1326 1243 1327 1300 1385 1327 1301 1385 1300 1329 1328 1245 1328 1386 1301 1330 1329 1246 1331 1330 1247 1331 1248 1332 1302 1387 1332 1334 1333 1250 1333 1387 1302 1335 1334 1251 1252 1336 1335 1337 1336 1253 1338 1337 1254 1256 1340 1338 1388 1303 1339 1340 1303 1388 1341 1339 1257 1258 1342 1341 1343 1342 1259 1344 1343 1260 1345 1344 1261 1345 1304 1389 1304 1346 1389 1346 1263 1347 1264 1348 1347 1265 1349 1348 1305 1390 1349 1350 1390 1305 1351 1350 1267 1353 1351 1270 1354 1352 1269 1268 1352 1353 1355 1354 1271 1356 1355 1272 1356 1273 1357 1359 1357 1306 1274 1360 1358 1359 1275 1358 1360 1307 1391 1308 1392 1361 1307 1361 1391 1393 1315 1309 1394 1310 1362 1362 1278 1363 1311 1395 1363 1364 1395 1311 1364 1280 1365 1366 1365 1281 1282 1367 1366 1312 1396 1367 1284 1369 1368 1396 1312 1368 1369 1285 1370 1286 1371 1370 1372 1371 1287 1373 1372 1288 1374 1373 1289 1374 1313 1397 1397 1313 1375 1376 1375 1291 1377 1376 1292 1378 1377 1293 1378 1294 1379 1380 1379 1295 1314 1398 1380 1314 1381 1398 1297 1382 1381 1399 1382 1315 1316 1393 1309 1316 1383 1400 1317 1318 1401 1317 1401 1383 1402 1318 1319 1320 1403 1319 1320 1321 1404 1321 1384 1405 1406 1322 1323 1384 1322 1406 1323 1324 1407 1324 1325 1408 1325 1326 1409 1410 1326 1327 1385 1411 1327 1301 1386 1385 1329 1412 1328 1328 1412 1386 1330 1413 1329 1331 1414 1330 1415 1331 1332 1332 1387 1416 1334 1417 1333 1333 1417 1387 1418 1334 1335 1336 1419 1335 1337 1420 1336 1338 1421 1337 1338 1340 1422 1423 1388 1339 1340 1388 1424 1341 1423 1339 1341 1342 1425 1343 1426 1342 1344 1427 1343 1345 1428 1344 1429 1345 1389 1389 1346 1430 1430 1346 1347 1348 1431 1347 1348 1349 1432 1349 1390 1433 1434 1390 1350 1434 1350 1351 1435 1351 1353 1436 1352 1354 1352 1437 1353 1438 1354 1355 1439 1355 1356 1440 1356 1357 1359 1441 1357 1360 1442 1358 1442 1359 1358 1443 1360 1391 1361 1392 1444 1361 1445 1391 1392 1446 1444 1447 1448 1449 1446 1447 1450 1399 1315 1393 1394 1362 1451 1362 1363 1452 1395 1453 1363 1454 1395 1364 1454 1364 1365 1366 1455 1365 1366 1367 1456 1367 1396 1457 1369 1458 1368 1458 1396 1368 1459 1369 1370 1370 1371 1460 1372 1461 1371 1462 1372 1373 1463 1373 1374 1464 1374 1397 1465 1397 1375 1376 1465 1375 1377 1466 1376 1467 1377 1378 1378 1379 1468 1379 1380 1469 1398 1470 1380 1398 1381 1471 1381 1382 1471 1399 1472 1382 1393 1316 1400 1383 1473 1400 1401 1318 1402 1401 1473 1383 1403 1402 1319 1403 1320 1404 1404 1321 1405 1384 1474 1405 1406 1323 1407 1384 1406 1474 1407 1324 1408 1325 1409 1408 1326 1410 1409 1411 1410 1327 1411 1385 1475 1385 1386 1475 1329 1413 1412 1386 1412 1476 1330 1414 1413 1415 1414 1331 1415 1332 1416 1416 1387 1477 1418 1417 1334 1387 1417 1477 1419 1418 1335 1336 1420 1419 1337 1421 1420 1338 1422 1421 1422 1340 1424 1388 1423 1478 1424 1388 1478 1341 1425 1423 1342 1426 1425 1343 1427 1426 1344 1428 1427 1429 1428 1345 1429 1389 1479 1389 1430 1479 1431 1430 1347 1348 1432 1431 1432 1349 1433 1390 1480 1433 1434 1480 1390 1434 1351 1435 1437 1435 1353 1436 1437 1352 1436 1354 1438 1438 1355 1439 1439 1356 1440 1441 1440 1357 1359 1481 1441 1443 1442 1360 1442 1481 1359 1445 1443 1391 1361 1444 1445 1446 1450 1444 1450 1447 1449 1448 1482 1449 1448 1483 1482 1399 1393 1484 1485 1394 1451 1362 1452 1451 1363 1453 1452 1395 1486 1453 1454 1486 1395 1455 1454 1365 1455 1366 1456 1367 1457 1456 1396 1487 1457 1458 1369 1459 1458 1487 1396 1459 1370 1460 1371 1461 1460 1462 1461 1372 1462 1373 1463 1463 1374 1464 1488 1464 1397 1465 1488 1397 1376 1466 1465 1467 1466 1377 1467 1378 1468 1468 1379 1469 1380 1470 1469 1398 1489 1470 1398 1471 1489 1382 1472 1471 1490 1472 1399 1484 1393 1400 1473 1491 1400 1401 1402 1492 1401 1492 1473 1493 1402 1403 1494 1403 1404 1495 1404 1405 1405 1474 1496 1497 1406 1407 1474 1406 1497 1498 1407 1408 1409 1499 1408 1410 1500 1409 1501 1410 1411 1502 1411 1475 1386 1476 1475 1412 1413 1503 1476 1412 1503 1413 1414 1504 1415 1505 1414 1506 1415 1416 1507 1416 1477 1418 1508 1417 1417 1508 1477 1419 1509 1418 1419 1420 1510 1420 1421 1511 1421 1422 1512 1513 1422 1424 1423 1514 1478 1515 1424 1478 1425 1514 1423 1426 1516 1425 1426 1427 1517 1427 1428 1518 1429 1519 1428 1520 1429 1479 1479 1430 1521 1521 1430 1431 1432 1522 1431 1523 1432 1433 1480 1524 1433 1525 1480 1434 1525 1434 1435 1437 1526 1435 1527 1437 1436 1436 1438 1528 1438 1439 1529 1439 1440 1530 1440 1441 1531 1481 1532 1441 1533 1442 1443 1533 1481 1442 1534 1443 1445 1444 1535 1445 1444 1450 1535 1450 1449 1536 1449 1482 1537 1482 1483 1538 1483 1539 1538 1539 1540 1541 1490 1399 1484 1485 1451 1542 1452 1543 1451 1453 1544 1452 1453 1486 1545 1454 1546 1486 1455 1546 1454 1547 1455 1456 1457 1548 1456 1457 1487 1549 1550 1458 1459 1550 1487 1458 1551 1459 1460 1461 1552 1460 1553 1461 1462 1462 1463 1554 1463 1464 1555 1556 1464 1488 1465 1557 1488 1466 1557 1465 1467 1558 1466 1559 1467 1468 1560 1468 1469 1470 1561 1469 1489 1562 1470 1471 1563 1489 1472 1563 1471 1490 1564 1472 1491 1484 1400 1473 1565 1491 1492 1402 1493 1473 1492 1565 1494 1493 1403 1495 1494 1404 1495 1405 1496 1474 1566 1496 1498 1497 1407 1474 1497 1566 1499 1498 1408 1500 1499 1409 1501 1500 1410 1501 1411 1502 1567 1502 1475 1476 1567 1475 1503 1413 1504 1476 1503 1568 1414 1505 1504 1506 1505 1415 1507 1506 1416 1569 1507 1477 1418 1509 1508 1508 1569 1477 1419 1510 1509 1510 1420 1511 1421 1512 1511 1512 1422 1513 1513 1424 1515 1514 1570 1478 1570 1515 1478 1425 1516 1514 1426 1517 1516 1517 1427 1518 1428 1519 1518 1520 1519 1429 1571 1520 1479 1571 1479 1521 1522 1521 1431 1523 1522 1432 1524 1523 1433 1480 1572 1524 1525 1572 1480 1526 1525 1435 1527 1526 1437 1527 1436 1528 1438 1529 1528 1529 1439 1530 1530 1440 1531 1441 1532 1531 1573 1532 1481 1533 1443 1534 1573 1481 1533 1574 1534 1445 1535 1574 1445 1535 1450 1536 1536 1449 1537 1537 1482 1575 1482 1538 1575 1539 1541 1538 1540 1576 1541 1540 1577 1576 1578 1490 1484 1579 1485 1542 1451 1543 1542 1544 1543 1452 1453 1545 1544 1545 1486 1580 1486 1546 1580 1547 1546 1455 1548 1547 1456 1548 1457 1549 1487 1581 1549 1550 1459 1551 1550 1581 1487 1552 1551 1460 1553 1552 1461 1553 1462 1554 1463 1555 1554 1555 1464 1556 1582 1556 1488 1557 1582 1488 1466 1558 1557 1559 1558 1467 1560 1559 1468 1561 1560 1469 1470 1562 1561 1583 1562 1489 1563 1583 1489 1472 1564 1563 1584 1564 1490 1491 1578 1484 1491 1565 1585 1492 1493 1586 1565 1492 1586 1494 1587 1493 1588 1494 1495 1589 1495 1496 1566 1590 1496 1591 1497 1498 1566 1497 1591 1592 1498 1499 1500 1593 1499 1594 1500 1501 1595 1501 1502 1567 1596 1502 1476 1568 1567 1597 1503 1504 1568 1503 1597 1505 1598 1504 1506 1599 1505 1600 1506 1507 1507 1569 1601 1508 1509 1602 1508 1602 1569 1509 1510 1603 1510 1511 1604 1512 1605 1511 1512 1513 1606 1607 1513 1515 1608 1570 1514 1570 1609 1515 1516 1608 1514 1516 1517 1610 1611 1517 1518 1519 1612 1518 1520 1613 1519 1614 1520 1571 1571 1521 1615 1521 1522 1615 1523 1616 1522 1524 1617 1523 1524 1572 1618 1525 1619 1572 1526 1619 1525 1620 1526 1527 1527 1528 1621 1528 1529 1622 1623 1529 1530 1624 1530 1531 1532 1625 1531 1573 1626 1532 1627 1533 1534 1573 1533 1627 1574 1628 1534 1629 1574 1535 1629 1535 1536 1630 1536 1537 1631 1537 1575 1538 1632 1575 1541 1632 1538 1541 1576 1633 1576 1577 1634 1577 1635 1634 1584 1490 1578 1636 1579 1542 1542 1543 1637 1544 1638 1543 1544 1545 1639 1640 1545 1580 1546 1641 1580 1547 1641 1546 1642 1547 1548 1643 1548 1549 1581 1644 1549 1645 1550 1551 1645 1581 1550 1552 1646 1551 1647 1552 1553 1553 1554 1648 1554 1555 1649 1555 1556 1650 1651 1556 1582 1557 1652 1582 1557 1558 1652 1559 1653 1558 1654 1559 1560 1655 1560 1561 1562 1656 1561 1657 1562 1583 1583 1563 1658 1563 1564 1658 1584 1659 1564 1491 1585 1578 1585 1565 1660 1493 1587 1586 1660 1565 1586 1588 1587 1494 1588 1495 1589 1590 1589 1496 1566 1661 1590 1591 1498 1592 1566 1591 1661 1593 1592 1499 1594 1593 1500 1594 1501 1595 1596 1595 1502 1596 1567 1662 1567 1568 1662 1598 1597 1504 1568 1597 1663 1505 1599 1598 1600 1599 1506 1600 1507 1601 1569 1664 1601 1602 1509 1603 1569 1602 1664 1510 1604 1603 1511 1605 1604 1512 1606 1605 1606 1513 1607 1609 1607 1515 1608 1665 1570 1570 1665 1609 1516 1610 1608 1610 1517 1611 1612 1611 1518 1519 1613 1612 1614 1613 1520 1614 1571 1666 1666 1571 1615 1522 1616 1615 1523 1617 1616 1524 1618 1617 1618 1572 1667 1572 1619 1667 1620 1619 1526 1620 1527 1621 1528 1622 1621 1622 1529 1623 1624 1623 1530 1625 1624 1531 1532 1626 1625 1668 1626 1573 1628 1627 1534 1668 1573 1627 1574 1669 1628 1629 1669 1574 1630 1629 1536 1631 1630 1537 1632 1631 1575 1632 1541 1633 1633 1576 1670 1576 1634 1670 1635 1671 1634 1635 1672 1671 1673 1584 1578 1674 1579 1636 1636 1542 1637 1543 1638 1637 1544 1639 1638 1639 1545 1640 1675 1640 1580 1641 1675 1580 1642 1641 1547 1642 1548 1643 1644 1643 1549 1581 1676 1644 1646 1645 1551 1645 1676 1581 1647 1646 1552 1647 1553 1648 1554 1649 1648 1649 1555 1650 1650 1556 1651 1677 1651 1582 1652 1677 1582 1558 1653 1652 1654 1653 1559 1654 1560 1655 1656 1655 1561 1657 1656 1562 1657 1583 1678 1678 1583 1658 1564 1659 1658 1679 1659 1584 1585 1673 1578 1585 1660 1680 1587 1681 1586 1681 1660 1586 1588 1682 1587 1683 1588 1589 1590 1684 1589 1590 1661 1685 1591 1592 1686 1661 1591 1686 1593 1687 1592 1594 1688 1593 1689 1594 1595 1596 1690 1595 1691 1596 1662 1568 1663 1662 1597 1598 1692 1663 1597 1692 1598 1599 1693 1600 1694 1599 1695 1600 1601 1601 1664 1696 1602 1603 1697 1664 1602 1697 1603 1604 1698 1604 1605 1699 1605 1606 1700 1606 1607 1701 1702 1607 1609 1608 1703 1665 1665 1704 1609 1608 1610 1703 1705 1610 1611 1706 1611 1612 1613 1707 1612 1708 1613 1614 1709 1614 1666 1710 1666 1615 1616 1710 1615 1617 1711 1616 1617 1618 1712 1713 1618 1667 1619 1714 1667 1620 1714 1619 1715 1620 1621 1621 1622 1716 1717 1622 1623 1624 1718 1623 1719 1624 1625 1626 1720 1625 1668 1721 1626 1628 1722 1627 1722 1668 1627 1628 1669 1723 1629 1724 1669 1630 1724 1629 1725 1630 1631 1632 1726 1631 1727 1632 1633 1728 1633 1670 1634 1729 1670 1634 1671 1730 1671 1672 1731 1672 1732 1731 1679 1584 1673 1674 1636 1733 1636 1637 1734 1638 1735 1637 1638 1639 1736 1639 1640 1737 1640 1675 1738 1739 1675 1641 1739 1641 1642 1642 1643 1740 1741 1643 1644 1676 1742 1644 1646 1743 1645 1645 1743 1676 1647 1744 1646 1745 1647 1648 1648 1649 1746 1747 1649 1650 1748 1650 1651 1677 1749 1651 1750 1677 1652 1653 1750 1652 1751 1653 1654 1752 1654 1655 1656 1753 1655 1657 1754 1656 1755 1657 1678 1756 1678 1658 1659 1756 1658 1679 1757 1659 1673 1585 1680 1660 1758 1680 1587 1682 1681 1758 1660 1681 1683 1682 1588 1684 1683 1589 1684 1590 1685 1661 1759 1685 1592 1687 1686 1759 1661 1686 1593 1688 1687 1689 1688 1594 1690 1689 1595 1691 1690 1596 1760 1691 1662 1663 1760 1662 1692 1598 1693 1663 1692 1761 1599 1694 1693 1695 1694 1600 1695 1601 1696 1696 1664 1762 1697 1603 1698 1762 1664 1697 1698 1604 1699 1699 1605 1700 1700 1606 1701 1701 1607 1702 1704 1702 1609 1665 1703 1763 1704 1665 1763 1703 1610 1705 1706 1705 1611 1707 1706 1612 1708 1707 1613 1708 1614 1709 1764 1709 1666 1710 1764 1666 1711 1710 1616 1617 1712 1711 1712 1618 1713 1765 1713 1667 1714 1765 1667 1715 1714 1620 1715 1621 1716 1716 1622 1717 1718 1717 1623 1719 1718 1624 1720 1719 1625 1626 1721 1720 1668 1766 1721 1722 1628 1723 1722 1766 1668 1669 1767 1723 1669 1724 1767 1725 1724 1630 1726 1725 1631 1727 1726 1632 1728 1727 1633 1729 1728 1670 1729 1634 1730 1671 1731 1730 1731 1732 1768 1732 1769 1768 1679 1673 1770 1771 1674 1733 1733 1636 1734 1637 1735 1734 1735 1638 1736 1736 1639 1737 1640 1738 1737 1675 1772 1738 1739 1772 1675 1739 1642 1740 1740 1643 1741 1742 1741 1644 1676 1773 1742 1646 1744 1743 1676 1743 1773 1745 1744 1647 1745 1648 1746 1746 1649 1747 1748 1747 1650 1749 1748 1651 1677 1774 1749 1750 1774 1677 1751 1750 1653 1751 1654 1752 1753 1752 1655 1656 1754 1753 1755 1754 1657 1775 1755 1678 1756 1775 1678 1659 1757 1756 1776 1757 1679 1770 1673 1680 1758 1777 1680 1682 1778 1681 1778 1758 1681 1683 1779 1682 1684 1780 1683 1781 1684 1685 1759 1782 1685 1686 1687 1783 1759 1686 1783 1687 1688 1784 1689 1785 1688 1786 1689 1690 1787 1690 1691 1788 1691 1760 1760 1663 1761 1692 1693 1789 1692 1789 1761 1693 1694 1790 1695 1791 1694 1792 1695 1696 1793 1696 1762 1794 1697 1698 1794 1762 1697 1795 1698 1699 1796 1699 1700 1797 1700 1701 1798 1701 1702 1704 1799 1702 1703 1800 1763 1801 1704 1763 1703 1705 1800 1705 1706 1802 1707 1803 1706 1804 1707 1708 1708 1709 1805 1709 1764 1806 1710 1807 1764 1711 1807 1710 1711 1712 1808 1712 1713 1809 1713 1765 1810 1714 1811 1765 1715 1811 1714 1812 1715 1716 1813 1716 1717 1718 1814 1717 1719 1815 1718 1720 1816 1719 1720 1721 1817 1721 1766 1818 1819 1722 1723 1819 1766 1722 1767 1820 1723 1724 1821 1767 1725 1821 1724 1726 1822 1725 1727 1823 1726 1824 1727 1728 1825 1728 1729 1826 1729 1730 1731 1827 1730 1828 1731 1768 1769 1829 1768 1776 1679 1770 1830 1771 1733 1831 1733 1734 1735 1831 1734 1832 1735 1736 1833 1736 1737 1738 1834 1737 1772 1835 1738 1836 1772 1739 1836 1739 1740 1837 1740 1741 1742 1838 1741 1742 1773 1839 1743 1744 1840 1773 1743 1840 1745 1841 1744 1842 1745 1746 1843 1746 1747 1748 1844 1747 1845 1748 1749 1774 1846 1749 1847 1774 1750 1847 1750 1751 1751 1752 1848 1849 1752 1753 1754 1850 1753 1755 1851 1754 1852 1755 1775 1775 1756 1853 1756 1757 1853 1776 1854 1757 1777 1770 1680 1758 1855 1777 1682 1779 1778 1778 1855 1758 1683 1780 1779 1781 1780 1684 1782 1781 1685 1856 1782 1759 1783 1687 1784 1856 1759 1783 1688 1785 1784 1786 1785 1689 1786 1690 1787 1787 1691 1788 1788 1760 1857 1857 1760 1761 1789 1693 1790 1789 1858 1761 1694 1791 1790 1792 1791 1695 1793 1792 1696 1859 1793 1762 1795 1794 1698 1794 1859 1762 1796 1795 1699 1797 1796 1700 1798 1797 1701 1799 1798 1702 1801 1799 1704 1800 1860 1763 1860 1801 1763 1800 1705 1802 1706 1803 1802 1804 1803 1707 1804 1708 1805 1805 1709 1806 1764 1861 1806 1807 1861 1764 1711 1808 1807 1808 1712 1809 1713 1810 1809 1765 1862 1810 1811 1862 1765 1812 1811 1715 1813 1812 1716 1814 1813 1717 1718 1815 1814 1719 1816 1815 1720 1817 1816 1817 1721 1818 1766 1863 1818 1820 1819 1723 1819 1863 1766 1820 1767 1864 1767 1821 1864 1725 1822 1821 1726 1823 1822 1824 1823 1727 1824 1728 1825 1825 1729 1865 1729 1826 1865 1827 1826 1730 1828 1827 1731 1829 1828 1768 1866 1776 1770 1867 1771 1830 1831 1830 1733 1832 1831 1735 1833 1832 1736 1834 1833 1737 1738 1835 1834 1772 1868 1835 1836 1868 1772 1837 1836 1740 1838 1837 1741 1742 1839 1838 1839 1773 1869 1744 1841 1840 1869 1773 1840 1842 1841 1745 1843 1842 1746 1844 1843 1747 1845 1844 1748 1846 1845 1749 1870 1846 1774 1870 1774 1847 1847 1751 1848 1848 1752 1849 1850 1849 1753 1754 1851 1850 1852 1851 1755 1852 1775 1871 1775 1853 1871 1757 1854 1853 1872 1854 1776 1777 1866 1770 1777 1855 1873 1778 1779 1874 1778 1874 1855 1779 1780 1875 1781 1876 1780 1782 1877 1781 1856 1878 1782 1879 1783 1784 1879 1856 1783 1785 1880 1784 1881 1785 1786 1786 1787 1882 1787 1788 1883 1884 1788 1857 1858 1857 1761 1789 1790 1885 1789 1885 1858 1791 1886 1790 1792 1887 1791 1793 1888 1792 1859 1889 1793 1890 1794 1795 1890 1859 1794 1796 1891 1795 1892 1796 1797 1798 1893 1797 1894 1798 1799 1801 1895 1799 1860 1800 1896 1897 1801 1860 1800 1802 1896 1803 1898 1802 1899 1803 1804 1900 1804 1805 1901 1805 1806 1861 1902 1806 1807 1903 1861 1808 1903 1807 1904 1808 1809 1810 1905 1809 1862 1906 1810 1811 1907 1862 1812 1907 1811 1908 1812 1813 1909 1813 1814 1815 1910 1814 1815 1816 1911 1816 1817 1912 1913 1817 1818 1863 1914 1818 1820 1915 1819 1819 1915 1863 1916 1820 1864 1821 1917 1864 1821 1822 1917 1822 1823 1918 1824 1919 1823 1920 1824 1825 1921 1825 1865 1826 1922 1865 1827 1923 1826 1924 1827 1828 1829 1925 1828 1872 1776 1866 1926 1867 1830 1830 1831 1927 1832 1928 1831 1929 1832 1833 1930 1833 1834 1835 1931 1834 1835 1868 1932 1933 1868 1836 1933 1836 1837 1934 1837 1838 1839 1935 1838 1839 1869 1936 1840 1841 1937 1869 1840 1937 1842 1938 1841 1939 1842 1843 1940 1843 1844 1941 1844 1845 1942 1845 1846 1943 1846 1870 1870 1847 1944 1847 1848 1944 1945 1848 1849 1850 1946 1849 1851 1947 1850 1948 1851 1852 1949 1852 1871 1853 1950 1871 1854 1950 1853 1872 1951 1854 1866 1777 1873 1855 1952 1873 1874 1779 1875 1855 1874 1952 1780 1876 1875 1781 1877 1876 1782 1878 1877 1856 1953 1878 1880 1879 1784 1879 1953 1856 1881 1880 1785 1881 1786 1882 1787 1883 1882 1883 1788 1884 1884 1857 1954 1857 1858 1954 1790 1886 1885 1885 1955 1858 1791 1887 1886 1792 1888 1887 1793 1889 1888 1859 1956 1889 1891 1890 1795 1890 1956 1859 1892 1891 1796 1893 1892 1797 1894 1893 1798 1895 1894 1799 1897 1895 1801 1957 1860 1896 1957 1897 1860 1802 1898 1896 1899 1898 1803 1899 1804 1900 1900 1805 1901 1902 1901 1806 1902 1861 1958 1861 1903 1958 1904 1903 1808 1905 1904 1809 1906 1905 1810 1906 1862 1959 1862 1907 1959 1908 1907 1812 1908 1813 1909 1910 1909 1814 1815 1911 1910 1911 1816 1912 1817 1913 1912 1914 1913 1818 1914 1863 1960 1916 1915 1820 1863 1915 1960 1961 1916 1864 1917 1961 1864 1917 1822 1918 1823 1919 1918 1920 1919 1824 1921 1920 1825 1922 1921 1865 1826 1923 1922 1924 1923 1827 1925 1924 1828 1872 1866 1962 1963 1867 1926 1926 1830 1927 1831 1928 1927 1929 1928 1832 1929 1833 1930 1931 1930 1834 1931 1835 1932 1868 1964 1932 1933 1964 1868 1933 1837 1934 1935 1934 1838 1935 1839 1936 1869 1965 1936 1841 1938 1937 1965 1869 1937 1939 1938 1842 1939 1843 1940 1940 1844 1941 1941 1845 1942 1942 1846 1943 1943 1870 1966 1966 1870 1944 1944 1848 1945 1946 1945 1849 1947 1946 1850 1948 1947 1851 1948 1852 1949 1967 1949 1871 1950 1967 1871 1854 1951 1950 1968 1951 1872 1962 1866 1873 1952 1969 1873 1970 1874 1875 1952 1874 1970 1876 1971 1875 1876 1877 1972 1877 1878 1973 1878 1953 1974 1880 1975 1879 1879 1975 1953 1976 1880 1881 1881 1882 1977 1882 1883 1978 1883 1884 1979 1980 1884 1954 1858 1955 1954 1886 1981 1885 1981 1955 1885 1886 1887 1982 1887 1888 1983 1888 1889 1984 1889 1956 1985 1891 1986 1890 1890 1986 1956 1892 1987 1891 1893 1988 1892 1894 1989 1893 1895 1990 1894 1897 1991 1895 1992 1957 1896 1957 1993 1897 1898 1992 1896 1994 1898 1899 1899 1900 1995 1996 1900 1901 1902 1997 1901 1998 1902 1958 1903 1999 1958 1904 1999 1903 2000 1904 1905 2001 1905 1906 1906 1959 2002 1907 2003 1959 1908 2003 1907 2004 1908 1909 1910 2005 1909 1911 2006 1910 2007 1911 1912 1913 2008 1912 2009 1913 1914 1914 1960 2010 1916 2011 1915 1915 2011 1960 2012 1916 1961 1961 1917 2013 1917 1918 2013 1919 2014 1918 1920 2015 1919 2016 1920 1921 2017 1921 1922 1923 2018 1922 1924 2019 1923 1925 2020 1924 1968 1872 1962 1963 1926 2021 1926 1927 2022 1928 2023 1927 1929 2024 1928 2025 1929 1930 2026 1930 1931 2027 1931 1932 1964 2028 1932 2029 1964 1933 2029 1933 1934 1935 2030 1934 2031 1935 1936 1965 2032 1936 1938 2033 1937 2033 1965 1937 2034 1938 1939 1939 1940 2035 1940 1941 2036 1941 1942 2037 1942 1943 2038 1943 1966 2039 2040 1966 1944 2040 1944 1945 1946 2041 1945 1947 2042 1946 1948 2043 1947 2044 1948 1949 1967 2045 1949 1950 2046 1967 1950 1951 2046 1968 2047 1951 1969 1962 1873 1952 2048 1969 1971 1970 1875 1952 1970 2048 1876 1972 1971 1972 1877 1973 1878 1974 1973 1974 1953 2049 1976 1975 1880 1953 1975 2049 1976 1881 1977 1882 1978 1977 1978 1883 1979 1979 1884 1980 2050 1980 1954 1955 2050 1954 1886 1982 1981 1981 2051 1955 1982 1887 1983 1983 1888 1984 1889 1985 1984 1985 1956 2052 1891 1987 1986 1956 1986 2052 1892 1988 1987 1893 1989 1988 1894 1990 1989 1895 1991 1990 1897 1993 1991 1992 2053 1957 1957 2053 1993 1994 1992 1898 1994 1899 1995 1995 1900 1996 1997 1996 1901 1998 1997 1902 2054 1998 1958 1999 2054 1958 2000 1999 1904 2000 1905 2001 2001 1906 2002 1959 2055 2002 2003 2055 1959 2004 2003 1908 2005 2004 1909 1910 2006 2005 2007 2006 1911 2008 2007 1912 2009 2008 1913 2009 1914 2010 1960 2056 2010 2012 2011 1916 2011 2056 1960 2012 1961 2057 2057 1961 2013 1918 2014 2013 1919 2015 2014 2016 2015 1920 2016 1921 2017 2018 2017 1922 2019 2018 1923 1924 2020 2019 2058 1968 1962 2059 1963 2021 2021 1926 2022 1927 2023 2022 1928 2024 2023 2025 2024 1929 2026 2025 1930 2027 2026 1931 2028 2027 1932 1964 2060 2028 2029 2060 1964 2030 2029 1934 2031 2030 1935 2032 2031 1936 1965 2061 2032 2034 2033 1938 2033 2061 1965 2034 1939 2035 1940 2036 2035 2036 1941 2037 1942 2038 2037 1943 2039 2038 2039 1966 2062 2062 1966 2040 2041 2040 1945 1946 2042 2041 1947 2043 2042 2044 2043 1948 2045 2044 1949 1967 2063 2045 1967 2046 2063 1951 2047 2046 2064 2047 1968 1969 2058 1962 1969 2048 2065 1971 2066 1970 1970 2066 2048 1971 1972 2067 2068 1972 1973 1973 1974 2069 1974 2049 2070 1976 2071 1975 1975 2071 2049 2072 1976 1977 1977 1978 2073 2074 1978 1979 2075 1979 1980 2050 2076 1980 1955 2051 2050 1981 1982 2077 1981 2077 2051 2078 1982 1983 2079 1983 1984 1985 2080 1984 2081 1985 2052 1986 1987 2082 1986 2082 2052 1987 1988 2083 1988 1989 2084 1989 1990 2085 1990 1991 2086 1991 1993 2087 1992 2088 2053 1993 2053 2089 1994 2088 1992 2090 1994 1995 2091 1995 1996 1997 2092 1996 1998 2093 1997 2054 2094 1998 2095 2054 1999 2095 1999 2000 2000 2001 2096 2097 2001 2002 2055 2098 2002 2003 2099 2055 2004 2099 2003 2100 2004 2005 2006 2101 2005 2102 2006 2007 2103 2007 2008 2104 2008 2009 2105 2009 2010 2056 2106 2010 2012 2107 2011 2011 2107 2056 2108 2012 2057 2109 2057 2013 2014 2109 2013 2014 2015 2110 2016 2111 2015 2112 2016 2017 2018 2113 2017 2114 2018 2019 2020 2115 2019 2064 1968 2058 2059 2021 2116 2117 2021 2022 2023 2118 2022 2023 2024 2119 2025 2120 2024 2121 2025 2026 2122 2026 2027 2123 2027 2028 2060 2124 2028 2125 2060 2029 2125 2029 2030 2031 2126 2030 2127 2031 2032 2061 2128 2032 2129 2033 2034 2129 2061 2033 2130 2034 2035 2035 2036 2131 2036 2037 2132 2037 2038 2133 2039 2134 2038 2039 2062 2135 2062 2040 2136 2136 2040 2041 2042 2137 2041 2043 2138 2042 2139 2043 2044 2140 2044 2045 2063 2141 2045 2063 2046 2142 2046 2047 2142 2064 2143 2047 1969 2065 2058 2065 2048 2144 1971 2067 2066 2048 2066 2144 2067 1972 2068 2068 1973 2069 1974 2070 2069 2070 2049 2145 2072 2071 1976 2049 2071 2145 2072 1977 2073 2073 1978 2074 2075 2074 1979 2076 2075 1980 2050 2146 2076 2051 2146 2050 2077 1982 2078 2051 2077 2147 2079 2078 1983 2080 2079 1984 1985 2081 2080 2081 2052 2148 2082 1987 2083 2052 2082 2148 1988 2084 2083 2084 1989 2085 1990 2086 2085 2086 1991 2087 1993 2089 2087 2053 2088 2149 2089 2053 2149 2090 2088 1994 2091 2090 1995 2092 2091 1996 1997 2093 2092 1998 2094 2093 2054 2150 2094 2095 2150 2054 2095 2000 2096 2096 2001 2097 2098 2097 2002 2151 2098 2055 2099 2151 2055 2100 2099 2004 2101 2100 2005 2102 2101 2006 2102 2007 2103 2103 2008 2104 2104 2009 2105 2106 2105 2010 2056 2152 2106 2108 2107 2012 2056 2107 2152 2153 2108 2057 2109 2153 2057 2014 2110 2109 2015 2111 2110 2112 2111 2016 2113 2112 2017 2114 2113 2018 2115 2114 2019 2154 2064 2058 2155 2059 2116 2021 2117 2116 2118 2117 2022 2118 2023 2119 2024 2120 2119 2121 2120 2025 2121 2026 2122 2122 2027 2123 2124 2123 2028 2060 2156 2124 2125 2156 2060 2126 2125 2030 2127 2126 2031 2128 2127 2032 2157 2128 2061 2129 2034 2130 2157 2061 2129 2130 2035 2131 2131 2036 2132 2037 2133 2132 2038 2134 2133 2039 2135 2134 2135 2062 2158 2158 2062 2136 2137 2136 2041 2042 2138 2137 2139 2138 2043 2139 2044 2140 2141 2140 2045 2063 2159 2141 2159 2063 2142 2047 2143 2142 2160 2143 2064 2065 2154 2058 2065 2144 2161 2066 2067 2162 2144 2066 2162 2067 2068 2163 2164 2068 2069 2070 2165 2069 2166 2070 2145 2072 2167 2071 2071 2167 2145 2168 2072 2073 2169 2073 2074 2075 2170 2074 2171 2075 2076 2146 2172 2076 2051 2147 2146 2077 2078 2173 2147 2077 2173 2174 2078 2079 2175 2079 2080 2081 2176 2080 2177 2081 2148 2082 2083 2178 2148 2082 2178 2084 2179 2083 2084 2085 2180 2086 2181 2085 2182 2086 2087 2087 2089 2183 2088 2184 2149 2089 2149 2185 2090 2184 2088 2186 2090 2091 2187 2091 2092 2093 2188 2092 2093 2094 2189 2094 2150 2190 2191 2150 2095 2191 2095 2096 2192 2096 2097 2098 2193 2097 2151 2194 2098 2099 2195 2151 2100 2195 2099 2101 2196 2100 2197 2101 2102 2102 2103 2198 2103 2104 2199 2200 2104 2105 2106 2201 2105 2152 2202 2106 2108 2203 2107 2107 2203 2152 2204 2108 2153 2153 2109 2205 2109 2110 2205 2111 2206 2110 2207 2111 2112 2112 2113 2208 2114 2209 2113 2115 2210 2114 2160 2064 2154 2211 2155 2116 2117 2212 2116 2213 2117 2118 2214 2118 2119 2120 2214 2119 2215 2120 2121 2121 2122 2216 2217 2122 2123 2124 2218 2123 2124 2156 2219 2125 2220 2156 2126 2220 2125 2127 2221 2126 2128 2222 2127 2157 2223 2128 2129 2130 2224 2157 2129 2224 2225 2130 2131 2226 2131 2132 2133 2227 2132 2133 2134 2228 2134 2135 2229 2135 2158 2230 2231 2158 2136 2137 2231 2136 2138 2232 2137 2233 2138 2139 2234 2139 2140 2141 2235 2140 2141 2159 2236 2237 2159 2142 2143 2237 2142 2160 2238 2143 2154 2065 2161 2144 2239 2161 2067 2163 2162 2239 2144 2162 2163 2068 2164 2165 2164 2069 2166 2165 2070 2240 2166 2145 2168 2167 2072 2167 2240 2145 2169 2168 2073 2170 2169 2074 2171 2170 2075 2172 2171 2076 2146 2241 2172 2146 2147 2241 2078 2174 2173 2242 2147 2173 2175 2174 2079 2176 2175 2080 2177 2176 2081 2243 2177 2148 2083 2179 2178 2243 2148 2178 2084 2180 2179 2085 2181 2180 2086 2182 2181 2182 2087 2183 2089 2185 2183 2184 2244 2149 2149 2244 2185 2186 2184 2090 2186 2091 2187 2188 2187 2092 2093 2189 2188 2189 2094 2190 2150 2245 2190 2191 2245 2150 2192 2191 2096 2193 2192 2097 2098 2194 2193 2151 2246 2194 2151 2195 2246 2100 2196 2195 2197 2196 2101 2197 2102 2198 2103 2199 2198 2199 2104 2200 2201 2200 2105 2106 2202 2201 2247 2202 2152 2204 2203 2108 2203 2247 2152 2204 2153 2248 2248 2153 2205 2110 2206 2205 2207 2206 2111 2207 2112 2208 2113 2249 2208 2114 2210 2209 2209 2249 2113 2160 2154 2250 2251 2155 2211 2212 2211 2116 2213 2212 2117 2214 2213 2118 2215 2214 2120 2215 2121 2216 2216 2122 2217 2218 2217 2123 2124 2219 2218 2219 2156 2252 2156 2220 2252 2126 2221 2220 2127 2222 2221 2128 2223 2222 2253 2223 2157 2224 2130 2225 2253 2157 2224 2226 2225 2131 2227 2226 2132 2227 2133 2228 2134 2229 2228 2135 2230 2229 2230 2158 2254 2254 2158 2231 2232 2231 2137 2233 2232 2138 2233 2139 2234 2235 2234 2140 2235 2141 2236 2159 2255 2236 2237 2255 2159 2143 2238 2237 2256 2238 2160 2250 2154 2161 2239 2257 2161 2163 2258 2162 2258 2239 2162 2163 2164 2259 2260 2164 2165 2165 2166 2261 2240 2262 2166 2168 2263 2167 2167 2263 2240 2169 2264 2168 2170 2265 2169 2171 2266 2170 2172 2267 2171 2172 2241 2268 2241 2147 2242 2173 2174 2269 2242 2173 2269 2175 2270 2174 2271 2175 2176 2272 2176 2177 2273 2177 2243 2178 2179 2274 2243 2178 2274 2179 2180 2275 2180 2181 2276 2182 2277 2181 2278 2182 2183 2185 2279 2183 2184 2280 2244 2244 2281 2185 2186 2280 2184 2282 2186 2187 2188 2283 2187 2188 2189 2284 2189 2190 2285 2245 2286 2190 2191 2287 2245 2192 2287 2191 2288 2192 2193 2194 2289 2193 2194 2246 2290 2246 2195 2291 2195 2196 2291 2197 2292 2196 2293 2197 2198 2198 2199 2294 2199 2200 2295 2296 2200 2201 2202 2297 2201 2247 2298 2202 2299 2203 2204 2299 2247 2203 2204 2248 2300 2301 2248 2205 2206 2301 2205 2207 2302 2206 2303 2207 2208 2249 2303 2208 2210 2304 2209 2209 2305 2249 2256 2160 2250 2251 2211 2306 2307 2211 2212 2308 2212 2213 2213 2214 2309 2215 2310 2214 2311 2215 2216 2312 2216 2217 2218 2313 2217 2218 2219 2314 2315 2219 2252 2220 2316 2252 2220 2221 2316 2221 2222 2317 2222 2223 2318 2253 2319 2223 2320 2224 2225 2320 2253 2224 2226 2321 2225 2227 2322 2226 2323 2227 2228 2229 2324 2228 2230 2325 2229 2230 2254 2326 2254 2231 2327 2327 2231 2232 2328 2232 2233 2329 2233 2234 2235 2330 2234 2331 2235 2236 2255 2332 2236 2237 2333 2255 2237 2238 2333 2256 2334 2238 2257 2250 2161 2239 2335 2257 2163 2259 2258 2258 2335 2239 2259 2164 2260 2260 2165 2261 2166 2262 2261 2240 2336 2262 2168 2264 2263 2240 2263 2336 2169 2265 2264 2170 2266 2265 2171 2267 2266 2172 2268 2267 2268 2241 2337 2241 2242 2337 2174 2270 2269 2338 2242 2269 2271 2270 2175 2271 2176 2272 2272 2177 2273 2273 2243 2339 2179 2275 2274 2339 2243 2274 2275 2180 2276 2181 2277 2276 2278 2277 2182 2279 2278 2183 2281 2279 2185 2244 2280 2340 2281 2244 2340 2282 2280 2186 2283 2282 2187 2283 2188 2284 2284 2189 2285 2190 2286 2285 2245 2341 2286 2245 2287 2341 2288 2287 2192 2289 2288 2193 2194 2290 2289 2290 2246 2342 2342 2246 2291 2196 2292 2291 2293 2292 2197 2293 2198 2294 2294 2199 2295 2295 2200 2296 2297 2296 2201 2202 2298 2297 2247 2343 2298 2299 2204 2300 2299 2343 2247 2300 2248 2344 2248 2301 2344 2206 2302 2301 2303 2302 2207 2303 2249 2345 2304 2305 2209 2249 2305 2345 2346 2256 2250 2347 2251 2306 2306 2211 2307 2307 2212 2308 2308 2213 2309 2214 2310 2309 2311 2310 2215 2311 2216 2312 2313 2312 2217 2218 2314 2313 2219 2315 2314 2348 2315 2252 2316 2348 2252 2316 2221 2317 2317 2222 2318 2223 2319 2318 2349 2319 2253 2321 2320 2225 2349 2253 2320 2226 2322 2321 2323 2322 2227 2324 2323 2228 2325 2324 2229 2230 2326 2325 2326 2254 2350 2254 2327 2350 2327 2232 2328 2328 2233 2329 2330 2329 2234 2331 2330 2235 2332 2331 2236 2332 2255 2351 2255 2333 2351 2238 2334 2333 2352 2334 2256 2257 2346 2250 2257 2335 2353 2258 2259 2354 2258 2354 2335 2259 2260 2355 2356 2260 2261 2262 2357 2261 2262 2336 2358 2263 2264 2359 2336 2263 2359 2264 2265 2360 2265 2266 2361 2266 2267 2362 2267 2268 2363 2364 2268 2337 2242 2338 2337 2270 2365 2269 2365 2338 2269 2366 2270 2271 2271 2272 2367 2272 2273 2368 2369 2273 2339 2275 2370 2274 2370 2339 2274 2371 2275 2276 2277 2372 2276 2278 2373 2277 2374 2278 2279 2375 2279 2281 2280 2376 2340 2281 2340 2377 2282 2376 2280 2378 2282 2283 2379 2283 2284 2284 2285 2380 2286 2381 2285 2341 2382 2286 2287 2383 2341 2288 2383 2287 2289 2384 2288 2289 2290 2385 2290 2342 2386 2342 2291 2387 2291 2292 2387 2293 2388 2292 2389 2293 2294 2390 2294 2295 2391 2295 2296 2297 2392 2296 2297 2298 2393 2298 2343 2394 2395 2299 2300 2395 2343 2299 2396 2300 2344 2301 2397 2344 2302 2397 2301 2398 2302 2303 2399 2303 2345 2304 2400 2305 2305 2401 2345 2352 2256 2346 2402 2347 2306 2306 2307 2403 2307 2308 2404 2308 2309 2405 2310 2406 2309 2311 2407 2310 2408 2311 2312 2409 2312 2313 2314 2410 2313 2315 2411 2314 2412 2315 2348 2316 2413 2348 2413 2316 2317 2414 2317 2318 2319 2415 2318 2349 2416 2319 2417 2320 2321 2349 2320 2417 2322 2418 2321 2323 2419 2322 2420 2323 2324 2324 2325 2421 2325 2326 2422 2423 2326 2350 2350 2327 2424 2327 2328 2424 2328 2329 2425 2426 2329 2330 2427 2330 2331 2428 2331 2332 2429 2332 2351 2333 2430 2351 2333 2334 2430 2352 2431 2334 2346 2257 2353 2335 2432 2353 2354 2259 2355 2335 2354 2432 2260 2356 2355 2357 2356 2261 2262 2358 2357 2358 2336 2433 2264 2360 2359 2336 2359 2433 2265 2361 2360 2361 2266 2362 2267 2363 2362 2363 2268 2364 2364 2337 2434 2337 2338 2434 2366 2365 2270 2365 2435 2338 2366 2271 2367 2367 2272 2368 2368 2273 2369 2436 2369 2339 2275 2371 2370 2436 2339 2370 2372 2371 2276 2277 2373 2372 2374 2373 2278 2374 2279 2375 2375 2281 2377 2376 2437 2340 2340 2437 2377 2378 2376 2282 2378 2283 2379 2379 2284 2380 2285 2381 2380 2286 2382 2381 2341 2438 2382 2383 2438 2341 2288 2384 2383 2289 2385 2384 2385 2290 2386 2342 2439 2386 2439 2342 2387 2292 2388 2387 2389 2388 2293 2390 2389 2294 2391 2390 2295 2392 2391 2296 2297 2393 2392 2393 2298 2394 2343 2440 2394 2396 2395 2300 2395 2440 2343 2441 2396 2344 2397 2441 2344 2398 2397 2302 2398 2303 2399 2401 2399 2345 2400 2401 2305 2352 2346 2442 2443 2347 2402 2402 2306 2403 2307 2404 2403 2404 2308 2405 2309 2406 2405 2310 2407 2406 2408 2407 2311 2409 2408 2312 2410 2409 2313 2411 2410 2314 2412 2411 2315 2444 2412 2348 2413 2444 2348 2414 2413 2317 2415 2414 2318 2319 2416 2415 2445 2416 2349 2418 2417 2321 2445 2349 2417 2322 2419 2418 2420 2419 2323 2420 2324 2421 2325 2422 2421 2422 2326 2423 2446 2423 2350 2446 2350 2424 2328 2425 2424 2425 2329 2426 2426 2330 2427 2427 2331 2428 2428 2332 2429 2447 2429 2351 2430 2447 2351 2334 2431 2430 2448 2431 2352 2442 2346 2353 2432 2449 2353 2450 2354 2355 2432 2354 2450 2355 2356 2451 2357 2452 2356 2357 2358 2453 2454 2358 2433 2360 2455 2359 2359 2455 2433 2360 2361 2456 2457 2361 2362 2362 2363 2458 2363 2364 2459 2460 2364 2434 2338 2435 2434 2461 2365 2366 2461 2435 2365 2462 2366 2367 2463 2367 2368 2464 2368 2369 2436 2465 2369 2371 2466 2370 2466 2436 2370 2467 2371 2372 2373 2468 2372 2469 2373 2374 2374 2375 2470 2471 2375 2377 2376 2472 2437 2437 2473 2377 2378 2472 2376 2474 2378 2379 2475 2379 2380 2380 2381 2476 2381 2382 2477 2382 2438 2478 2383 2479 2438 2383 2384 2479 2384 2385 2480 2481 2385 2386 2439 2482 2386 2483 2439 2387 2388 2483 2387 2389 2484 2388 2485 2389 2390 2486 2390 2391 2487 2391 2392 2393 2488 2392 2393 2394 2489 2440 2490 2394 2491 2395 2396 2491 2440 2395 2492 2396 2441 2493 2441 2397 2493 2397 2398 2494 2398 2399 2401 2495 2399 2400 2496 2401 2448 2352 2442 2443 2402 2497 2402 2403 2498 2403 2404 2499 2500 2404 2405 2406 2500 2405 2406 2407 2501 2408 2502 2407 2503 2408 2409 2504 2409 2410 2505 2410 2411 2506 2411 2412 2507 2412 2444 2508 2444 2413 2508 2413 2414 2509 2414 2415 2416 2510 2415 2445 2511 2416 2512 2417 2418 2512 2445 2417 2419 2513 2418 2420 2514 2419 2515 2420 2421 2421 2422 2516 2422 2423 2517 2446 2518 2423 2519 2446 2424 2425 2519 2424 2425 2426 2520 2426 2427 2521 2427 2428 2522 2523 2428 2429 2447 2524 2429 2525 2447 2430 2431 2525 2430 2448 2526 2431 2449 2442 2353 2432 2527 2449 2450 2355 2451 2527 2432 2450 2356 2452 2451 2357 2453 2452 2453 2358 2454 2454 2433 2528 2360 2456 2455 2433 2455 2528 2361 2457 2456 2457 2362 2458 2363 2459 2458 2459 2364 2460 2529 2460 2434 2435 2529 2434 2461 2366 2462 2461 2530 2435 2463 2462 2367 2464 2463 2368 2465 2464 2369 2436 2531 2465 2467 2466 2371 2466 2531 2436 2468 2467 2372 2469 2468 2373 2469 2374 2470 2470 2375 2471 2473 2471 2377 2437 2472 2532 2437 2532 2473 2474 2472 2378 2475 2474 2379 2475 2380 2476 2381 2477 2476 2477 2382 2478 2438 2533 2478 2479 2533 2438 2384 2480 2479 2480 2385 2481 2482 2481 2386 2534 2482 2439 2534 2439 2483 2388 2484 2483 2485 2484 2389 2485 2390 2486 2486 2391 2487 2488 2487 2392 2488 2393 2489 2394 2490 2489 2535 2490 2440 2491 2396 2492 2535 2440 2491 2492 2441 2536 2536 2441 2493 2493 2398 2494 2495 2494 2399 2401 2496 2495 2537 2448 2442 2538 2443 2497 2497 2402 2498 2403 2539 2498 2404 2500 2499 2539 2403 2499 2406 2501 2500 2407 2502 2501 2503 2502 2408 2503 2409 2504 2504 2410 2505 2505 2411 2506 2506 2412 2507 2507 2444 2540 2540 2444 2508 2508 2414 2509 2510 2509 2415 2416 2511 2510 2541 2511 2445 2513 2512 2418 2541 2445 2512 2419 2514 2513 2515 2514 2420 2515 2421 2516 2516 2422 2517 2423 2518 2517 2446 2542 2518 2519 2542 2446 2425 2520 2519 2520 2426 2521 2427 2522 2521 2522 2428 2523 2524 2523 2429 2447 2543 2524 2525 2543 2447 2431 2526 2525 2544 2526 2448 2449 2537 2442 2449 2527 2545 2546 2450 2451 2546 2527 2450 2452 2547 2451 2452 2453 2548 2453 2454 2549 2550 2454 2528 2456 2551 2455 2455 2551 2528 2457 2552 2456 2553 2457 2458 2459 2554 2458 2555 2459 2460 2460 2529 2556 2435 2530 2529 2557 2461 2462 2557 2530 2461 2463 2558 2462 2559 2463 2464 2560 2464 2465 2531 2561 2465 2562 2466 2467 2562 2531 2466 2563 2467 2468 2564 2468 2469 2565 2469 2470 2566 2470 2471 2473 2567 2471 2472 2568 2532 2532 2569 2473 2474 2568 2472 2570 2474 2475 2571 2475 2476 2477 2572 2476 2573 2477 2478 2533 2574 2478 2575 2533 2479 2480 2575 2479 2480 2481 2576 2577 2481 2482 2534 2578 2482 2579 2534 2483 2484 2579 2483 2580 2484 2485 2485 2486 2581 2582 2486 2487 2488 2583 2487 2584 2488 2489 2489 2490 2585 2535 2586 2490 2491 2492 2587 2535 2491 2587 2492 2536 2588 2536 2493 2589 2493 2494 2589 2590 2494 2495 2496 2591 2495 2544 2448 2537 2592 2538 2497 2497 2498 2593 2539 2594 2498 2500 2595 2499 2595 2539 2499 2501 2596 2500 2502 2597 2501 2598 2502 2503 2503 2504 2599 2504 2505 2600 2505 2506 2601 2506 2507 2602 2507 2540 2603 2540 2508 2604 2604 2508 2509 2510 2605 2509 2510 2511 2606 2541 2607 2511 2608 2512 2513 2541 2512 2608 2514 2609 2513 2515 2610 2514 2611 2515 2516 2612 2516 2517 2518 2613 2517 2518 2542 2614 2519 2615 2542 2519 2520 2615 2616 2520 2521 2521 2522 2617 2522 2523 2618 2619 2523 2524 2543 2620 2524 2525 2621 2543 2525 2526 2621 2544 2622 2526 2537 2449 2545 2527 2623 2545 2547 2546 2451 2546 2623 2527 2452 2548 2547 2548 2453 2549 2454 2550 2549 2624 2550 2528 2552 2551 2456 2551 2624 2528 2553 2552 2457 2554 2553 2458 2459 2555 2554 2555 2460 2556 2556 2529 2625 2529 2530 2625 2558 2557 2462 2557 2626 2530 2559 2558 2463 2559 2464 2560 2561 2560 2465 2627 2561 2531 2562 2467 2563 2627 2531 2562 2563 2468 2564 2564 2469 2565 2566 2565 2470 2567 2566 2471 2473 2569 2567 2568 2628 2532 2532 2628 2569 2570 2568 2474 2570 2475 2571 2572 2571 2476 2477 2573 2572 2574 2573 2478 2533 2629 2574 2575 2629 2533 2480 2576 2575 2576 2481 2577 2578 2577 2482 2534 2630 2578 2579 2630 2534 2580 2579 2484 2580 2485 2581 2581 2486 2582 2583 2582 2487 2584 2583 2488 2584 2489 2585 2490 2586 2585 2631 2586 2535 2492 2588 2587 2631 2535 2587 2588 2536 2632 2632 2536 2589 2494 2590 2589 2591 2590 2495 2544 2537 2633 2634 2538 2592 2592 2497 2593 2498 2594 2593 2635 2594 2539 2596 2595 2500 2595 2635 2539 2501 2597 2596 2598 2597 2502 2598 2503 2599 2599 2504 2600 2505 2601 2600 2601 2506 2602 2507 2603 2602 2603 2540 2636 2636 2540 2604 2605 2604 2509 2510 2606 2605 2511 2607 2606 2637 2607 2541 2609 2608 2513 2637 2541 2608 2514 2610 2609 2611 2610 2515 2612 2611 2516 2613 2612 2517 2613 2518 2614 2542 2638 2614 2542 2615 2638 2615 2520 2616 2616 2521 2617 2617 2522 2618 2618 2523 2619 2620 2619 2524 2543 2639 2620 2543 2621 2639 2526 2622 2621 2640 2622 2544 2633 2537 2545 2623 2641 2545 2547 2642 2546 2546 2642 2623 2547 2548 2643 2644 2548 2549 2550 2645 2549 2646 2550 2624 2552 2647 2551 2551 2647 2624 2648 2552 2553 2553 2554 2649 2555 2650 2554 2651 2555 2556 2652 2556 2625 2530 2626 2625 2558 2653 2557 2557 2653 2626 2559 2654 2558 2655 2559 2560 2561 2656 2560 2657 2561 2627 2562 2563 2658 2627 2562 2658 2563 2564 2659 2564 2565 2660 2661 2565 2566 2662 2566 2567 2569 2663 2567 2568 2664 2628 2569 2628 2665 2570 2664 2568 2666 2570 2571 2667 2571 2572 2573 2668 2572 2669 2573 2574 2629 2670 2574 2629 2575 2671 2575 2576 2671 2672 2576 2577 2577 2578 2673 2578 2630 2674 2579 2675 2630 2580 2675 2579 2676 2580 2581 2677 2581 2582 2583 2678 2582 2679 2583 2584 2680 2584 2585 2586 2681 2585 2682 2586 2631 2587 2588 2683 2631 2587 2683 2588 2632 2684 2632 2589 2685 2590 2686 2589 2591 2687 2590 2640 2544 2633 2634 2592 2688 2592 2593 2689 2594 2690 2593 2635 2691 2594 2692 2595 2596 2692 2635 2595 2597 2693 2596 2598 2694 2597 2695 2598 2599 2696 2599 2600 2601 2697 2600 2601 2602 2698 2603 2699 2602 2603 2636 2700 2701 2636 2604 2701 2604 2605 2606 2702 2605 2607 2703 2606 2704 2607 2637 2609 2705 2608 2705 2637 2608 2610 2706 2609 2611 2707 2610 2612 2708 2611 2709 2612 2613 2710 2613 2614 2638 2711 2614 2638 2615 2712 2615 2616 2712 2713 2616 2617 2714 2617 2618 2715 2618 2619 2620 2716 2619 2639 2717 2620 2621 2718 2639 2622 2718 2621 2640 2719 2622 2641 2633 2545 2623 2720 2641 2547 2643 2642 2623 2642 2720 2643 2548 2644 2645 2644 2549 2646 2645 2550 2721 2646 2624 2648 2647 2552 2647 2721 2624 2648 2553 2649 2554 2650 2649 2651 2650 2555 2651 2556 2652 2722 2652 2625 2626 2722 2625 2558 2654 2653 2626 2653 2723 2655 2654 2559 2656 2655 2560 2657 2656 2561 2657 2627 2724 2563 2659 2658 2627 2658 2724 2564 2660 2659 2660 2565 2661 2661 2566 2662 2663 2662 2567 2569 2665 2663 2628 2664 2725 2665 2628 2725 2666 2664 2570 2667 2666 2571 2668 2667 2572 2669 2668 2573 2670 2669 2574 2726 2670 2629 2726 2629 2671 2576 2672 2671 2672 2577 2673 2578 2674 2673 2674 2630 2727 2630 2675 2727 2676 2675 2580 2677 2676 2581 2678 2677 2582 2679 2678 2583 2679 2584 2680 2681 2680 2585 2682 2681 2586 2682 2631 2728 2588 2684 2683 2728 2631 2683 2684 2632 2685 2589 2686 2685 2590 2687 2686 2729 2640 2633 2730 2634 2688 2688 2592 2689 2593 2690 2689 2594 2691 2690 2635 2731 2691 2693 2692 2596 2692 2731 2635 2597 2694 2693 2695 2694 2598 2696 2695 2599 2697 2696 2600 2697 2601 2698 2602 2699 2698 2603 2700 2699 2700 2636 2732 2732 2636 2701 2702 2701 2605 2606 2703 2702 2704 2703 2607 2704 2637 2733 2609 2706 2705 2733 2637 2705 2610 2707 2706 2611 2708 2707 2709 2708 2612 2710 2709 2613 2711 2710 2614 2638 2734 2711 2638 2712 2734 2712 2616 2713 2714 2713 2617 2715 2714 2618 2716 2715 2619 2620 2717 2716 2735 2717 2639 2718 2735 2639 2622 2719 2718 2736 2719 2640 2641 2729 2633 2641 2720 2737 2642 2643 2738 2720 2642 2738 2643 2644 2739 2740 2644 2645 2646 2741 2645 2721 2742 2646 2743 2647 2648 2743 2721 2647 2744 2648 2649 2650 2745 2649 2651 2746 2650 2747 2651 2652 2722 2748 2652 2626 2723 2722 2653 2654 2749 2723 2653 2749 2655 2750 2654 2656 2751 2655 2657 2752 2656 2753 2657 2724 2658 2659 2754 2724 2658 2754 2660 2755 2659 2660 2661 2756 2757 2661 2662 2663 2758 2662 2663 2665 2759 2664 2760 2725 2665 2725 2761 2666 2760 2664 2762 2666 2667 2763 2667 2668 2764 2668 2669 2765 2669 2670 2766 2670 2726 2767 2726 2671 2672 2767 2671 2768 2672 2673 2674 2769 2673 2674 2727 2770 2675 2771 2727 2676 2771 2675 2772 2676 2677 2773 2677 2678 2774 2678 2679 2775 2679 2680 2681 2776 2680 2682 2777 2681 2778 2682 2728 2683 2684 2779 2728 2683 2779 2780 2684 2685 2686 2781 2685 2687 2782 2686 2736 2640 2729 2783 2730 2688 2784 2688 2689 2690 2784 2689 2690 2691 2785 2691 2731 2786 2787 2692 2693 2787 2731 2692 2694 2788 2693 2695 2789 2694 2696 2790 2695 2791 2696 2697 2697 2698 2792 2698 2699 2793 2699 2700 2794 2700 2732 2795 2732 2701 2796 2796 2701 2702 2703 2797 2702 2704 2798 2703 2799 2704 2733 2706 2800 2705 2800 2733 2705 2706 2707 2801 2707 2708 2802 2709 2803 2708 2804 2709 2710 2710 2711 2805 2711 2734 2806 2734 2712 2807 2807 2712 2713 2714 2808 2713 2715 2809 2714 2810 2715 2716 2717 2811 2716 2812 2717 2735 2735 2718 2813 2718 2719 2813 2736 2814 2719 2729 2641 2737 2720 2815 2737 2643 2739 2738 2815 2720 2738 2739 2644 2740 2741 2740 2645 2646 2742 2741 2721 2816 2742 2743 2648 2744 2743 2816 2721 2745 2744 2649 2650 2746 2745 2747 2746 2651 2748 2747 2652 2748 2722 2817 2722 2723 2817 2654 2750 2749 2818 2723 2749 2655 2751 2750 2656 2752 2751 2753 2752 2657 2819 2753 2724 2659 2755 2754 2819 2724 2754 2660 2756 2755 2756 2661 2757 2758 2757 2662 2758 2663 2759 2665 2761 2759 2760 2820 2725 2725 2820 2761 2762 2760 2666 2762 2667 2763 2763 2668 2764 2764 2669 2765 2765 2670 2766 2766 2726 2821 2821 2726 2767 2768 2767 2672 2769 2768 2673 2769 2674 2770 2727 2822 2770 2771 2822 2727 2772 2771 2676 2772 2677 2773 2773 2678 2774 2774 2679 2775 2776 2775 2680 2681 2777 2776 2778 2777 2682 2778 2728 2823 2779 2684 2824 2728 2779 2823 2684 2780 2824 2781 2780 2685 2782 2781 2686 2736 2729 2825 2826 2730 2783 2783 2688 2827 2688 2784 2827 2690 2785 2784 2691 2786 2785 2731 2828 2786 2788 2787 2693 2787 2828 2731 2694 2789 2788 2695 2790 2789 2791 2790 2696 2791 2697 2792 2698 2793 2792 2793 2699 2794 2700 2795 2794 2795 2732 2829 2829 2732 2796 2797 2796 2702 2703 2798 2797 2799 2798 2704 2830 2799 2733 2800 2706 2801 2830 2733 2800 2801 2707 2802 2708 2803 2802 2804 2803 2709 2804 2710 2805 2805 2711 2806 2806 2734 2831 2831 2734 2807 2808 2807 2713 2714 2809 2808 2810 2809 2715 2811 2810 2716 2812 2811 2717 2812 2735 2832 2735 2813 2832 2719 2814 2813 2833 2814 2736 2825 2729 2737 2815 2834 2737 2739 2835 2738 2835 2815 2738 2739 2740 2836 2740 2741 2837 2741 2742 2838 2742 2816 2839 2840 2743 2744 2840 2816 2743 2745 2841 2744 2746 2842 2745 2843 2746 2747 2844 2747 2748 2845 2748 2817 2723 2818 2817 2750 2846 2749 2846 2818 2749 2750 2751 2847 2751 2752 2848 2753 2849 2752 2850 2753 2819 2755 2851 2754 2851 2819 2754 2756 2852 2755 2756 2757 2853 2854 2757 2758 2758 2759 2855 2761 2856 2759 2857 2820 2760 2820 2858 2761 2857 2760 2762 2762 2763 2859 2763 2764 2860 2764 2765 2861 2765 2766 2862 2766 2821 2863 2821 2767 2864 2864 2767 2768 2865 2768 2769 2866 2769 2770 2822 2867 2770 2868 2822 2771 2868 2771 2772 2772 2773 2869 2773 2774 2870 2871 2774 2775 2775 2776 2872 2777 2873 2776 2874 2777 2778 2875 2778 2823 2876 2779 2824 2779 2876 2823 2780 2877 2824 2781 2878 2780 2782 2879 2781 2833 2736 2825 2826 2783 2880 2881 2783 2827 2784 2882 2827 2785 2882 2784 2786 2883 2785 2786 2828 2884 2788 2885 2787 2787 2885 2828 2788 2789 2886 2789 2790 2887 2791 2888 2790 2889 2791 2792 2792 2793 2890 2891 2793 2794 2795 2892 2794 2893 2795 2829 2894 2829 2796 2797 2894 2796 2798 2895 2797 2896 2798 2799 2897 2799 2830 2898 2800 2801 2898 2830 2800 2899 2801 2802 2803 2900 2802 2804 2901 2803 2902 2804 2805 2903 2805 2806 2904 2806 2831 2905 2831 2807 2808 2905 2807 2809 2906 2808 2907 2809 2810 2908 2810 2811 2909 2811 2812 2910 2812 2832 2813 2911 2832 2814 2911 2813 2833 2912 2814 2834 2825 2737 2815 2913 2834 2739 2836 2835 2835 2913 2815 2836 2740 2837 2741 2838 2837 2838 2742 2839 2816 2914 2839 2841 2840 2744 2840 2914 2816 2745 2842 2841 2843 2842 2746 2843 2747 2844 2844 2748 2845 2915 2845 2817 2818 2915 2817 2750 2847 2846 2846 2916 2818 2847 2751 2848 2752 2849 2848 2850 2849 2753 2850 2819 2917 2755 2852 2851 2819 2851 2917 2756 2853 2852 2853 2757 2854 2854 2758 2855 2759 2856 2855 2858 2856 2761 2918 2820 2857 2918 2858 2820 2857 2762 2859 2763 2860 2859 2764 2861 2860 2861 2765 2862 2766 2863 2862 2821 2919 2863 2821 2864 2919 2864 2768 2865 2865 2769 2866 2867 2866 2770 2822 2920 2867 2868 2920 2822 2868 2772 2869 2773 2870 2869 2870 2774 2871 2871 2775 2872 2776 2873 2872 2874 2873 2777 2874 2778 2875 2876 2875 2823 2877 2876 2824 2878 2877 2780 2781 2879 2878 2921 2833 2825 2922 2826 2880 2880 2783 2881 2882 2881 2827 2883 2882 2785 2883 2786 2884 2828 2923 2884 2788 2886 2885 2828 2885 2923 2886 2789 2887 2790 2888 2887 2889 2888 2791 2889 2792 2890 2890 2793 2891 2892 2891 2794 2892 2795 2893 2924 2893 2829 2894 2924 2829 2895 2894 2797 2896 2895 2798 2896 2799 2897 2897 2830 2925 2899 2898 2801 2925 2830 2898 2900 2899 2802 2803 2901 2900 2902 2901 2804 2903 2902 2805 2904 2903 2806 2926 2904 2831 2905 2926 2831 2906 2905 2808 2907 2906 2809 2907 2810 2908 2908 2811 2909 2909 2812 2910 2927 2910 2832 2911 2927 2832 2814 2912 2911 2928 2912 2833 2834 2921 2825 2834 2913 2929 2835 2836 2930 2835 2930 2913 2931 2836 2837 2838 2932 2837 2933 2838 2839 2914 2934 2839 2935 2840 2841 2935 2914 2840 2842 2936 2841 2937 2842 2843 2843 2844 2938 2844 2845 2939 2845 2915 2940 2818 2916 2915 2846 2847 2941 2846 2941 2916 2847 2848 2942 2848 2849 2943 2850 2944 2849 2945 2850 2917 2851 2852 2946 2917 2851 2946 2852 2853 2947 2853 2854 2948 2949 2854 2855 2856 2950 2855 2858 2951 2856 2918 2857 2952 2953 2858 2918 2952 2857 2859 2859 2860 2954 2860 2861 2955 2956 2861 2862 2863 2957 2862 2863 2919 2958 2919 2864 2959 2864 2865 2959 2865 2866 2960 2866 2867 2961 2920 2962 2867 2963 2920 2868 2963 2868 2869 2869 2870 2964 2870 2871 2965 2966 2871 2872 2873 2967 2872 2968 2873 2874 2969 2874 2875 2876 2970 2875 2971 2876 2877 2972 2877 2878 2879 2973 2878 2928 2833 2921 2922 2880 2974 2975 2880 2881 2881 2882 2976 2883 2977 2882 2978 2883 2884 2923 2979 2884 2885 2886 2980 2885 2980 2923 2981 2886 2887 2888 2982 2887 2889 2983 2888 2984 2889 2890 2985 2890 2891 2892 2986 2891 2987 2892 2893 2924 2988 2893 2894 2989 2924 2895 2989 2894 2990 2895 2896 2896 2897 2991 2897 2925 2992 2993 2898 2899 2925 2898 2993 2994 2899 2900 2901 2995 2900 2902 2996 2901 2997 2902 2903 2998 2903 2904 2926 2999 2904 2905 3000 2926 2906 3000 2905 3001 2906 2907 2907 2908 3002 2908 2909 3003 2909 2910 3004 3005 2910 2927 2911 3006 2927 2911 2912 3006 2928 3007 2912 2921 2834 2929 2913 3008 2929 2930 2836 2931 2913 2930 3008 2932 2931 2837 2838 2933 2932 2934 2933 2839 2914 3009 2934 2936 2935 2841 2935 3009 2914 2937 2936 2842 2937 2843 2938 2844 2939 2938 2939 2845 2940 2915 3010 2940 2916 3010 2915 2941 2847 2942 2916 2941 3011 2942 2848 2943 2849 2944 2943 2945 2944 2850 3012 2945 2917 2852 2947 2946 3012 2917 2946 2947 2853 2948 2948 2854 2949 2950 2949 2855 2856 2951 2950 2953 2951 2858 2918 2952 3013 2953 2918 3013 2952 2859 2954 2954 2860 2955 2955 2861 2956 2957 2956 2862 2957 2863 2958 2958 2919 3014 3014 2919 2959 2959 2865 2960 2866 2961 2960 2867 2962 2961 3015 2962 2920 3015 2920 2963 2963 2869 2964 2964 2870 2965 2965 2871 2966 2967 2966 2872 2968 2967 2873 2968 2874 2969 2969 2875 3016 2971 2970 2876 2875 2970 3016 2971 2877 2972 2973 2972 2878 2928 2921 3017 3018 2922 2974 2974 2880 2975 2975 2881 2976 2882 2977 2976 2978 2977 2883 2979 2978 2884 3019 2979 2923 2980 2886 2981 2980 3019 2923 2982 2981 2887 2888 2983 2982 2984 2983 2889 2985 2984 2890 2986 2985 2891 2987 2986 2892 2988 2987 2893 3020 2988 2924 2989 3020 2924 2990 2989 2895 2990 2896 2991 2897 2992 2991 2925 3021 2992 2993 2899 2994 2925 2993 3021 2995 2994 2900 2901 2996 2995 2997 2996 2902 2997 2903 2998 2999 2998 2904 2926 3022 2999 3000 3022 2926 3001 3000 2906 3001 2907 3002 2908 3003 3002 3003 2909 3004 3004 2910 3005 3023 3005 2927 3006 3023 2927 2912 3007 3006 3024 3007 2928 3017 2921 2929 3008 3025 2929 2930 2931 3026 3008 2930 3026 3027 2931 2932 2932 2933 3028 2934 3029 2933 2934 3009 3030 2936 3031 2935 2935 3031 3009 2937 3032 2936 3033 2937 2938 2938 2939 3034 3035 2939 2940 3010 3036 2940 2916 3011 3010 3037 2941 2942 3011 2941 3037 3038 2942 2943 2944 3039 2943 2945 3040 2944 3041 2945 3012 2946 2947 3042 3012 2946 3042 2947 2948 3043 3044 2948 2949 2950 3045 2949 2951 3046 2950 3047 2951 2953 3013 2952 3048 3049 2953 3013 3048 2952 2954 3050 2954 2955 3051 2955 2956 2957 3052 2956 3053 2957 2958 3054 2958 3014 3055 3014 2959 3055 2959 2960 2961 3056 2960 2962 3057 2961 3015 3058 2962 3015 2963 3059 3059 2963 2964 3060 2964 2965 3061 2965 2966 2967 3062 2966 3063 2967 2968 2968 2969 3064 3065 2969 3016 3066 2970 2971 2970 3067 3016 3068 2971 2972 2973 3069 2972 3024 2928 3017 3070 3018 2974 3071 2974 2975 3072 2975 2976 2977 3072 2976 2978 3073 2977 3074 2978 2979 3075 2979 3019 2980 2981 3076 2980 3076 3019 2981 2982 3077 2982 2983 3078 2984 3079 2983 2985 3080 2984 2986 3081 2985 2987 3082 2986 2988 3083 2987 3020 3084 2988 3085 3020 2989 3085 2989 2990 2990 2991 3086 2991 2992 3087 3021 3088 2992 3089 2993 2994 3021 2993 3089 2995 3090 2994 2995 2996 3091 2997 3092 2996 3093 2997 2998 2999 3094 2998 3022 3095 2999 3096 3022 3000 3096 3000 3001 3001 3002 3097 3002 3003 3098 3099 3003 3004 3100 3004 3005 3023 3101 3005 3006 3102 3023 3007 3102 3006 3024 3103 3007 3025 3017 2929 3008 3104 3025 2931 3027 3026 3104 3008 3026 3027 2932 3028 2933 3029 3028 2934 3030 3029 3030 3009 3105 2936 3032 3031 3009 3031 3105 3033 3032 2937 3033 2938 3034 3034 2939 3035 3036 3035 2940 3010 3106 3036 3010 3011 3106 3038 3037 2942 3011 3037 3107 3039 3038 2943 2944 3040 3039 3041 3040 2945 3041 3012 3108 3042 2947 3043 3108 3012 3042 3043 2948 3044 3045 3044 2949 3046 3045 2950 3047 3046 2951 3047 2953 3049 3109 3013 3048 3049 3013 3109 3050 3048 2954 3051 3050 2955 3052 3051 2956 3053 3052 2957 3053 2958 3054 3110 3054 3014 3055 3110 3014 3056 3055 2960 3057 3056 2961 2962 3058 3057 3111 3058 3015 3111 3015 3059 3060 3059 2964 3061 3060 2965 3062 3061 2966 3063 3062 2967 3063 2968 3064 3064 2969 3065 3067 3065 3016 3066 3067 2970 3068 3066 2971 3069 3068 2972 3112 3024 3017 3113 3018 3070 3070 2974 3071 3071 2975 3114 2975 3072 3114 2977 3073 3072 3074 3073 2978 3074 2979 3075 3115 3075 3019 2981 3077 3076 3076 3115 3019 2982 3078 3077 2983 3079 3078 2984 3080 3079 2985 3081 3080 2986 3082 3081 2987 3083 3082 2988 3084 3083 3020 3116 3084 3085 3116 3020 3085 2990 3086 2991 3087 3086 2992 3088 3087 3021 3117 3088 3090 3089 2994 3021 3089 3117 2995 3091 3090 2996 3092 3091 3093 3092 2997 3094 3093 2998 3095 3094 2999 3118 3095 3022 3118 3022 3096 3096 3001 3097 3097 3002 3098 3098 3003 3099 3100 3099 3004 3101 3100 3005 3023 3119 3101 3102 3119 3023 3007 3103 3102 3120 3103 3024 3025 3112 3017 3025 3104 3121 3027 3122 3026 3122 3104 3026 3123 3027 3028 3029 3124 3028 3029 3030 3125 3126 3030 3105 3031 3032 3127 3031 3127 3105 3033 3128 3032 3129 3033 3034 3130 3034 3035 3036 3131 3035 3106 3132 3036 3011 3107 3106 3133 3037 3038 3107 3037 3133 3134 3038 3039 3039 3040 3135 3041 3136 3040 3137 3041 3108 3138 3042 3043 3138 3108 3042 3139 3043 3044 3045 3140 3044 3046 3141 3045 3142 3046 3047 3047 3049 3143 3144 3109 3048 3145 3049 3109 3050 3144 3048 3146 3050 3051 3052 3147 3051 3053 3148 3052 3149 3053 3054 3110 3150 3054 3151 3110 3055 3056 3151 3055 3152 3056 3057 3058 3153 3057 3154 3058 3111 3155 3111 3059 3060 3155 3059 3156 3060 3061 3062 3157 3061 3158 3062 3063 3159 3063 3064 3160 3064 3065 3067 3161 3065 3162 3067 3066 3066 3068 3163 3069 3164 3068 3120 3024 3112 3113 3070 3165 3070 3071 3166 3167 3071 3114 3072 3168 3114 3072 3073 3168 3074 3169 3073 3170 3074 3075 3115 3171 3075 3077 3172 3076 3172 3115 3076 3077 3078 3173 3079 3174 3078 3079 3080 3175 3080 3081 3176 3081 3082 3177 3082 3083 3178 3083 3084 3179 3084 3116 3180 3181 3116 3085 3181 3085 3086 3087 3182 3086 3087 3088 3183 3088 3117 3184 3185 3089 3090 3117 3089 3185 3091 3186 3090 3092 3187 3091 3188 3092 3093 3189 3093 3094 3190 3094 3095 3191 3095 3118 3118 3096 3192 3192 3096 3097 3193 3097 3098 3194 3098 3099 3100 3195 3099 3196 3100 3101 3119 3197 3101 3119 3102 3198 3102 3103 3198 3120 3199 3103 3112 3025 3121 3104 3200 3121 3123 3122 3027 3122 3200 3104 3124 3123 3028 3029 3125 3124 3125 3030 3126 3201 3126 3105 3032 3128 3127 3127 3201 3105 3129 3128 3033 3130 3129 3034 3131 3130 3035 3036 3132 3131 3202 3132 3106 3107 3202 3106 3133 3038 3134 3107 3133 3203 3134 3039 3135 3040 3136 3135 3137 3136 3041 3204 3137 3108 3139 3138 3043 3138 3204 3108 3140 3139 3044 3045 3141 3140 3142 3141 3046 3142 3047 3143 3143 3049 3145 3144 3205 3109 3205 3145 3109 3146 3144 3050 3147 3146 3051 3052 3148 3147 3149 3148 3053 3150 3149 3054 3110 3206 3150 3151 3206 3110 3152 3151 3056 3153 3152 3057 3154 3153 3058 3154 3111 3207 3207 3111 3155 3156 3155 3060 3157 3156 3061 3158 3157 3062 3158 3063 3159 3159 3064 3160 3161 3160 3065 3162 3161 3067 3162 3066 3163 3068 3164 3163 3120 3112 3208 3209 3113 3165 3165 3070 3166 3071 3167 3166 3210 3167 3114 3168 3210 3114 3073 3169 3168 3170 3169 3074 3171 3170 3075 3211 3171 3115 3077 3173 3172 3211 3115 3172 3078 3174 3173 3079 3175 3174 3175 3080 3176 3176 3081 3177 3082 3178 3177 3178 3083 3179 3084 3180 3179 3116 3212 3180 3181 3212 3116 3182 3181 3086 3182 3087 3183 3183 3088 3184 3184 3117 3213 3186 3185 3090 3213 3117 3185 3187 3186 3091 3188 3187 3092 3188 3093 3189 3189 3094 3190 3190 3095 3191 3191 3118 3214 3118 3192 3214 3192 3097 3193 3194 3193 3098 3195 3194 3099 3196 3195 3100 3197 3196 3101 3215 3197 3119 3215 3119 3198 3103 3199 3198 3216 3199 3120 3208 3112 3121 3200 3217 3121 3123 3218 3122 3122 3218 3200 3124 3219 3123 3124 3125 3220 3125 3126 3221 3126 3201 3222 3127 3128 3223 3127 3223 3201 3129 3224 3128 3225 3129 3130 3226 3130 3131 3132 3227 3131 3202 3228 3132 3107 3203 3202 3133 3134 3229 3203 3133 3229 3134 3135 3230 3136 3231 3135 3232 3136 3137 3233 3137 3204 3139 3234 3138 3234 3204 3138 3235 3139 3140 3141 3236 3140 3237 3141 3142 3142 3143 3238 3239 3143 3145 3144 3240 3205 3205 3241 3145 3146 3240 3144 3242 3146 3147 3148 3243 3147 3244 3148 3149 3149 3150 3245 3206 3246 3150 3151 3247 3206 3152 3247 3151 3153 3248 3152 3249 3153 3154 3154 3207 3250 3207 3155 3251 3251 3155 3156 3252 3156 3157 3253 3157 3158 3158 3159 3254 3255 3159 3160 3161 3256 3160 3257 3161 3162 3258 3162 3163 3164 3259 3163 3216 3120 3208 3260 3209 3165 3165 3166 3261 3167 3262 3166 3263 3167 3210 3168 3264 3210 3169 3264 3168 3170 3265 3169 3171 3266 3170 3211 3267 3171 3173 3268 3172 3268 3211 3172 3174 3269 3173 3174 3175 3270 3175 3176 3271 3272 3176 3177 3178 3273 3177 3274 3178 3179 3179 3180 3275 3212 3276 3180 3277 3212 3181 3277 3181 3182 3278 3182 3183 3279 3183 3184 3280 3184 3213 3186 3281 3185 3281 3213 3185 3187 3282 3186 3283 3187 3188 3188 3189 3284 3189 3190 3285 3190 3191 3286 3287 3191 3214 3214 3192 3288 3288 3192 3193 3194 3289 3193 3195 3290 3194 3291 3195 3196 3292 3196 3197 3293 3197 3215 3294 3215 3198 3199 3294 3198 3216 3295 3199 3217 3208 3121 3200 3296 3217 3123 3219 3218 3200 3218 3296 3124 3220 3219 3220 3125 3221 3221 3126 3222 3201 3297 3222 3128 3224 3223 3223 3297 3201 3225 3224 3129 3225 3130 3226 3227 3226 3131 3132 3228 3227 3202 3298 3228 3202 3203 3298 3229 3134 3230 3299 3203 3229 3135 3231 3230 3232 3231 3136 3232 3137 3233 3233 3204 3300 3235 3234 3139 3300 3204 3234 3236 3235 3140 3237 3236 3141 3237 3142 3238 3238 3143 3239 3241 3239 3145 3205 3240 3301 3205 3301 3241 3242 3240 3146 3243 3242 3147 3244 3243 3148 3244 3149 3245 3150 3246 3245 3206 3302 3246 3206 3247 3302 3152 3248 3247 3249 3248 3153 3249 3154 3250 3250 3207 3303 3207 3251 3303 3251 3156 3252 3252 3157 3253 3253 3158 3254 3159 3255 3254 3256 3255 3160 3257 3256 3161 3258 3257 3162 3259 3258 3163 3304 3216 3208 3305 3209 3260 3260 3165 3261 3166 3262 3261 3263 3262 3167 3306 3263 3210 3264 3306 3210 3169 3265 3264 3170 3266 3265 3171 3267 3266 3211 3307 3267 3269 3268 3173 3268 3307 3211 3174 3270 3269 3270 3175 3271 3176 3272 3271 3273 3272 3177 3178 3274 3273 3274 3179 3275 3180 3276 3275 3212 3308 3276 3277 3308 3212 3277 3182 3278 3279 3278 3183 3280 3279 3184 3309 3280 3213 3186 3282 3281 3281 3309 3213 3283 3282 3187 3283 3188 3284 3189 3285 3284 3190 3286 3285 3286 3191 3287 3287 3214 3310 3310 3214 3288 3289 3288 3193 3194 3290 3289 3291 3290 3195 3291 3196 3292 3292 3197 3293 3293 3215 3311 3215 3294 3311 3199 3295 3294 3312 3295 3216 3217 3304 3208 3217 3296 3313 3218 3219 3314 3296 3218 3314 3219 3220 3315 3316 3220 3221 3317 3221 3222 3222 3297 3318 3224 3319 3223 3223 3319 3297 3225 3320 3224 3321 3225 3226 3227 3322 3226 3227 3228 3323 3228 3298 3324 3298 3203 3299 3325 3229 3230 3325 3299 3229 3231 3326 3230 3327 3231 3232 3232 3233 3328 3233 3300 3329 3330 3234 3235 3300 3234 3330 3331 3235 3236 3332 3236 3237 3333 3237 3238 3334 3238 3239 3241 3335 3239 3240 3336 3301 3241 3301 3337 3242 3336 3240 3338 3242 3243 3339 3243 3244 3340 3244 3245 3246 3341 3245 3246 3302 3342 3302 3247 3343 3247 3248 3343 3249 3344 3248 3345 3249 3250 3346 3250 3303 3303 3251 3347 3251 3252 3347 3252 3253 3348 3349 3253 3254 3255 3350 3254 3256 3351 3255 3352 3256 3257 3257 3258 3353 3259 3354 3258 3312 3216 3304 3305 3260 3355 3356 3260 3261 3262 3356 3261 3263 3357 3262 3358 3263 3306 3264 3359 3306 3264 3265 3359 3265 3266 3360 3266 3267 3361 3267 3307 3362 3269 3363 3268 3268 3363 3307 3269 3270 3364 3365 3270 3271 3272 3366 3271 3367 3272 3273 3274 3368 3273 3369 3274 3275 3276 3370 3275 3276 3308 3371 3372 3308 3277 3372 3277 3278 3279 3373 3278 3280 3374 3279 3375 3280 3309 3282 3376 3281 3281 3376 3309 3377 3282 3283 3378 3283 3284 3285 3379 3284 3286 3380 3285 3286 3287 3381 3382 3287 3310 3383 3310 3288 3289 3383 3288 3290 3384 3289 3385 3290 3291 3291 3292 3386 3292 3293 3387 3388 3293 3311 3294 3389 3311 3295 3389 3294 3312 3390 3295 3217 3313 3304 3313 3296 3391 3219 3315 3314 3391 3296 3314 3315 3220 3316 3317 3316 3221 3317 3222 3318 3318 3297 3392 3224 3320 3319 3297 3319 3392 3321 3320 3225 3322 3321 3226 3322 3227 3323 3228 3324 3323 3324 3298 3393 3298 3299 3393 3326 3325 3230 3299 3325 3394 3327 3326 3231 3327 3232 3328 3233 3329 3328 3300 3395 3329 3330 3235 3331 3300 3330 3395 3331 3236 3332 3332 3237 3333 3333 3238 3334 3335 3334 3239 3335 3241 3337 3336 3396 3301 3301 3396 3337 3338 3336 3242 3338 3243 3339 3339 3244 3340 3341 3340 3245 3246 3342 3341 3342 3302 3397 3397 3302 3343 3248 3344 3343 3345 3344 3249 3346 3345 3250 3398 3346 3303 3398 3303 3347 3252 3348 3347 3348 3253 3349 3350 3349 3254 3350 3255 3399 3352 3351 3256 3255 3351 3399 3352 3257 3353 3258 3354 3353 3400 3312 3304 3401 3305 3355 3355 3260 3402 3260 3356 3402 3262 3357 3356 3358 3357 3263 3403 3358 3306 3359 3403 3306 3265 3360 3359 3360 3266 3361 3267 3362 3361 3362 3307 3404 3269 3364 3363 3307 3363 3404 3364 3270 3365 3366 3365 3271 3367 3366 3272 3368 3367 3273 3369 3368 3274 3370 3369 3275 3370 3276 3371 3308 3405 3371 3372 3405 3308 3373 3372 3278 3374 3373 3279 3375 3374 3280 3406 3375 3309 3377 3376 3282 3376 3406 3309 3377 3283 3378 3379 3378 3284 3285 3380 3379 3286 3381 3380 3381 3287 3382 3407 3382 3310 3383 3407 3310 3289 3384 3383 3385 3384 3290 3385 3291 3386 3386 3292 3387 3387 3293 3388 3408 3388 3311 3389 3408 3311 3295 3390 3389 3409 3390 3312 3313 3400 3304 3313 3391 3410 3315 3411 3314 3411 3391 3314 3315 3316 3412 3413 3316 3317 3414 3317 3318 3415 3318 3392 3319 3320 3416 3392 3319 3416 3321 3417 3320 3418 3321 3322 3419 3322 3323 3324 3420 3323 3421 3324 3393 3393 3299 3394 3326 3422 3325 3325 3422 3394 3423 3326 3327 3424 3327 3328 3329 3425 3328 3395 3426 3329 3330 3331 3427 3395 3330 3427 3331 3332 3428 3332 3333 3429 3430 3333 3334 3335 3431 3334 3432 3335 3337 3433 3396 3336 3396 3434 3337 3433 3336 3338 3338 3339 3435 3339 3340 3436 3340 3341 3437 3342 3438 3341 3439 3342 3397 3440 3397 3343 3344 3440 3343 3441 3344 3345 3442 3345 3346 3443 3346 3398 3398 3347 3444 3347 3348 3444 3348 3349 3445 3446 3349 3350 3447 3350 3399 3352 3448 3351 3351 3449 3399 3450 3352 3353 3354 3451 3353 3409 3312 3400 3401 3355 3452 3453 3355 3402 3356 3454 3402 3357 3454 3356 3358 3455 3357 3403 3456 3358 3457 3403 3359 3360 3457 3359 3458 3360 3361 3361 3362 3459 3362 3404 3460 3363 3364 3461 3404 3363 3461 3364 3365 3462 3463 3365 3366 3367 3464 3366 3368 3465 3367 3369 3466 3368 3467 3369 3370 3468 3370 3371 3405 3469 3371 3470 3405 3372 3470 3372 3373 3471 3373 3374 3472 3374 3375 3473 3375 3406 3474 3376 3377 3474 3406 3376 3377 3378 3475 3476 3378 3379 3380 3477 3379 3380 3381 3478 3381 3382 3479 3480 3382 3407 3481 3407 3383 3384 3481 3383 3482 3384 3385 3385 3386 3483 3484 3386 3387 3485 3387 3388 3408 3486 3388 3389 3487 3408 3389 3390 3487 3409 3488 3390 3400 3313 3410 3391 3489 3410 3315 3412 3411 3391 3411 3489 3412 3316 3413 3413 3317 3414 3415 3414 3318 3490 3415 3392 3320 3417 3416 3490 3392 3416 3418 3417 3321 3418 3322 3419 3420 3419 3323 3324 3421 3420 3421 3393 3491 3393 3394 3491 3423 3422 3326 3422 3492 3394 3423 3327 3424 3425 3424 3328 3426 3425 3329 3426 3395 3493 3331 3428 3427 3493 3395 3427 3332 3429 3428 3429 3333 3430 3431 3430 3334 3432 3431 3335 3434 3432 3337 3494 3396 3433 3494 3434 3396 3433 3338 3435 3339 3436 3435 3436 3340 3437 3341 3438 3437 3342 3439 3438 3495 3439 3397 3440 3495 3397 3441 3440 3344 3441 3345 3442 3442 3346 3443 3443 3398 3496 3496 3398 3444 3348 3445 3444 3445 3349 3446 3447 3446 3350 3449 3447 3399 3450 3448 3352 3351 3448 3449 3451 3450 3353 3409 3400 3497 3498 3401 3452 3355 3453 3452 3454 3453 3402 3455 3454 3357 3358 3456 3455 3499 3456 3403 3499 3403 3457 3360 3458 3457 3458 3361 3459 3362 3460 3459 3404 3500 3460 3364 3462 3461 3404 3461 3500 3462 3365 3463 3464 3463 3366 3465 3464 3367 3368 3466 3465 3467 3466 3369 3468 3467 3370 3469 3468 3371 3501 3469 3405 3501 3405 3470 3470 3373 3471 3471 3374 3472 3472 3375 3473 3473 3406 3502 3474 3377 3475 3502 3406 3474 3378 3476 3475 3477 3476 3379 3477 3380 3478 3381 3479 3478 3479 3382 3480 3480 3407 3503 3503 3407 3481 3482 3481 3384 3482 3385 3483 3483 3386 3484 3485 3484 3387 3486 3485 3388 3486 3408 3504 3408 3487 3504 3390 3488 3487 3505 3488 3409 3497 3400 3410 3489 3506 3410 3412 3507 3411 3411 3507 3489 3412 3413 3508 3509 3413 3414 3415 3510 3414 3511 3415 3490 3417 3512 3416 3512 3490 3416 3418 3513 3417 3514 3418 3419 3420 3515 3419 3421 3516 3420 3517 3421 3491 3394 3492 3491 3518 3422 3423 3518 3492 3422 3423 3424 3519 3520 3424 3425 3426 3521 3425 3522 3426 3493 3428 3523 3427 3523 3493 3427 3429 3524 3428 3429 3430 3525 3526 3430 3431 3527 3431 3432 3528 3432 3434 3494 3433 3529 3530 3434 3494 3529 3433 3435 3435 3436 3531 3532 3436 3437 3438 3533 3437 3438 3439 3534 3495 3535 3439 3536 3495 3440 3536 3440 3441 3441 3442 3537 3442 3443 3538 3443 3496 3539 3540 3496 3444 3445 3540 3444 3445 3446 3541 3542 3446 3447 3543 3447 3449 3544 3448 3450 3448 3545 3449 3451 3546 3450 3505 3409 3497 3547 3498 3452 3453 3547 3452 3548 3453 3454 3548 3454 3455 3455 3456 3549 3499 3550 3456 3551 3499 3457 3458 3551 3457 3552 3458 3459 3460 3553 3459 3460 3500 3554 3461 3462 3555 3500 3461 3555 3462 3463 3556 3557 3463 3464 3558 3464 3465 3466 3559 3465 3467 3560 3466 3468 3561 3467 3469 3562 3468 3563 3469 3501 3501 3470 3564 3470 3471 3564 3471 3472 3565 3472 3473 3566 3473 3502 3567 3568 3474 3475 3502 3474 3568 3476 3569 3475 3477 3570 3476 3571 3477 3478 3479 3572 3478 3479 3480 3573 3480 3503 3574 3503 3481 3575 3575 3481 3482 3576 3482 3483 3577 3483 3484 3485 3578 3484 3579 3485 3486 3580 3486 3504 3487 3581 3504 3488 3581 3487 3505 3582 3488 3506 3497 3410 3489 3583 3506 3412 3508 3507 3489 3507 3583 3508 3413 3509 3510 3509 3414 3511 3510 3415 3584 3511 3490 3417 3513 3512 3584 3490 3512 3514 3513 3418 3515 3514 3419 3516 3515 3420 3517 3516 3421 3585 3517 3491 3492 3585 3491 3518 3423 3519 3586 3492 3518 3424 3520 3519 3521 3520 3425 3522 3521 3426 3587 3522 3493 3524 3523 3428 3523 3587 3493 3429 3525 3524 3525 3430 3526 3526 3431 3527 3527 3432 3528 3528 3434 3530 3494 3529 3588 3530 3494 3588 3529 3435 3531 3531 3436 3532 3533 3532 3437 3533 3438 3534 3439 3535 3534 3589 3535 3495 3589 3495 3536 3536 3441 3537 3442 3538 3537 3538 3443 3539 3539 3496 3590 3496 3540 3590 3445 3541 3540 3541 3446 3542 3542 3447 3543 3545 3543 3449 3544 3545 3448 3546 3544 3450 3591 3505 3497 3592 3547 3453 3592 3453 3548 3593 3548 3455 3456 3550 3549 3593 3455 3549 3499 3594 3550 3551 3594 3499 3552 3551 3458 3553 3552 3459 3553 3460 3554 3500 3595 3554 3462 3556 3555 3595 3500 3555 3556 3463 3557 3557 3464 3558 3559 3558 3465 3466 3560 3559 3467 3561 3560 3468 3562 3561 3563 3562 3469 3563 3501 3596 3501 3564 3596 3471 3565 3564 3565 3472 3566 3473 3567 3566 3567 3502 3597 3569 3568 3475 3502 3568 3597 3476 3570 3569 3571 3570 3477 3572 3571 3478 3479 3573 3572 3573 3480 3574 3503 3598 3574 3503 3575 3598 3575 3482 3576 3577 3576 3483 3578 3577 3484 3579 3578 3485 3579 3486 3580 3599 3580 3504 3581 3599 3504 3488 3582 3581 3600 3582 3505 3506 3591 3497 3506 3583 3601 3507 3508 3602 3583 3507 3602 3508 3509 3603 3604 3509 3510 3605 3510 3511 3511 3584 3606 3513 3607 3512 3607 3584 3512 3608 3513 3514 3609 3514 3515 3610 3515 3516 3611 3516 3517 3612 3517 3585 3586 3585 3492 3518 3519 3613 3586 3518 3613 3519 3520 3614 3521 3615 3520 3522 3616 3521 3587 3617 3522 3618 3523 3524 3618 3587 3523 3525 3619 3524 3525 3526 3620 3526 3527 3621 3527 3528 3622 3528 3530 3623 3588 3529 3624 3625 3530 3588 3624 3529 3531 3626 3531 3532 3533 3627 3532 3628 3533 3534 3535 3629 3534 3630 3535 3589 3589 3536 3631 3631 3536 3537 3537 3538 3632 3633 3538 3539 3634 3539 3590 3540 3635 3590 3540 3541 3635 3541 3542 3636 3637 3542 3543 3545 3638 3543 3544 3639 3545 3546 3640 3544 3600 3505 3591 3641 3592 3548 3593 3641 3548 3550 3642 3549 3642 3593 3549 3550 3594 3643 3551 3644 3594 3552 3644 3551 3553 3645 3552 3646 3553 3554 3595 3647 3554 3556 3648 3555 3648 3595 3555 3556 3557 3649 3557 3558 3650 3558 3559 3651 3559 3560 3652 3560 3561 3653 3561 3562 3654 3563 3655 3562 3656 3563 3596 3564 3657 3596 3565 3657 3564 3658 3565 3566 3566 3567 3659 3567 3597 3660 3568 3569 3661 3568 3661 3597 3569 3570 3662 3571 3663 3570 3572 3664 3571 3572 3573 3665 3666 3573 3574 3598 3667 3574 3575 3668 3598 3575 3576 3668 3669 3576 3577 3670 3577 3578 3671 3578 3579 3579 3580 3672 3580 3599 3673 3581 3674 3599 3581 3582 3674 3600 3675 3582 3591 3506 3601 3583 3676 3601 3508 3603 3602 3676 3583 3602 3603 3509 3604 3604 3510 3605 3605 3511 3606 3584 3677 3606 3608 3607 3513 3607 3677 3584 3608 3514 3609 3609 3515 3610 3610 3516 3611 3611 3517 3612 3612 3585 3678 3678 3585 3586 3613 3519 3614 3679 3586 3613 3520 3615 3614 3521 3616 3615 3522 3617 3616 3587 3680 3617 3619 3618 3524 3618 3680 3587 3525 3620 3619 3620 3526 3621 3527 3622 3621 3528 3623 3622 3623 3530 3625 3681 3588 3624 3681 3625 3588 3626 3624 3531 3627 3626 3532 3628 3627 3533 3629 3628 3534 3630 3629 3535 3630 3589 3682 3589 3631 3682 3631 3537 3632 3632 3538 3633 3634 3633 3539 3683 3634 3590 3635 3683 3590 3541 3636 3635 3636 3542 3637 3638 3637 3543 3639 3638 3545 3544 3640 3639 3600 3591 3684 3685 3641 3593 3550 3686 3642 3685 3593 3642 3594 3687 3643 3686 3550 3643 3594 3644 3687 3552 3645 3644 3646 3645 3553 3647 3646 3554 3595 3688 3647 3556 3649 3648 3648 3688 3595 3649 3557 3650 3558 3651 3650 3559 3652 3651 3652 3560 3653 3653 3561 3654 3562 3655 3654 3656 3655 3563 3689 3656 3596 3657 3689 3596 3565 3658 3657 3658 3566 3659 3567 3660 3659 3597 3690 3660 3569 3662 3661 3597 3661 3690 3570 3663 3662 3571 3664 3663 3572 3665 3664 3665 3573 3666 3667 3666 3574 3691 3667 3598 3668 3691 3598 3668 3576 3669 3669 3577 3670 3670 3578 3671 3671 3579 3672 3672 3580 3673 3599 3692 3673 3674 3692 3599 3582 3675 3674 3693 3675 3600 3684 3591 3601 3676 3694 3601 3603 3695 3602 3695 3676 3602 3603 3604 3696 3604 3605 3697 3698 3605 3606 3677 3699 3606 3700 3607 3608 3700 3677 3607 3608 3609 3701 3609 3610 3702 3610 3611 3703 3611 3612 3704 3612 3678 3705 3678 3586 3679 3706 3613 3614 3706 3679 3613 3615 3707 3614 3615 3616 3708 3616 3617 3709 3617 3680 3710 3619 3711 3618 3618 3711 3680 3619 3620 3712 3713 3620 3621 3621 3622 3714 3623 3715 3622 3623 3625 3716 3717 3681 3624 3718 3625 3681 3626 3717 3624 3627 3719 3626 3628 3720 3627 3629 3721 3628 3722 3629 3630 3723 3630 3682 3682 3631 3724 3724 3631 3632 3725 3632 3633 3634 3726 3633 3727 3634 3683 3683 3635 3728 3635 3636 3728 3636 3637 3729 3637 3638 3730 3731 3638 3639 3640 3732 3639 3693 3600 3684 3686 3733 3642 3733 3685 3642 3687 3734 3643 3734 3686 3643 3644 3735 3687 3644 3645 3735 3646 3736 3645 3647 3737 3646 3647 3688 3738 3648 3649 3739 3648 3739 3688 3740 3649 3650 3651 3741 3650 3651 3652 3742 3652 3653 3743 3744 3653 3654 3655 3745 3654 3746 3655 3656 3656 3689 3747 3657 3748 3689 3658 3748 3657 3749 3658 3659 3660 3750 3659 3660 3690 3751 3661 3662 3752 3690 3661 3752 3663 3753 3662 3663 3664 3754 3664 3665 3755 3665 3666 3756 3757 3666 3667 3691 3758 3667 3668 3759 3691 3668 3669 3759 3669 3670 3760 3670 3671 3761 3762 3671 3672 3763 3672 3673 3692 3764 3673 3674 3765 3692 3674 3675 3765 3693 3766 3675 3694 3684 3601 3676 3767 3694 3603 3696 3695 3695 3767 3676 3696 3604 3697 3605 3698 3697 3699 3698 3606 3768 3699 3677 3700 3608 3701 3768 3677 3700 3609 3702 3701 3610 3703 3702 3703 3611 3704 3612 3705 3704 3678 3769 3705 3678 3679 3769 3707 3706 3614 3770 3679 3706 3615 3708 3707 3708 3616 3709 3617 3710 3709 3680 3771 3710 3619 3712 3711 3680 3711 3771 3712 3620 3713 3713 3621 3714 3622 3715 3714 3623 3716 3715 3716 3625 3718 3772 3681 3717 3718 3681 3772 3626 3719 3717 3627 3720 3719 3628 3721 3720 3722 3721 3629 3722 3630 3723 3773 3723 3682 3773 3682 3724 3725 3724 3632 3726 3725 3633 3727 3726 3634 3727 3683 3774 3774 3683 3728 3728 3636 3729 3729 3637 3730 3638 3775 3730 3731 3775 3638 3732 3731 3639 3776 3693 3684 3777 3733 3686 3778 3734 3687 3734 3777 3686 3735 3778 3687 3645 3736 3735 3646 3737 3736 3647 3738 3737 3738 3688 3779 3739 3649 3740 3688 3739 3779 3741 3740 3650 3741 3651 3742 3742 3652 3743 3653 3744 3743 3745 3744 3654 3746 3745 3655 3746 3656 3747 3689 3780 3747 3748 3780 3689 3749 3748 3658 3750 3749 3659 3750 3660 3751 3690 3781 3751 3662 3753 3752 3781 3690 3752 3663 3754 3753 3754 3664 3755 3665 3756 3755 3756 3666 3757 3758 3757 3667 3691 3782 3758 3691 3759 3782 3759 3669 3760 3670 3761 3760 3761 3671 3762 3763 3762 3672 3764 3763 3673 3692 3783 3764 3692 3765 3783 3675 3766 3765 3784 3766 3693 3694 3776 3684 3694 3767 3785 3695 3696 3786 3695 3786 3767 3787 3696 3697 3697 3698 3788 3699 3789 3698 3790 3699 3768 3700 3701 3791 3768 3700 3791 3702 3792 3701 3703 3793 3702 3703 3704 3794 3705 3795 3704 3769 3796 3705 3769 3679 3770 3706 3707 3797 3770 3706 3797 3707 3708 3798 3799 3708 3709 3710 3800 3709 3710 3771 3801 3711 3712 3802 3771 3711 3802 3712 3713 3803 3804 3713 3714 3715 3805 3714 3715 3716 3806 3716 3718 3807 3808 3772 3717 3809 3718 3772 3719 3808 3717 3719 3720 3810 3720 3721 3811 3722 3812 3721 3813 3722 3723 3773 3814 3723 3815 3773 3724 3725 3815 3724 3726 3816 3725 3727 3817 3726 3818 3727 3774 3819 3774 3728 3819 3728 3729 3820 3729 3730 3775 3820 3730 3731 3821 3775 3732 3822 3731 3784 3693 3776 3823 3734 3778 3823 3777 3734 3778 3735 3824 3735 3736 3824 3736 3737 3825 3737 3738 3826 3827 3738 3779 3739 3740 3828 3739 3828 3779 3829 3740 3741 3741 3742 3830 3831 3742 3743 3744 3832 3743 3745 3833 3744 3746 3834 3745 3835 3746 3747 3747 3780 3836 3748 3837 3780 3749 3837 3748 3750 3838 3749 3839 3750 3751 3781 3840 3751 3753 3841 3752 3841 3781 3752 3753 3754 3842 3754 3755 3843 3755 3756 3844 3756 3757 3845 3757 3758 3846 3758 3782 3847 3782 3759 3848 3759 3760 3848 3761 3849 3760 3761 3762 3850 3851 3762 3763 3763 3764 3852 3783 3853 3764 3765 3854 3783 3766 3854 3765 3855 3766 3784 3694 3785 3776 3767 3856 3785 3786 3696 3787 3786 3856 3767 3787 3697 3788 3698 3789 3788 3790 3789 3699 3790 3768 3857 3701 3792 3791 3857 3768 3791 3793 3792 3702 3793 3703 3794 3704 3795 3794 3705 3796 3795 3769 3858 3796 3769 3770 3858 3797 3707 3798 3859 3770 3797 3798 3708 3799 3800 3799 3709 3800 3710 3801 3801 3771 3860 3712 3803 3802 3771 3802 3860 3803 3713 3804 3805 3804 3714 3715 3806 3805 3716 3807 3806 3807 3718 3809 3808 3861 3772 3861 3809 3772 3719 3810 3808 3810 3720 3811 3721 3812 3811 3813 3812 3722 3814 3813 3723 3773 3862 3814 3815 3862 3773 3725 3816 3815 3726 3817 3816 3818 3817 3727 3863 3818 3774 3819 3863 3774 3820 3819 3729 3820 3775 3864 3822 3821 3731 3775 3821 3864 3865 3784 3776 3866 3823 3778 3867 3778 3824 3736 3825 3824 3737 3826 3825 3826 3738 3827 3868 3827 3779 3828 3740 3829 3828 3868 3779 3829 3741 3830 3742 3831 3830 3832 3831 3743 3744 3833 3832 3745 3834 3833 3835 3834 3746 3835 3747 3836 3836 3780 3869 3780 3837 3869 3749 3838 3837 3839 3838 3750 3840 3839 3751 3781 3870 3840 3753 3842 3841 3841 3870 3781 3842 3754 3843 3843 3755 3844 3844 3756 3845 3757 3846 3845 3758 3847 3846 3847 3782 3871 3871 3782 3848 3760 3849 3848 3761 3850 3849 3850 3762 3851 3851 3763 3852 3764 3853 3852 3872 3853 3783 3854 3872 3783 3855 3854 3766 3855 3784 3873 3785 3865 3776 3856 3874 3785 3786 3787 3875 3856 3786 3875 3787 3788 3876 3789 3877 3788 3878 3789 3790 3790 3857 3879 3792 3880 3791 3880 3857 3791 3793 3881 3792 3882 3793 3794 3795 3883 3794 3795 3796 3884 3858 3885 3796 3858 3770 3859 3886 3797 3798 3886 3859 3797 3887 3798 3799 3800 3888 3799 3889 3800 3801 3890 3801 3860 3802 3803 3891 3860 3802 3891 3803 3804 3892 3804 3805 3893 3806 3894 3805 3807 3895 3806 3807 3809 3896 3861 3808 3897 3898 3809 3861 3808 3810 3897 3899 3810 3811 3812 3900 3811 3901 3812 3813 3813 3814 3902 3862 3903 3814 3815 3904 3862 3815 3816 3904 3816 3817 3905 3818 3906 3817 3907 3818 3863 3908 3863 3819 3908 3819 3820 3909 3820 3864 3822 3910 3821 3821 3911 3864 3873 3784 3865 3867 3866 3778 3867 3824 3912 3824 3825 3912 3826 3913 3825 3826 3827 3914 3915 3827 3868 3828 3829 3916 3828 3916 3868 3917 3829 3830 3831 3918 3830 3832 3919 3831 3832 3833 3920 3833 3834 3921 3835 3922 3834 3923 3835 3836 3924 3836 3869 3837 3925 3869 3837 3838 3925 3839 3926 3838 3840 3927 3839 3840 3870 3928 3841 3842 3929 3841 3929 3870 3930 3842 3843 3931 3843 3844 3932 3844 3845 3846 3933 3845 3846 3847 3934 3847 3871 3935 3936 3871 3848 3849 3936 3848 3849 3850 3937 3850 3851 3938 3939 3851 3852 3853 3940 3852 3872 3941 3853 3942 3872 3854 3942 3854 3855 3855 3873 3943 3874 3865 3785 3944 3874 3856 3787 3876 3875 3944 3856 3875 3788 3877 3876 3878 3877 3789 3878 3790 3879 3857 3945 3879 3792 3881 3880 3945 3857 3880 3882 3881 3793 3883 3882 3794 3883 3795 3884 3796 3885 3884 3858 3946 3885 3858 3859 3946 3887 3886 3798 3947 3859 3886 3888 3887 3799 3889 3888 3800 3890 3889 3801 3948 3890 3860 3891 3803 3892 3948 3860 3891 3804 3893 3892 3805 3894 3893 3806 3895 3894 3807 3896 3895 3896 3809 3898 3949 3861 3897 3898 3861 3949 3810 3899 3897 3900 3899 3811 3901 3900 3812 3901 3813 3902 3814 3903 3902 3862 3950 3903 3862 3904 3950 3904 3816 3905 3817 3906 3905 3907 3906 3818 3907 3863 3951 3951 3863 3908 3908 3820 3909 3911 3909 3864 3821 3910 3911 3873 3865 3952 3953 3866 3867 3954 3867 3912 3825 3913 3912 3826 3914 3913 3914 3827 3915 3955 3915 3868 3916 3829 3917 3916 3955 3868 3918 3917 3830 3919 3918 3831 3832 3920 3919 3920 3833 3921 3834 3922 3921 3923 3922 3835 3924 3923 3836 3956 3924 3869 3925 3956 3869 3838 3926 3925 3839 3927 3926 3840 3928 3927 3928 3870 3957 3929 3842 3930 3870 3929 3957 3930 3843 3931 3932 3931 3844 3933 3932 3845 3933 3846 3934 3847 3935 3934 3935 3871 3958 3871 3936 3958 3849 3937 3936 3937 3850 3938 3938 3851 3939 3940 3939 3852 3853 3941 3940 3959 3941 3872 3959 3872 3942 3942 3855 3943 3873 3960 3943 3952 3865 3874 3961 3874 3944 3876 3962 3875 3962 3944 3875 3877 3963 3876 3964 3877 3878 3878 3879 3965 3945 3966 3879 3881 3967 3880 3967 3945 3880 3882 3968 3881 3969 3882 3883 3883 3884 3970 3885 3971 3884 3885 3946 3972 3946 3859 3947 3973 3886 3887 3947 3886 3973 3888 3974 3887 3889 3975 3888 3976 3889 3890 3948 3977 3890 3978 3891 3892 3978 3948 3891 3893 3979 3892 3893 3894 3980 3894 3895 3981 3895 3896 3982 3896 3898 3983 3984 3949 3897 3898 3949 3985 3899 3984 3897 3900 3986 3899 3987 3900 3901 3988 3901 3902 3903 3989 3902 3903 3950 3990 3904 3991 3950 3991 3904 3905 3906 3992 3905 3993 3906 3907 3907 3951 3994 3951 3908 3995 3995 3908 3909 3996 3909 3911 3910 3997 3911 3873 3952 3960 3953 3867 3954 3913 3954 3912 3913 3914 3998 3914 3915 3999 3915 3955 4000 3916 3917 4001 3916 4001 3955 4002 3917 3918 3918 3919 4003 3919 3920 4004 3920 3921 4005 3922 4006 3921 3923 4007 3922 4008 3923 3924 3924 3956 4009 3925 4010 3956 3926 4010 3925 3926 3927 4011 3927 3928 4012 3928 3957 4013 3929 3930 4014 3929 4014 3957 4015 3930 3931 3932 4016 3931 3933 4017 3932 4018 3933 3934 3934 3935 4019 4020 3935 3958 3958 3936 4021 3936 3937 4021 3937 3938 4022 4023 3938 3939 3940 4024 3939 3941 4025 3940 4026 3941 3959 3959 3942 4027 3942 3943 4027 3960 4028 3943 3952 3874 3961 3961 3944 4029 3963 3962 3876 4029 3944 3962 3964 3963 3877 3964 3878 3965 3879 3966 3965 3945 4030 3966 3881 3968 3967 3967 4030 3945 3969 3968 3882 3969 3883 3970 3884 3971 3970 3885 3972 3971 3946 4031 3972 3946 3947 4031 3974 3973 3887 4032 3947 3973 3888 3975 3974 3976 3975 3889 3977 3976 3890 4033 3977 3948 3979 3978 3892 4033 3948 3978 3979 3893 3980 3980 3894 3981 3895 3982 3981 3982 3896 3983 3983 3898 3985 3949 3984 4034 3949 4034 3985 3899 3986 3984 3987 3986 3900 3987 3901 3988 3989 3988 3902 3903 3990 3989 3990 3950 4035 3950 3991 4035 3992 3991 3905 3993 3992 3906 3993 3907 3994 3951 4036 3994 3951 3995 4036 3996 3995 3909 3997 3996 3911 3952 4037 3960 4038 3953 3954 3913 4039 3954 3914 3999 3998 4039 3913 3998 3999 3915 4000 3955 4040 4000 4001 3917 4002 3955 4001 4041 4002 3918 4003 3919 4004 4003 4004 3920 4005 3921 4006 4005 3922 4007 4006 4008 4007 3923 4008 3924 4009 4009 3956 4042 3956 4010 4042 3926 4011 4010 4011 3927 4012 3928 4013 4012 4013 3957 4043 4014 3930 4015 3957 4014 4043 4016 4015 3931 3932 4017 4016 4018 4017 3933 4018 3934 4019 4019 3935 4020 4044 4020 3958 4044 3958 4021 4021 3937 4022 4022 3938 4023 4024 4023 3939 4025 4024 3940 4026 4025 3941 4026 3959 4045 4045 3959 4027 3943 4028 4027 4046 4028 3960 3952 3961 4037 3961 4029 4047 4048 3962 3963 4029 3962 4048 4049 3963 3964 4050 3964 3965 3965 3966 4051 3966 4030 4052 3967 3968 4053 3967 4053 4030 3969 4054 3968 4055 3969 3970 3971 4056 3970 3971 3972 4057 4031 4058 3972 4031 3947 4032 3974 4059 3973 4059 4032 3973 3974 3975 4060 3976 4061 3975 4062 3976 3977 4063 3977 4033 3979 4064 3978 4064 4033 3978 4065 3979 3980 4066 3980 3981 3981 3982 4067 4068 3982 3983 4069 3983 3985 3984 4070 4034 4034 4071 3985 3986 4070 3984 4072 3986 3987 3987 3988 4073 3988 3989 4074 3990 4075 3989 4076 3990 4035 3991 4077 4035 3992 4077 3991 4078 3992 3993 4079 3993 3994 3994 4036 4080 4036 3995 4081 3995 3996 4081 3997 4082 3996 4037 4046 3960 4039 4038 3954 3999 4083 3998 4083 4039 3998 4084 3999 4000 4040 3955 4041 4040 4084 4000 4001 4002 4085 4001 4085 4041 4086 4002 4003 4004 4087 4003 4088 4004 4005 4006 4089 4005 4006 4007 4090 4008 4091 4007 4092 4008 4009 4093 4009 4042 4042 4010 4094 4010 4011 4094 4011 4012 4095 4012 4013 4096 4013 4043 4097 4014 4015 4098 4043 4014 4098 4015 4016 4099 4017 4100 4016 4018 4101 4017 4102 4018 4019 4103 4019 4020 4044 4104 4020 4105 4044 4021 4105 4021 4022 4106 4022 4023 4024 4107 4023 4025 4108 4024 4109 4025 4026 4026 4045 4110 4111 4045 4027 4028 4111 4027 4046 4112 4028 4037 3961 4047 4029 4113 4047 4048 3963 4049 4029 4048 4113 4049 3964 4050 4050 3965 4051 4051 3966 4052 4030 4114 4052 3968 4054 4053 4030 4053 4114 4055 4054 3969 4056 4055 3970 4056 3971 4057 3972 4058 4057 4031 4115 4058 4031 4032 4115 3974 4060 4059 4116 4032 4059 3975 4061 4060 4062 4061 3976 4062 3977 4063 4063 4033 4117 4065 4064 3979 4117 4033 4064 4066 4065 3980 4066 3981 4067 4067 3982 4068 4069 4068 3983 4071 4069 3985 4070 4118 4034 4118 4071 4034 4072 4070 3986 4072 3987 4073 4073 3988 4074 3989 4075 4074 3990 4076 4075 4119 4076 4035 4077 4119 4035 4078 4077 3992 4078 3993 4079 4079 3994 4080 4080 4036 4120 4036 4081 4120 4081 3996 4121 3996 4082 4121 4046 4037 4122 4123 4038 4039 4084 4083 3999 4123 4039 4083 4124 4040 4041 4040 4125 4084 4085 4002 4086 4085 4124 4041 4087 4086 4003 4087 4004 4088 4089 4088 4005 4089 4006 4090 4007 4091 4090 4092 4091 4008 4093 4092 4009 4126 4093 4042 4126 4042 4094 4094 4011 4095 4095 4012 4096 4096 4013 4097 4097 4043 4127 4098 4015 4099 4127 4043 4098 4016 4100 4099 4017 4101 4100 4102 4101 4018 4103 4102 4019 4104 4103 4020 4128 4104 4044 4128 4044 4105 4106 4105 4022 4107 4106 4023 4024 4108 4107 4109 4108 4025 4109 4026 4110 4045 4129 4110 4129 4045 4111 4028 4112 4111 4130 4112 4046 4122 4037 4047 4047 4113 4131 4048 4049 4132 4113 4048 4132 4049 4050 4133 4134 4050 4051 4135 4051 4052 4114 4136 4052 4054 4137 4053 4053 4137 4114 4055 4138 4054 4139 4055 4056 4056 4057 4140 4058 4141 4057 4115 4142 4058 4115 4032 4116 4060 4143 4059 4143 4116 4059 4061 4144 4060 4145 4061 4062 4062 4063 4146 4063 4117 4147 4148 4064 4065 4117 4064 4148 4149 4065 4066 4150 4066 4067 4151 4067 4068 4069 4152 4068 4071 4153 4069 4154 4118 4070 4118 4155 4071 4154 4070 4072 4156 4072 4073 4157 4073 4074 4075 4158 4074 4076 4159 4075 4119 4160 4076 4161 4119 4077 4161 4077 4078 4078 4079 4162 4163 4079 4080 4164 4080 4120 4081 4165 4120 4165 4081 4121 4082 4166 4121 4130 4046 4122 4083 4084 4167 4168 4123 4083 4124 4125 4040 4084 4125 4167 4085 4086 4169 4085 4169 4124 4170 4086 4087 4171 4087 4088 4089 4172 4088 4173 4089 4090 4090 4091 4174 4092 4175 4091 4176 4092 4093 4126 4177 4093 4178 4126 4094 4178 4094 4095 4179 4095 4096 4180 4096 4097 4181 4097 4127 4182 4098 4099 4182 4127 4098 4100 4183 4099 4101 4184 4100 4185 4101 4102 4186 4102 4103 4187 4103 4104 4188 4104 4128 4189 4128 4105 4106 4189 4105 4190 4106 4107 4108 4191 4107 4192 4108 4109 4109 4110 4193 4129 4194 4110 4195 4129 4111 4112 4195 4111 4130 4196 4112 4122 4047 4131 4113 4197 4131 4049 4133 4132 4197 4113 4132 4133 4050 4134 4135 4134 4051 4136 4135 4052 4114 4198 4136 4054 4138 4137 4114 4137 4198 4139 4138 4055 4139 4056 4140 4057 4141 4140 4142 4141 4058 4115 4199 4142 4115 4116 4199 4144 4143 4060 4200 4116 4143 4145 4144 4061 4145 4062 4146 4063 4147 4146 4147 4117 4201 4148 4065 4149 4117 4148 4201 4149 4066 4150 4151 4150 4067 4152 4151 4068 4069 4153 4152 4071 4155 4153 4202 4118 4154 4202 4155 4118 4154 4072 4156 4157 4156 4073 4158 4157 4074 4075 4159 4158 4076 4160 4159 4119 4203 4160 4161 4203 4119 4161 4078 4162 4162 4079 4163 4164 4163 4080 4165 4164 4120 4166 4165 4121 4204 4130 4122 4168 4083 4167 4205 4125 4124 4125 4206 4167 4169 4086 4170 4169 4207 4124 4170 4087 4171 4172 4171 4088 4173 4172 4089 4173 4090 4174 4091 4175 4174 4176 4175 4092 4177 4176 4093 4208 4177 4126 4208 4126 4178 4179 4178 4095 4180 4179 4096 4181 4180 4097 4209 4181 4127 4183 4182 4099 4182 4209 4127 4184 4183 4100 4185 4184 4101 4185 4102 4186 4186 4103 4187 4187 4104 4188 4188 4128 4210 4210 4128 4189 4190 4189 4106 4191 4190 4107 4192 4191 4108 4192 4109 4193 4110 4194 4193 4129 4211 4194 4195 4211 4129 4112 4196 4195 4212 4196 4130 4204 4122 4131 4197 4213 4131 4133 4214 4132 4214 4197 4132 4133 4134 4215 4216 4134 4135 4135 4136 4217 4136 4198 4218 4137 4138 4219 4198 4137 4219 4139 4220 4138 4221 4139 4140 4141 4222 4140 4142 4223 4141 4142 4199 4224 4199 4116 4200 4225 4143 4144 4200 4143 4225 4226 4144 4145 4145 4146 4227 4146 4147 4228 4147 4201 4229 4148 4149 4230 4148 4230 4201 4231 4149 4150 4232 4150 4151 4152 4233 4151 4152 4153 4234 4155 4235 4153 4202 4154 4236 4237 4155 4202 4236 4154 4156 4157 4238 4156 4158 4239 4157 4158 4159 4240 4159 4160 4241 4203 4242 4160 4243 4203 4161 4243 4161 4162 4244 4162 4163 4163 4164 4245 4165 4246 4164 4166 4247 4165 4212 4130 4204 4248 4168 4167 4205 4206 4125 4207 4205 4124 4206 4248 4167 4169 4170 4249 4169 4249 4207 4250 4170 4171 4172 4251 4171 4252 4172 4173 4173 4174 4253 4175 4254 4174 4255 4175 4176 4256 4176 4177 4257 4177 4208 4258 4208 4178 4179 4258 4178 4259 4179 4180 4181 4260 4180 4261 4181 4209 4183 4262 4182 4182 4262 4209 4263 4183 4184 4264 4184 4185 4185 4186 4265 4186 4187 4266 4187 4188 4267 4188 4210 4268 4210 4189 4269 4269 4189 4190 4270 4190 4191 4271 4191 4192 4272 4192 4193 4193 4194 4273 4194 4211 4274 4195 4275 4211 4195 4196 4275 4212 4276 4196 4213 4204 4131 4197 4277 4213 4133 4215 4214 4214 4277 4197 4215 4134 4216 4216 4135 4217 4217 4136 4218 4198 4278 4218 4138 4220 4219 4198 4219 4278 4221 4220 4139 4222 4221 4140 4141 4223 4222 4142 4224 4223 4224 4199 4279 4199 4200 4279 4225 4144 4226 4200 4225 4280 4226 4145 4227 4227 4146 4228 4228 4147 4229 4201 4281 4229 4230 4149 4231 4230 4281 4201 4232 4231 4150 4233 4232 4151 4152 4234 4233 4153 4235 4234 4237 4235 4155 4202 4236 4282 4237 4202 4282 4238 4236 4156 4157 4239 4238 4158 4240 4239 4240 4159 4241 4160 4242 4241 4283 4242 4203 4283 4203 4243 4244 4243 4162 4284 4244 4163 4164 4246 4245 4284 4163 4245 4165 4247 4246 4212 4204 4285 4286 4206 4205 4205 4207 4287 4288 4248 4206 4249 4170 4250 4207 4249 4289 4251 4250 4171 4252 4251 4172 4252 4173 4253 4174 4254 4253 4255 4254 4175 4255 4176 4256 4256 4177 4257 4257 4208 4290 4290 4208 4258 4259 4258 4179 4260 4259 4180 4261 4260 4181 4291 4261 4209 4263 4262 4183 4262 4291 4209 4263 4184 4264 4264 4185 4265 4186 4266 4265 4266 4187 4267 4188 4268 4267 4268 4210 4292 4210 4269 4292 4269 4190 4270 4270 4191 4271 4271 4192 4272 4272 4193 4273 4273 4194 4274 4211 4293 4274 4275 4293 4211 4196 4276 4275 4294 4276 4212 4285 4204 4213 4277 4295 4213 4215 4296 4214 4296 4277 4214 4215 4216 4297 4298 4216 4217 4299 4217 4218 4218 4278 4300 4220 4301 4219 4219 4301 4278 4221 4302 4220 4303 4221 4222 4223 4304 4222 4223 4224 4305 4224 4279 4306 4200 4280 4279 4225 4226 4307 4225 4307 4280 4308 4226 4227 4309 4227 4228 4310 4228 4229 4229 4281 4311 4230 4231 4312 4230 4312 4281 4313 4231 4232 4232 4233 4314 4234 4315 4233 4235 4316 4234 4317 4235 4237 4282 4236 4318 4319 4237 4282 4236 4238 4318 4239 4320 4238 4239 4240 4321 4322 4240 4241 4242 4323 4241 4324 4242 4283 4283 4243 4325 4325 4243 4244 4326 4244 4284 4246 4327 4245 4327 4284 4245 4247 4328 4246 4294 4212 4285 4288 4206 4286 4286 4205 4287 4287 4207 4289 4249 4250 4329 4249 4329 4289 4330 4250 4251 4331 4251 4252 4332 4252 4253 4254 4333 4253 4334 4254 4255 4255 4256 4335 4256 4257 4336 4257 4290 4337 4290 4258 4338 4338 4258 4259 4339 4259 4260 4340 4260 4261 4341 4261 4291 4342 4262 4263 4342 4291 4262 4263 4264 4343 4264 4265 4344 4266 4345 4265 4266 4267 4346 4268 4347 4267 4348 4268 4292 4269 4349 4292 4269 4270 4349 4270 4271 4350 4271 4272 4351 4352 4272 4273 4353 4273 4274 4293 4354 4274 4355 4293 4275 4276 4355 4275 4294 4356 4276 4295 4285 4213 4277 4357 4295 4215 4297 4296 4296 4357 4277 4297 4216 4298 4299 4298 4217 4299 4218 4300 4300 4278 4358 4220 4302 4301 4278 4301 4358 4303 4302 4221 4304 4303 4222 4223 4305 4304 4305 4224 4306 4279 4359 4306 4280 4359 4279 4307 4226 4308 4307 4360 4280 4309 4308 4227 4310 4309 4228 4310 4229 4311 4311 4281 4361 4312 4231 4313 4281 4312 4361 4313 4232 4314 4233 4315 4314 4316 4315 4234 4317 4316 4235 4317 4237 4319 4362 4282 4318 4362 4319 4282 4238 4320 4318 4320 4239 4321 4240 4322 4321 4323 4322 4241 4324 4323 4242 4324 4283 4363 4283 4325 4363 4325 4244 4326 4326 4284 4364 4328 4327 4246 4284 4327 4364 4365 4294 4285 4366 4288 4286 4367 4286 4287 4287 4289 4368 4329 4250 4330 4329 4369 4289 4330 4251 4331 4332 4331 4252 4333 4332 4253 4334 4333 4254 4334 4255 4335 4256 4336 4335 4257 4337 4336 4337 4290 4370 4290 4338 4370 4338 4259 4339 4339 4260 4340 4340 4261 4341 4341 4291 4371 4342 4263 4343 4371 4291 4342 4343 4264 4344 4265 4345 4344 4266 4346 4345 4267 4347 4346 4268 4348 4347 4372 4348 4292 4349 4372 4292 4349 4270 4350 4271 4351 4350 4351 4272 4352 4353 4352 4273 4354 4353 4274 4293 4373 4354 4355 4373 4293 4276 4356 4355 4374 4356 4294 4295 4365 4285 4295 4357 4375 4296 4297 4376 4296 4376 4357 4297 4298 4377 4378 4298 4299 4379 4299 4300 4380 4300 4358 4301 4302 4381 4301 4381 4358 4303 4382 4302 4304 4383 4303 4304 4305 4384 4385 4305 4306 4306 4359 4386 4280 4360 4359 4307 4308 4387 4307 4387 4360 4388 4308 4309 4310 4389 4309 4390 4310 4311 4391 4311 4361 4312 4313 4392 4312 4392 4361 4393 4313 4314 4315 4394 4314 4316 4395 4315 4396 4316 4317 4397 4317 4319 4398 4362 4318 4319 4362 4399 4320 4398 4318 4400 4320 4321 4321 4322 4401 4323 4402 4322 4403 4323 4324 4404 4324 4363 4325 4405 4363 4325 4326 4405 4406 4326 4364 4328 4407 4327 4327 4408 4364 4374 4294 4365 4367 4366 4286 4367 4287 4368 4289 4369 4368 4329 4330 4409 4329 4409 4369 4330 4331 4410 4331 4332 4411 4333 4412 4332 4413 4333 4334 4414 4334 4335 4336 4415 4335 4337 4416 4336 4417 4337 4370 4338 4418 4370 4338 4339 4418 4339 4340 4419 4340 4341 4420 4341 4371 4421 4342 4343 4422 4371 4342 4422 4423 4343 4344 4344 4345 4424 4345 4346 4425 4346 4347 4426 4348 4427 4347 4372 4428 4348 4372 4349 4429 4429 4349 4350 4351 4430 4350 4351 4352 4431 4432 4352 4353 4353 4354 4433 4354 4373 4434 4355 4435 4373 4355 4356 4435 4374 4436 4356 4365 4295 4375 4357 4437 4375 4297 4377 4376 4376 4437 4357 4377 4298 4378 4378 4299 4379 4380 4379 4300 4380 4358 4438 4302 4382 4381 4358 4381 4438 4303 4383 4382 4304 4384 4383 4384 4305 4385 4385 4306 4386 4386 4359 4439 4359 4360 4439 4387 4308 4388 4360 4387 4440 4389 4388 4309 4390 4389 4310 4391 4390 4311 4391 4361 4441 4392 4313 4393 4361 4392 4441 4394 4393 4314 4315 4395 4394 4396 4395 4316 4396 4317 4397 4397 4319 4399 4398 4442 4362 4362 4442 4399 4400 4398 4320 4400 4321 4401 4322 4402 4401 4403 4402 4323 4403 4324 4404 4404 4363 4443 4363 4405 4443 4405 4326 4406 4408 4406 4364 4407 4408 4327 4374 4365 4444 4445 4366 4367 4446 4367 4368 4369 4446 4368 4409 4330 4410 4369 4409 4447 4331 4411 4410 4332 4412 4411 4413 4412 4333 4413 4334 4414 4415 4414 4335 4416 4415 4336 4416 4337 4417 4448 4417 4370 4418 4448 4370 4418 4339 4419 4340 4420 4419 4341 4421 4420 4421 4371 4449 4422 4343 4423 4449 4371 4422 4423 4344 4424 4345 4425 4424 4425 4346 4426 4347 4427 4426 4428 4427 4348 4450 4428 4372 4450 4372 4429 4430 4429 4350 4351 4431 4430 4431 4352 4432 4432 4353 4433 4433 4354 4434 4373 4451 4434 4435 4451 4373 4356 4436 4435 4452 4436 4374 4365 4375 4444 4437 4453 4375 4377 4454 4376 4454 4437 4376 4377 4378 4455 4456 4378 4379 4380 4457 4379 4458 4380 4438 4381 4382 4459 4438 4381 4459 4382 4383 4460 4383 4384 4461 4384 4385 4462 4385 4386 4463 4464 4386 4439 4360 4440 4439 4387 4388 4465 4387 4465 4440 4466 4388 4389 4467 4389 4390 4468 4390 4391 4469 4391 4441 4392 4393 4470 4441 4392 4470 4393 4394 4471 4395 4472 4394 4473 4395 4396 4396 4397 4474 4475 4397 4399 4476 4442 4398 4442 4477 4399 4476 4398 4400 4478 4400 4401 4402 4479 4401 4480 4402 4403 4403 4404 4481 4482 4404 4443 4405 4483 4443 4483 4405 4406 4408 4484 4406 4407 4485 4408 4452 4374 4444 4445 4367 4486 4367 4446 4486 4369 4447 4446 4487 4409 4410 4447 4409 4487 4411 4488 4410 4412 4489 4411 4490 4412 4413 4491 4413 4414 4415 4492 4414 4416 4493 4415 4494 4416 4417 4495 4417 4448 4448 4418 4496 4418 4419 4496 4420 4497 4419 4421 4498 4420 4421 4449 4499 4500 4422 4423 4449 4422 4500 4501 4423 4424 4425 4502 4424 4503 4425 4426 4427 4504 4426 4428 4505 4427 4450 4506 4428 4507 4450 4429 4430 4507 4429 4430 4431 4508 4431 4432 4509 4510 4432 4433 4511 4433 4434 4451 4512 4434 4513 4451 4435 4436 4513 4435 4452 4514 4436 4375 4453 4444 4437 4515 4453 4377 4455 4454 4454 4515 4437 4455 4378 4456 4457 4456 4379 4458 4457 4380 4516 4458 4438 4382 4460 4459 4516 4438 4459 4383 4461 4460 4461 4384 4462 4462 4385 4463 4386 4464 4463 4517 4464 4439 4440 4517 4439 4465 4388 4466 4465 4518 4440 4466 4389 4467 4467 4390 4468 4468 4391 4469 4469 4441 4519 4393 4471 4470 4519 4441 4470 4394 4472 4471 4473 4472 4395 4473 4396 4474 4474 4397 4475 4477 4475 4399 4476 4520 4442 4442 4520 4477 4476 4400 4478 4479 4478 4401 4480 4479 4402 4480 4403 4481 4481 4404 4521 4404 4482 4521 4483 4482 4443 4484 4483 4406 4408 4485 4484 4522 4452 4444 4523 4445 4486 4446 4524 4486 4446 4447 4524 4488 4487 4410 4525 4447 4487 4489 4488 4411 4490 4489 4412 4490 4413 4491 4492 4491 4414 4415 4493 4492 4494 4493 4416 4495 4494 4417 4495 4448 4526 4526 4448 4496 4419 4497 4496 4498 4497 4420 4421 4499 4498 4499 4449 4527 4501 4500 4423 4527 4449 4500 4502 4501 4424 4425 4503 4502 4504 4503 4426 4427 4505 4504 4428 4506 4505 4528 4506 4450 4528 4450 4507 4507 4430 4508 4431 4509 4508 4509 4432 4510 4511 4510 4433 4512 4511 4434 4451 4529 4512 4513 4529 4451 4436 4514 4513 4452 4530 4514 4453 4522 4444 4453 4515 4531 4455 4532 4454 4532 4515 4454 4455 4456 4533 4534 4456 4457 4535 4457 4458 4536 4458 4516 4460 4537 4459 4537 4516 4459 4460 4461 4538 4539 4461 4462 4540 4462 4463 4464 4541 4463 4542 4464 4517 4440 4518 4517 4465 4466 4543 4465 4543 4518 4466 4467 4544 4467 4468 4545 4468 4469 4546 4547 4469 4519 4471 4548 4470 4548 4519 4470 4472 4549 4471 4550 4472 4473 4551 4473 4474 4552 4474 4475 4477 4553 4475 4554 4520 4476 4520 4555 4477 4554 4476 4478 4479 4556 4478 4557 4479 4480 4558 4480 4481 4559 4481 4521 4482 4560 4521 4483 4561 4482 4562 4483 4484 4485 4563 4484 4522 4530 4452 4524 4523 4486 4447 4525 4524 4487 4488 4564 4525 4487 4564 4489 4565 4488 4566 4489 4490 4490 4491 4567 4568 4491 4492 4493 4569 4492 4494 4570 4493 4495 4571 4494 4572 4495 4526 4573 4526 4496 4497 4573 4496 4498 4574 4497 4499 4575 4498 4499 4527 4576 4501 4577 4500 4577 4527 4500 4578 4501 4502 4503 4579 4502 4580 4503 4504 4504 4505 4581 4505 4506 4582 4528 4583 4506 4528 4507 4584 4507 4508 4584 4509 4585 4508 4509 4510 4586 4587 4510 4511 4511 4512 4588 4529 4589 4512 4513 4590 4529 4513 4514 4590 4514 4530 4591 4522 4453 4531 4515 4592 4531 4455 4533 4532 4532 4592 4515 4533 4456 4534 4534 4457 4535 4535 4458 4536 4536 4516 4593 4537 4460 4538 4593 4516 4537 4538 4461 4539 4540 4539 4462 4541 4540 4463 4542 4541 4464 4594 4542 4517 4518 4594 4517 4543 4466 4544 4518 4543 4595 4467 4545 4544 4545 4468 4546 4469 4547 4546 4596 4547 4519 4549 4548 4471 4548 4596 4519 4550 4549 4472 4550 4473 4551 4551 4474 4552 4553 4552 4475 4555 4553 4477 4554 4597 4520 4520 4597 4555 4556 4554 4478 4557 4556 4479 4557 4480 4558 4558 4481 4559 4560 4559 4521 4482 4561 4560 4562 4561 4483 4563 4562 4484 4598 4530 4522 4599 4523 4524 4525 4600 4524 4488 4565 4564 4601 4525 4564 4566 4565 4489 4566 4490 4567 4491 4568 4567 4569 4568 4492 4493 4570 4569 4494 4571 4570 4572 4571 4495 4602 4572 4526 4573 4602 4526 4497 4574 4573 4498 4575 4574 4499 4576 4575 4576 4527 4603 4578 4577 4501 4603 4527 4577 4579 4578 4502 4580 4579 4503 4580 4504 4581 4505 4582 4581 4506 4583 4582 4604 4583 4528 4604 4528 4584 4508 4585 4584 4509 4586 4585 4586 4510 4587 4587 4511 4588 4512 4589 4588 4529 4605 4589 4529 4590 4605 4590 4514 4591 4530 4606 4591 4598 4522 4531 4592 4607 4531 4532 4533 4608 4532 4608 4592 4533 4534 4609 4534 4535 4610 4535 4536 4611 4536 4593 4612 4613 4537 4538 4593 4537 4613 4614 4538 4539 4540 4615 4539 4616 4540 4541 4541 4542 4617 4594 4618 4542 4518 4595 4594 4619 4543 4544 4595 4543 4619 4544 4545 4620 4621 4545 4546 4547 4622 4546 4596 4623 4547 4549 4624 4548 4548 4624 4596 4625 4549 4550 4550 4551 4626 4627 4551 4552 4553 4628 4552 4555 4629 4553 4554 4630 4597 4555 4597 4631 4556 4630 4554 4632 4556 4557 4557 4558 4633 4634 4558 4559 4559 4560 4635 4560 4561 4636 4562 4637 4561 4563 4638 4562 4598 4606 4530 4600 4599 4524 4601 4600 4525 4565 4639 4564 4639 4601 4564 4640 4565 4566 4641 4566 4567 4568 4642 4567 4569 4643 4568 4569 4570 4644 4570 4571 4645 4572 4646 4571 4602 4647 4572 4602 4573 4648 4573 4574 4648 4574 4575 4649 4575 4576 4650 4576 4603 4651 4652 4577 4578 4603 4577 4652 4653 4578 4579 4654 4579 4580 4655 4580 4581 4582 4656 4581 4582 4583 4657 4604 4658 4583 4604 4584 4659 4584 4585 4659 4585 4586 4660 4586 4587 4661 4662 4587 4588 4588 4589 4663 4589 4605 4664 4605 4590 4665 4665 4590 4591 4591 4606 4666 4607 4598 4531 4592 4667 4607 4608 4533 4609 4592 4608 4667 4534 4610 4609 4610 4535 4611 4611 4536 4612 4612 4593 4668 4614 4613 4538 4593 4613 4668 4615 4614 4539 4616 4615 4540 4616 4541 4617 4542 4618 4617 4594 4669 4618 4594 4595 4669 4619 4544 4620 4595 4619 4670 4620 4545 4621 4622 4621 4546 4623 4622 4547 4671 4623 4596 4625 4624 4549 4624 4671 4596 4625 4550 4626 4626 4551 4627 4628 4627 4552 4629 4628 4553 4555 4631 4629 4597 4630 4672 4631 4597 4672 4632 4630 4556 4632 4557 4633 4633 4558 4634 4673 4634 4559 4560 4636 4635 4673 4559 4635 4561 4637 4636 4562 4638 4637 4598 4674 4606 4675 4599 4600 4600 4601 4676 4640 4639 4565 4639 4677 4601 4640 4566 4641 4642 4641 4567 4568 4643 4642 4569 4644 4643 4644 4570 4645 4571 4646 4645 4572 4647 4646 4678 4647 4602 4678 4602 4648 4574 4649 4648 4649 4575 4650 4576 4651 4650 4651 4603 4679 4652 4578 4653 4603 4652 4679 4653 4579 4654 4654 4580 4655 4656 4655 4581 4582 4657 4656 4583 4658 4657 4680 4658 4604 4680 4604 4659 4585 4660 4659 4586 4661 4660 4661 4587 4662 4662 4588 4663 4663 4589 4664 4605 4681 4664 4605 4665 4681 4665 4591 4666 4666 4606 4682 4607 4674 4598 4607 4667 4683 4684 4608 4609 4667 4608 4684 4609 4610 4685 4686 4610 4611 4687 4611 4612 4688 4612 4668 4613 4614 4689 4668 4613 4689 4615 4690 4614 4691 4615 4616 4692 4616 4617 4618 4693 4617 4618 4669 4694 4669 4595 4670 4695 4619 4620 4670 4619 4695 4696 4620 4621 4622 4697 4621 4698 4622 4623 4671 4699 4623 4700 4624 4625 4700 4671 4624 4701 4625 4626 4702 4626 4627 4628 4703 4627 4704 4628 4629 4629 4631 4705 4630 4706 4672 4707 4631 4672 4632 4706 4630 4708 4632 4633 4709 4633 4634 4673 4710 4634 4636 4711 4635 4711 4673 4635 4637 4712 4636 4638 4713 4637 4606 4674 4682 4675 4600 4676 4601 4677 4676 4714 4639 4640 4714 4677 4639 4640 4641 4715 4641 4642 4716 4643 4717 4642 4643 4644 4718 4719 4644 4645 4645 4646 4720 4646 4647 4721 4678 4722 4647 4723 4678 4648 4649 4723 4648 4649 4650 4724 4650 4651 4725 4726 4651 4679 4652 4653 4727 4652 4727 4679 4653 4654 4728 4654 4655 4729 4730 4655 4656 4657 4731 4656 4658 4732 4657 4733 4658 4680 4734 4680 4659 4660 4734 4659 4661 4735 4660 4661 4662 4736 4737 4662 4663 4738 4663 4664 4681 4739 4664 4681 4665 4740 4740 4665 4666 4741 4666 4682 4607 4683 4674 4683 4667 4742 4684 4609 4685 4667 4684 4742 4685 4610 4686 4687 4686 4611 4688 4687 4612 4743 4688 4668 4614 4690 4689 4743 4668 4689 4691 4690 4615 4692 4691 4616 4693 4692 4617 4618 4694 4693 4694 4669 4744 4744 4669 4670 4696 4695 4620 4745 4670 4695 4697 4696 4621 4698 4697 4622 4699 4698 4623 4746 4699 4671 4700 4625 4701 4746 4671 4700 4701 4626 4702 4703 4702 4627 4704 4703 4628 4704 4629 4705 4631 4707 4705 4706 4747 4672 4747 4707 4672 4708 4706 4632 4709 4708 4633 4710 4709 4634 4748 4710 4673 4636 4712 4711 4748 4673 4711 4713 4712 4637 4674 4749 4682 4750 4675 4676 4677 4751 4676 4714 4640 4715 4752 4677 4714 4715 4641 4716 4642 4717 4716 4717 4643 4718 4718 4644 4719 4719 4645 4720 4646 4721 4720 4647 4722 4721 4753 4722 4678 4753 4678 4723 4723 4649 4724 4724 4650 4725 4651 4726 4725 4754 4726 4679 4727 4653 4728 4727 4754 4679 4654 4729 4728 4655 4730 4729 4731 4730 4656 4657 4732 4731 4733 4732 4658 4733 4680 4755 4755 4680 4734 4735 4734 4660 4661 4736 4735 4736 4662 4737 4738 4737 4663 4739 4738 4664 4681 4756 4739 4681 4740 4756 4741 4740 4666 4757 4741 4682 4674 4683 4749 4758 4683 4742 4759 4684 4685 4742 4684 4759 4760 4685 4686 4687 4761 4686 4688 4762 4687 4763 4688 4743 4690 4764 4689 4764 4743 4689 4765 4690 4691 4691 4692 4766 4693 4767 4692 4693 4694 4768 4694 4744 4769 4744 4670 4745 4696 4770 4695 4770 4745 4695 4771 4696 4697 4698 4772 4697 4699 4773 4698 4774 4699 4746 4700 4701 4775 4746 4700 4775 4776 4701 4702 4703 4777 4702 4778 4703 4704 4779 4704 4705 4707 4780 4705 4781 4747 4706 4747 4782 4707 4781 4706 4708 4783 4708 4709 4784 4709 4710 4785 4710 4748 4712 4786 4711 4786 4748 4711 4713 4787 4712 4749 4757 4682 4751 4750 4676 4752 4751 4677 4788 4714 4715 4752 4714 4788 4789 4715 4716 4717 4790 4716 4791 4717 4718 4718 4719 4792 4793 4719 4720 4721 4794 4720 4721 4722 4795 4753 4796 4722 4753 4723 4797 4723 4724 4797 4798 4724 4725 4726 4799 4725 4754 4800 4726 4801 4727 4728 4754 4727 4801 4729 4802 4728 4730 4803 4729 4804 4730 4731 4732 4805 4731 4806 4732 4733 4733 4755 4807 4755 4734 4808 4808 4734 4735 4736 4809 4735 4736 4737 4810 4811 4737 4738 4738 4739 4812 4739 4756 4813 4756 4740 4814 4814 4740 4741 4757 4815 4741 4749 4683 4758 4758 4742 4816 4760 4759 4685 4816 4742 4759 4761 4760 4686 4687 4762 4761 4763 4762 4688 4817 4763 4743 4765 4764 4690 4764 4817 4743 4765 4691 4766 4692 4767 4766 4693 4768 4767 4768 4694 4769 4769 4744 4818 4818 4744 4745 4771 4770 4696 4770 4819 4745 4772 4771 4697 4698 4773 4772 4774 4773 4699 4774 4746 4820 4775 4701 4776 4820 4746 4775 4777 4776 4702 4778 4777 4703 4778 4704 4779 4780 4779 4705 4782 4780 4707 4821 4747 4781 4821 4782 4747 4781 4708 4783 4783 4709 4784 4784 4710 4785 4785 4748 4822 4712 4787 4786 4822 4748 4786 4749 4823 4757 4824 4750 4751 4825 4751 4752 4789 4788 4715 4752 4788 4826 4790 4789 4716 4791 4790 4717 4791 4718 4792 4719 4793 4792 4794 4793 4720 4794 4721 4795 4722 4796 4795 4827 4796 4753 4827 4753 4797 4724 4798 4797 4799 4798 4725 4726 4800 4799 4828 4800 4754 4802 4801 4728 4828 4754 4801 4803 4802 4729 4804 4803 4730 4805 4804 4731 4806 4805 4732 4806 4733 4807 4807 4755 4829 4755 4808 4829 4809 4808 4735 4736 4810 4809 4810 4737 4811 4811 4738 4812 4739 4813 4812 4813 4756 4830 4756 4814 4830 4815 4814 4741 4815 4757 4831 4749 4758 4823 4832 4758 4816 4760 4833 4759 4833 4816 4759 4834 4760 4761 4762 4835 4761 4763 4836 4762 4837 4763 4817 4838 4764 4765 4838 4817 4764 4765 4766 4839 4766 4767 4840 4767 4768 4841 4842 4768 4769 4843 4769 4818 4819 4818 4745 4771 4844 4770 4770 4844 4819 4772 4845 4771 4773 4846 4772 4847 4773 4774 4774 4820 4848 4849 4775 4776 4820 4775 4849 4777 4850 4776 4851 4777 4778 4778 4779 4852 4779 4780 4853 4782 4854 4780 4821 4781 4855 4856 4782 4821 4781 4783 4855 4783 4784 4857 4784 4785 4858 4785 4822 4859 4787 4860 4786 4822 4786 4861 4757 4823 4831 4824 4751 4825 4825 4752 4826 4862 4788 4789 4826 4788 4862 4789 4790 4863 4791 4864 4790 4865 4791 4792 4793 4866 4792 4867 4793 4794 4794 4795 4868 4796 4869 4795 4827 4870 4796 4871 4827 4797 4798 4871 4797 4872 4798 4799 4799 4800 4873 4828 4874 4800 4802 4875 4801 4875 4828 4801 4803 4876 4802 4877 4803 4804 4878 4804 4805 4879 4805 4806 4880 4806 4807 4881 4807 4829 4829 4808 4882 4808 4809 4882 4809 4810 4883 4810 4811 4884 4885 4811 4812 4812 4813 4886 4813 4830 4887 4814 4888 4830 4888 4814 4815 4889 4815 4831 4823 4758 4832 4890 4832 4816 4834 4833 4760 4833 4890 4816 4835 4834 4761 4762 4836 4835 4837 4836 4763 4837 4817 4891 4838 4765 4839 4891 4817 4838 4839 4766 4840 4767 4841 4840 4841 4768 4842 4843 4842 4769 4892 4843 4818 4819 4892 4818 4771 4845 4844 4819 4844 4893 4846 4845 4772 4847 4846 4773 4847 4774 4848 4848 4820 4894 4850 4849 4776 4894 4820 4849 4851 4850 4777 4851 4778 4852 4852 4779 4853 4780 4854 4853 4856 4854 4782 4895 4821 4855 4856 4821 4895 4783 4857 4855 4857 4784 4858 4858 4785 4859 4859 4822 4861 4786 4860 4861 4823 4896 4831 4897 4824 4825 4898 4825 4826 4862 4789 4863 4826 4862 4899 4790 4864 4863 4865 4864 4791 4866 4865 4792 4867 4866 4793 4867 4794 4868 4795 4869 4868 4796 4870 4869 4900 4870 4827 4900 4827 4871 4872 4871 4798 4872 4799 4873 4800 4874 4873 4901 4874 4828 4802 4876 4875 4901 4828 4875 4877 4876 4803 4877 4804 4878 4878 4805 4879 4879 4806 4880 4881 4880 4807 4881 4829 4902 4829 4882 4902 4809 4883 4882 4810 4884 4883 4884 4811 4885 4885 4812 4886 4886 4813 4887 4830 4903 4887 4830 4888 4903 4889 4888 4815 4904 4889 4831 4823 4832 4896 4905 4832 4890 4906 4833 4834 4906 4890 4833 4834 4835 4907 4836 4908 4835 4909 4836 4837 4837 4891 4910 4911 4838 4839 4891 4838 4911 4912 4839 4840 4841 4913 4840 4841 4842 4914 4915 4842 4843 4916 4843 4892 4892 4819 4893 4844 4845 4917 4844 4917 4893 4846 4918 4845 4919 4846 4847 4920 4847 4848 4921 4848 4894 4850 4922 4849 4922 4894 4849 4851 4923 4850 4924 4851 4852 4925 4852 4853 4854 4926 4853 4927 4854 4856 4895 4855 4928 4856 4895 4929 4855 4857 4928 4930 4857 4858 4931 4858 4859 4932 4859 4861 4860 4933 4861 4896 4904 4831 4898 4897 4825 4898 4826 4899 4934 4862 4863 4862 4934 4899 4864 4935 4863 4865 4936 4864 4866 4937 4865 4867 4938 4866 4939 4867 4868 4869 4940 4868 4870 4941 4869 4942 4870 4900 4900 4871 4943 4943 4871 4872 4944 4872 4873 4874 4945 4873 4901 4946 4874 4876 4947 4875 4947 4901 4875 4948 4876 4877 4877 4878 4949 4878 4879 4950 4879 4880 4951 4952 4880 4881 4953 4881 4902 4882 4954 4902 4883 4954 4882 4884 4955 4883 4884 4885 4956 4957 4885 4886 4958 4886 4887 4903 4959 4887 4888 4960 4903 4889 4960 4888 4904 4961 4889 4896 4832 4905 4905 4890 4962 4906 4834 4907 4962 4890 4906 4835 4908 4907 4909 4908 4836 4909 4837 4910 4891 4963 4910 4912 4911 4839 4891 4911 4963 4913 4912 4840 4841 4914 4913 4914 4842 4915 4915 4843 4916 4916 4892 4964 4892 4893 4964 4845 4918 4917 4917 4965 4893 4919 4918 4846 4919 4847 4920 4920 4848 4921 4966 4921 4894 4850 4923 4922 4922 4966 4894 4924 4923 4851 4925 4924 4852 4926 4925 4853 4927 4926 4854 4927 4856 4929 4967 4895 4928 4929 4895 4967 4928 4857 4930 4931 4930 4858 4932 4931 4859 4933 4932 4861 4896 4968 4904 4969 4897 4898 4970 4898 4899 4935 4934 4863 4934 4971 4899 4864 4936 4935 4865 4937 4936 4866 4938 4937 4939 4938 4867 4940 4939 4868 4941 4940 4869 4942 4941 4870 4942 4900 4972 4900 4943 4972 4943 4872 4944 4945 4944 4873 4874 4946 4945 4901 4973 4946 4948 4947 4876 4947 4973 4901 4948 4877 4949 4949 4878 4950 4879 4951 4950 4951 4880 4952 4952 4881 4953 4974 4953 4902 4954 4974 4902 4955 4954 4883 4884 4956 4955 4956 4885 4957 4958 4957 4886 4959 4958 4887 4903 4975 4959 4960 4975 4903 4889 4961 4960 4904 4976 4961 4896 4905 4968 4905 4962 4977 4978 4906 4907 4962 4906 4978 4908 4979 4907 4909 4980 4908 4981 4909 4910 4910 4963 4982 4983 4911 4912 4963 4911 4983 4912 4913 4984 4913 4914 4985 4914 4915 4986 4915 4916 4987 4988 4916 4964 4893 4965 4964 4918 4989 4917 4917 4989 4965 4990 4918 4919 4919 4920 4991 4992 4920 4921 4966 4993 4921 4922 4923 4994 4922 4994 4966 4924 4995 4923 4996 4924 4925 4926 4997 4925 4998 4926 4927 4999 4927 4929 5000 4967 4928 5001 4929 4967 5000 4928 4930 4931 5002 4930 4932 5003 4931 4933 5004 4932 4904 4968 4976 4969 4898 4970 4971 4970 4899 4935 5005 4934 4934 5005 4971 4935 4936 5006 4936 4937 5007 4937 4938 5008 4939 5009 4938 4940 5010 4939 4941 5011 4940 4942 5012 4941 5013 4942 4972 4972 4943 5014 5014 4943 4944 4945 5015 4944 4945 4946 5016 4946 4973 5017 5018 4947 4948 5018 4973 4947 5019 4948 4949 5020 4949 4950 4950 4951 5021 4951 4952 5022 5023 4952 4953 4974 5024 4953 4954 5025 4974 4955 5025 4954 4955 4956 5026 4956 4957 5027 5028 4957 4958 4958 4959 5029 4959 4975 5030 4960 5031 4975 4960 4961 5031 4961 4976 5032 4968 4905 4977 4962 5033 4977 4979 4978 4907 4962 4978 5033 4908 4980 4979 4981 4980 4909 4981 4910 4982 4982 4963 5034 4983 4912 4984 4963 4983 5034 4984 4913 4985 4985 4914 4986 4986 4915 4987 4987 4916 4988 5035 4988 4964 4965 5035 4964 4990 4989 4918 4989 5036 4965 4990 4919 4991 4991 4920 4992 4993 4992 4921 4993 4966 5037 4923 4995 4994 4966 4994 5037 4996 4995 4924 4997 4996 4925 4998 4997 4926 4998 4927 4999 5001 4999 4929 5000 5038 4967 5038 5001 4967 5002 5000 4930 5002 4931 5039 4932 5004 5003 4931 5003 5039 4976 4968 5040 5041 4969 4970 4971 5042 4970 4935 5006 5005 4971 5005 5043 5006 4936 5007 4937 5008 5007 4938 5009 5008 4939 5010 5009 4940 5011 5010 4941 5012 5011 5013 5012 4942 5044 5013 4972 5044 4972 5014 5015 5014 4944 4945 5016 5015 5016 4946 5017 4973 5045 5017 5018 4948 5019 5018 5045 4973 5020 5019 4949 5020 4950 5021 4951 5022 5021 5022 4952 5023 5024 5023 4953 5024 4974 5046 4974 5025 5046 4955 5026 5025 4956 5027 5026 5027 4957 5028 5028 4958 5029 5029 4959 5030 5030 4975 5047 4975 5031 5047 5031 4961 5032 4976 5048 5032 5040 4968 4977 4977 5033 5049 5050 4978 4979 5033 4978 5050 4980 5051 4979 4981 5052 4980 5053 4981 4982 5054 4982 5034 5055 4983 4984 5034 4983 5055 5056 4984 4985 5057 4985 4986 5058 4986 4987 5059 4987 4988 5035 5060 4988 5036 5035 4965 5061 4989 4990 5061 5036 4989 5062 4990 4991 5063 4991 4992 4993 5064 4992 5065 4993 5037 4995 5066 4994 4994 5066 5037 4996 5067 4995 4997 5068 4996 5069 4997 4998 4998 4999 5070 4999 5001 5071 5072 5038 5000 5038 5073 5001 5072 5000 5002 5074 5002 5039 5004 5075 5003 5003 5076 5039 4976 5040 5048 5042 5041 4970 5042 4971 5043 5005 5006 5077 5005 5077 5043 5078 5006 5007 5008 5079 5007 5009 5080 5008 5009 5010 5081 5010 5011 5082 5011 5012 5083 5013 5084 5012 5085 5013 5044 5086 5044 5014 5015 5086 5014 5015 5016 5087 5088 5016 5017 5045 5089 5017 5090 5018 5019 5090 5045 5018 5020 5091 5019 5092 5020 5021 5022 5093 5021 5022 5023 5094 5095 5023 5024 5096 5024 5046 5025 5097 5046 5026 5097 5025 5027 5098 5026 5027 5028 5099 5100 5028 5029 5101 5029 5030 5102 5030 5047 5047 5031 5103 5031 5032 5103 5032 5048 5104 5040 4977 5049 5049 5033 5105 5051 5050 4979 5033 5050 5105 4980 5052 5051 5053 5052 4981 5054 5053 4982 5106 5054 5034 5056 5055 4984 5106 5034 5055 5057 5056 4985 5058 5057 4986 5059 5058 4987 5060 5059 4988 5035 5107 5060 5036 5107 5035 5061 4990 5062 5108 5036 5061 5062 4991 5063 5064 5063 4992 5065 5064 4993 5109 5065 5037 4995 5067 5066 5066 5109 5037 4996 5068 5067 5069 5068 4997 5069 4998 5070 5070 4999 5071 5001 5073 5071 5110 5038 5072 5110 5073 5038 5072 5002 5074 5076 5074 5039 5075 5076 5003 5048 5040 5111 5112 5041 5042 5113 5042 5043 5077 5006 5078 5043 5077 5114 5079 5078 5007 5080 5079 5008 5009 5081 5080 5081 5010 5082 5011 5083 5082 5012 5084 5083 5085 5084 5013 5085 5044 5115 5044 5086 5115 5015 5087 5086 5016 5088 5087 5089 5088 5017 5116 5089 5045 5091 5090 5019 5116 5045 5090 5092 5091 5020 5093 5092 5021 5022 5094 5093 5094 5023 5095 5095 5024 5096 5117 5096 5046 5097 5117 5046 5098 5097 5026 5027 5099 5098 5099 5028 5100 5101 5100 5029 5102 5101 5030 5118 5102 5047 5118 5047 5103 5103 5032 5104 5104 5048 5119 5111 5040 5049 5120 5049 5105 5050 5051 5121 5105 5050 5121 5052 5122 5051 5123 5052 5053 5124 5053 5054 5125 5054 5106 5056 5126 5055 5126 5106 5055 5127 5056 5057 5058 5128 5057 5129 5058 5059 5060 5130 5059 5107 5131 5060 5108 5107 5036 5061 5062 5132 5108 5061 5132 5133 5062 5063 5064 5134 5063 5135 5064 5065 5136 5065 5109 5066 5067 5137 5109 5066 5137 5067 5068 5138 5069 5139 5068 5140 5069 5070 5141 5070 5071 5073 5142 5071 5110 5072 5143 5144 5073 5110 5143 5072 5074 5076 5145 5074 5075 5146 5076 5048 5111 5119 5113 5112 5042 5113 5043 5147 5077 5078 5148 5077 5148 5114 5147 5043 5114 5149 5078 5079 5080 5150 5079 5080 5081 5151 5152 5081 5082 5082 5083 5153 5084 5154 5083 5085 5155 5084 5156 5085 5115 5086 5157 5115 5087 5157 5086 5087 5088 5158 5089 5159 5088 5160 5089 5116 5161 5090 5091 5116 5090 5161 5162 5091 5092 5092 5093 5163 5094 5164 5093 5094 5095 5165 5166 5095 5096 5117 5167 5096 5168 5117 5097 5098 5168 5097 5098 5099 5169 5099 5100 5170 5171 5100 5101 5102 5172 5101 5173 5102 5118 5174 5118 5103 5174 5103 5104 5175 5104 5119 5111 5049 5120 5176 5120 5105 5051 5122 5121 5176 5105 5121 5123 5122 5052 5123 5053 5124 5124 5054 5125 5125 5106 5177 5127 5126 5056 5177 5106 5126 5128 5127 5057 5129 5128 5058 5130 5129 5059 5131 5130 5060 5178 5131 5107 5178 5107 5108 5132 5062 5133 5108 5132 5179 5134 5133 5063 5135 5134 5064 5135 5065 5136 5136 5109 5180 5067 5138 5137 5109 5137 5180 5068 5139 5138 5140 5139 5069 5141 5140 5070 5142 5141 5071 5144 5142 5073 5110 5143 5181 5144 5110 5181 5145 5143 5074 5076 5146 5145 5119 5111 5182 5183 5112 5113 5113 5147 5184 5078 5149 5148 5148 5185 5114 5185 5147 5114 5150 5149 5079 5080 5151 5150 5151 5081 5152 5152 5082 5153 5083 5154 5153 5084 5155 5154 5156 5155 5085 5186 5156 5115 5157 5186 5115 5157 5087 5158 5088 5159 5158 5160 5159 5089 5160 5116 5187 5161 5091 5162 5116 5161 5187 5162 5092 5163 5093 5164 5163 5094 5165 5164 5165 5095 5166 5167 5166 5096 5188 5167 5117 5188 5117 5168 5168 5098 5169 5099 5170 5169 5170 5100 5171 5172 5171 5101 5173 5172 5102 5189 5173 5118 5174 5189 5118 5175 5174 5104 5190 5175 5119 5182 5111 5120 5176 5191 5120 5122 5192 5121 5192 5176 5121 5193 5122 5123 5123 5124 5194 5124 5125 5195 5125 5177 5196 5197 5126 5127 5177 5126 5197 5198 5127 5128 5199 5128 5129 5200 5129 5130 5201 5130 5131 5202 5131 5178 5178 5108 5179 5203 5132 5133 5179 5132 5203 5134 5204 5133 5205 5134 5135 5135 5136 5206 5207 5136 5180 5138 5208 5137 5137 5208 5180 5139 5209 5138 5210 5139 5140 5140 5141 5211 5142 5212 5141 5144 5213 5142 5143 5214 5181 5215 5144 5181 5214 5143 5145 5146 5216 5145 5190 5119 5182 5183 5113 5184 5184 5147 5217 5148 5149 5218 5148 5218 5185 5217 5147 5185 5150 5219 5149 5150 5151 5220 5151 5152 5221 5222 5152 5153 5154 5223 5153 5155 5224 5154 5156 5225 5155 5186 5226 5156 5227 5186 5157 5227 5157 5158 5159 5228 5158 5229 5159 5160 5230 5160 5187 5161 5162 5231 5161 5231 5187 5232 5162 5163 5163 5164 5233 5165 5234 5164 5165 5166 5235 5236 5166 5167 5237 5167 5188 5188 5168 5238 5168 5169 5238 5169 5170 5239 5170 5171 5240 5241 5171 5172 5242 5172 5173 5243 5173 5189 5244 5189 5174 5244 5174 5175 5190 5245 5175 5191 5182 5120 5176 5246 5191 5193 5192 5122 5192 5246 5176 5193 5123 5194 5124 5195 5194 5125 5196 5195 5196 5177 5247 5197 5127 5198 5177 5197 5247 5198 5128 5199 5199 5129 5200 5200 5130 5201 5201 5131 5202 5202 5178 5248 5248 5178 5179 5204 5203 5133 5249 5179 5203 5205 5204 5134 5205 5135 5206 5206 5136 5207 5250 5207 5180 5209 5208 5138 5208 5250 5180 5210 5209 5139 5210 5140 5211 5141 5212 5211 5142 5213 5212 5215 5213 5144 5181 5214 5251 5215 5181 5251 5216 5214 5145 5252 5190 5182 5253 5183 5184 5254 5184 5217 5149 5219 5218 5218 5255 5185 5255 5217 5185 5150 5220 5219 5220 5151 5221 5152 5222 5221 5223 5222 5153 5224 5223 5154 5155 5225 5224 5156 5226 5225 5186 5256 5226 5227 5256 5186 5228 5227 5158 5229 5228 5159 5229 5160 5230 5230 5187 5257 5231 5162 5232 5187 5231 5257 5232 5163 5233 5164 5234 5233 5165 5235 5234 5235 5166 5236 5236 5167 5237 5237 5188 5258 5258 5188 5238 5169 5239 5238 5170 5240 5239 5240 5171 5241 5241 5172 5242 5242 5173 5243 5243 5189 5259 5259 5189 5244 5245 5244 5175 5260 5245 5190 5191 5252 5182 5246 5261 5191 5262 5192 5193 5262 5246 5192 5263 5193 5194 5195 5264 5194 5196 5265 5195 5266 5196 5247 5197 5198 5267 5197 5267 5247 5198 5199 5268 5199 5200 5269 5200 5201 5270 5201 5202 5271 5202 5248 5272 5249 5248 5179 5204 5273 5203 5273 5249 5203 5205 5274 5204 5275 5205 5206 5276 5206 5207 5250 5277 5207 5209 5278 5208 5208 5278 5250 5279 5209 5210 5280 5210 5211 5212 5281 5211 5213 5282 5212 5283 5213 5215 5214 5284 5251 5285 5215 5251 5216 5286 5214 5260 5190 5252 5254 5253 5184 5254 5217 5287 5219 5288 5218 5288 5255 5218 5217 5255 5287 5219 5220 5289 5290 5220 5221 5222 5291 5221 5223 5292 5222 5224 5293 5223 5224 5225 5294 5225 5226 5295 5226 5256 5296 5227 5297 5256 5228 5297 5227 5298 5228 5229 5229 5230 5299 5230 5257 5300 5231 5232 5301 5231 5301 5257 5302 5232 5233 5233 5234 5303 5234 5235 5304 5235 5236 5305 5236 5237 5306 5237 5258 5307 5308 5258 5238 5239 5308 5238 5240 5309 5239 5240 5241 5310 5241 5242 5311 5242 5243 5312 5243 5259 5313 5259 5244 5314 5314 5244 5245 5315 5245 5260 5191 5261 5252 5316 5261 5246 5262 5193 5263 5316 5246 5262 5264 5263 5194 5265 5264 5195 5265 5196 5266 5266 5247 5317 5267 5198 5268 5247 5267 5317 5199 5269 5268 5269 5200 5270 5270 5201 5271 5202 5272 5271 5272 5248 5318 5318 5248 5249 5204 5274 5273 5249 5273 5319 5275 5274 5205 5276 5275 5206 5277 5276 5207 5320 5277 5250 5279 5278 5209 5278 5320 5250 5279 5210 5280 5281 5280 5211 5212 5282 5281 5283 5282 5213 5283 5215 5285 5214 5286 5284 5284 5285 5251 5321 5260 5252 5322 5253 5254 5323 5254 5287 5219 5289 5288 5288 5324 5255 5255 5323 5287 5289 5220 5290 5291 5290 5221 5222 5292 5291 5293 5292 5223 5293 5224 5294 5225 5295 5294 5295 5226 5296 5256 5325 5296 5256 5297 5325 5298 5297 5228 5298 5229 5299 5299 5230 5300 5257 5326 5300 5301 5232 5302 5301 5326 5257 5302 5233 5303 5234 5304 5303 5235 5305 5304 5305 5236 5306 5306 5237 5307 5258 5327 5307 5258 5308 5327 5309 5308 5239 5240 5310 5309 5310 5241 5311 5242 5312 5311 5312 5243 5313 5259 5328 5313 5259 5314 5328 5314 5245 5315 5315 5260 5329 5261 5321 5252 5330 5261 5316 5331 5262 5263 5316 5262 5331 5263 5264 5332 5265 5333 5264 5334 5265 5266 5335 5266 5317 5336 5267 5268 5267 5336 5317 5269 5337 5268 5338 5269 5270 5270 5271 5339 5272 5340 5271 5272 5318 5341 5318 5249 5319 5274 5342 5273 5273 5342 5319 5275 5343 5274 5344 5275 5276 5276 5277 5345 5320 5346 5277 5347 5278 5279 5347 5320 5278 5279 5280 5348 5280 5281 5349 5282 5350 5281 5351 5282 5283 5352 5283 5285 5286 5353 5284 5284 5354 5285 5329 5260 5321 5322 5254 5355 5355 5254 5323 5288 5289 5356 5288 5356 5324 5255 5324 5323 5289 5290 5357 5290 5291 5358 5292 5359 5291 5360 5292 5293 5293 5294 5361 5295 5362 5294 5363 5295 5296 5325 5364 5296 5297 5365 5325 5298 5365 5297 5366 5298 5299 5367 5299 5300 5300 5326 5368 5301 5302 5369 5301 5369 5326 5370 5302 5303 5303 5304 5371 5304 5305 5372 5373 5305 5306 5374 5306 5307 5327 5375 5307 5308 5376 5327 5309 5376 5308 5309 5310 5377 5378 5310 5311 5311 5312 5379 5312 5313 5380 5313 5328 5381 5328 5314 5382 5314 5315 5382 5315 5329 5383 5330 5321 5261 5330 5316 5384 5331 5263 5332 5316 5331 5384 5264 5333 5332 5334 5333 5265 5335 5334 5266 5385 5335 5317 5337 5336 5268 5336 5385 5317 5269 5338 5337 5338 5270 5339 5271 5340 5339 5272 5341 5340 5341 5318 5386 5386 5318 5319 5274 5343 5342 5342 5387 5319 5344 5343 5275 5344 5276 5345 5277 5346 5345 5388 5346 5320 5347 5279 5348 5388 5320 5347 5348 5280 5349 5281 5350 5349 5351 5350 5282 5351 5283 5352 5354 5352 5285 5353 5354 5284 5329 5321 5389 5390 5322 5355 5391 5355 5323 5356 5289 5357 5324 5356 5392 5324 5391 5323 5290 5358 5357 5291 5359 5358 5360 5359 5292 5360 5293 5361 5294 5362 5361 5362 5295 5363 5364 5363 5296 5393 5364 5325 5365 5393 5325 5366 5365 5298 5367 5366 5299 5367 5300 5368 5368 5326 5394 5369 5302 5370 5326 5369 5394 5370 5303 5371 5371 5304 5372 5305 5373 5372 5374 5373 5306 5375 5374 5307 5395 5375 5327 5376 5395 5327 5309 5377 5376 5377 5310 5378 5378 5311 5379 5379 5312 5380 5313 5381 5380 5328 5396 5381 5396 5328 5382 5315 5383 5382 5329 5397 5383 5389 5321 5330 5330 5384 5398 5399 5331 5332 5331 5399 5384 5333 5400 5332 5334 5401 5333 5402 5334 5335 5403 5335 5385 5337 5404 5336 5336 5404 5385 5338 5405 5337 5406 5338 5339 5340 5407 5339 5340 5341 5408 5341 5386 5409 5387 5386 5319 5343 5410 5342 5342 5410 5387 5411 5343 5344 5412 5344 5345 5346 5413 5345 5388 5414 5346 5415 5347 5348 5388 5347 5415 5416 5348 5349 5350 5417 5349 5418 5350 5351 5351 5352 5419 5352 5354 5420 5353 5421 5354 5329 5389 5397 5390 5355 5422 5355 5391 5422 5356 5357 5423 5392 5356 5423 5324 5392 5391 5358 5424 5357 5359 5425 5358 5426 5359 5360 5427 5360 5361 5362 5428 5361 5429 5362 5363 5364 5430 5363 5393 5431 5364 5365 5432 5393 5366 5432 5365 5433 5366 5367 5434 5367 5368 5435 5368 5394 5369 5370 5436 5394 5369 5436 5437 5370 5371 5438 5371 5372 5373 5439 5372 5374 5440 5373 5375 5441 5374 5395 5442 5375 5376 5443 5395 5376 5377 5443 5377 5378 5444 5445 5378 5379 5446 5379 5380 5381 5447 5380 5396 5448 5381 5449 5396 5382 5383 5449 5382 5397 5450 5383 5389 5330 5398 5384 5451 5398 5400 5399 5332 5399 5451 5384 5333 5401 5400 5402 5401 5334 5402 5335 5403 5452 5403 5385 5337 5405 5404 5404 5452 5385 5406 5405 5338 5407 5406 5339 5407 5340 5408 5341 5409 5408 5409 5386 5453 5453 5386 5387 5411 5410 5343 5410 5454 5387 5411 5344 5412 5413 5412 5345 5346 5414 5413 5455 5414 5388 5416 5415 5348 5455 5388 5415 5417 5416 5349 5418 5417 5350 5418 5351 5419 5419 5352 5456 5354 5421 5420 5352 5420 5456 5397 5389 5457 5458 5390 5422 5422 5391 5459 5357 5424 5423 5460 5392 5423 5391 5392 5461 5425 5424 5358 5426 5425 5359 5426 5360 5427 5428 5427 5361 5429 5428 5362 5430 5429 5363 5431 5430 5364 5431 5393 5462 5393 5432 5462 5433 5432 5366 5433 5367 5434 5435 5434 5368 5463 5435 5394 5370 5437 5436 5463 5394 5436 5438 5437 5371 5439 5438 5372 5440 5439 5373 5441 5440 5374 5375 5442 5441 5395 5464 5442 5395 5443 5464 5443 5377 5444 5444 5378 5445 5446 5445 5379 5447 5446 5380 5448 5447 5381 5396 5465 5448 5449 5465 5396 5450 5449 5383 5397 5466 5450 5457 5389 5398 5398 5451 5467 5400 5468 5399 5399 5468 5451 5400 5401 5469 5402 5470 5401 5471 5402 5403 5452 5472 5403 5404 5405 5473 5452 5404 5473 5406 5474 5405 5407 5475 5406 5476 5407 5408 5408 5409 5477 5409 5453 5478 5454 5453 5387 5479 5410 5411 5479 5454 5410 5480 5411 5412 5412 5413 5481 5413 5414 5482 5455 5483 5414 5416 5484 5415 5484 5455 5415 5417 5485 5416 5486 5417 5418 5487 5418 5419 5488 5419 5456 5421 5489 5420 5420 5490 5456 5397 5457 5466 5491 5458 5422 5391 5461 5459 5491 5422 5459 5423 5424 5492 5461 5392 5460 5460 5423 5492 5425 5493 5424 5494 5425 5426 5495 5426 5427 5428 5496 5427 5497 5428 5429 5498 5429 5430 5499 5430 5431 5431 5462 5500 5432 5501 5462 5433 5501 5432 5502 5433 5434 5435 5503 5434 5463 5504 5435 5437 5505 5436 5505 5463 5436 5438 5506 5437 5439 5507 5438 5440 5508 5439 5509 5440 5441 5442 5510 5441 5442 5464 5511 5464 5443 5512 5512 5443 5444 5513 5444 5445 5446 5514 5445 5515 5446 5447 5447 5448 5516 5448 5465 5517 5449 5518 5465 5450 5518 5449 5450 5466 5519 5457 5398 5467 5467 5451 5520 5400 5469 5468 5451 5468 5520 5401 5470 5469 5471 5470 5402 5472 5471 5403 5521 5472 5452 5405 5474 5473 5521 5452 5473 5406 5475 5474 5476 5475 5407 5476 5408 5477 5409 5478 5477 5478 5453 5522 5522 5453 5454 5479 5411 5480 5523 5454 5479 5480 5412 5481 5413 5482 5481 5414 5483 5482 5524 5483 5455 5485 5484 5416 5524 5455 5484 5486 5485 5417 5486 5418 5487 5487 5419 5488 5490 5488 5456 5489 5490 5420 5466 5457 5525 5526 5458 5491 5461 5527 5459 5527 5491 5459 5424 5493 5492 5461 5460 5528 5529 5460 5492 5494 5493 5425 5494 5426 5495 5496 5495 5427 5497 5496 5428 5497 5429 5498 5498 5430 5499 5499 5431 5500 5462 5530 5500 5462 5501 5530 5502 5501 5433 5503 5502 5434 5504 5503 5435 5531 5504 5463 5506 5505 5437 5531 5463 5505 5507 5506 5438 5439 5508 5507 5509 5508 5440 5510 5509 5441 5442 5511 5510 5511 5464 5532 5464 5512 5532 5512 5444 5513 5514 5513 5445 5515 5514 5446 5515 5447 5516 5516 5448 5517 5465 5533 5517 5465 5518 5533 5450 5519 5518 5466 5534 5519 5525 5457 5467 5535 5467 5520 5469 5536 5468 5468 5536 5520 5470 5537 5469 5471 5538 5470 5472 5539 5471 5521 5540 5472 5474 5541 5473 5541 5521 5473 5474 5475 5542 5476 5543 5475 5544 5476 5477 5478 5545 5477 5478 5522 5546 5522 5454 5523 5479 5480 5547 5523 5479 5547 5548 5480 5481 5482 5549 5481 5483 5550 5482 5551 5483 5524 5552 5484 5485 5524 5484 5552 5553 5485 5486 5486 5487 5554 5555 5487 5488 5490 5556 5488 5489 5557 5490 5466 5525 5534 5526 5491 5558 5461 5528 5527 5558 5491 5527 5493 5559 5492 5528 5460 5529 5559 5529 5492 5494 5560 5493 5561 5494 5495 5496 5562 5495 5563 5496 5497 5497 5498 5564 5498 5499 5565 5566 5499 5500 5530 5567 5500 5501 5568 5530 5502 5568 5501 5503 5569 5502 5504 5570 5503 5531 5571 5504 5506 5572 5505 5572 5531 5505 5573 5506 5507 5508 5574 5507 5575 5508 5509 5510 5576 5509 5510 5511 5577 5578 5511 5532 5532 5512 5579 5579 5512 5513 5514 5580 5513 5515 5581 5514 5582 5515 5516 5583 5516 5517 5533 5584 5517 5533 5518 5585 5518 5519 5585 5534 5586 5519 5535 5525 5467 5587 5535 5520 5537 5536 5469 5536 5587 5520 5470 5538 5537 5471 5539 5538 5472 5540 5539 5588 5540 5521 5541 5474 5542 5588 5521 5541 5475 5543 5542 5544 5543 5476 5545 5544 5477 5478 5546 5545 5546 5522 5589 5522 5523 5589 5547 5480 5548 5590 5523 5547 5549 5548 5481 5482 5550 5549 5551 5550 5483 5551 5524 5591 5552 5485 5553 5524 5552 5591 5553 5486 5554 5554 5487 5555 5556 5555 5488 5490 5557 5556 5534 5525 5592 5593 5526 5558 5528 5594 5527 5594 5558 5527 5493 5560 5559 5528 5529 5595 5596 5529 5559 5561 5560 5494 5562 5561 5495 5563 5562 5496 5563 5497 5564 5564 5498 5565 5565 5499 5566 5567 5566 5500 5597 5567 5530 5568 5597 5530 5502 5569 5568 5503 5570 5569 5504 5571 5570 5531 5598 5571 5573 5572 5506 5572 5598 5531 5574 5573 5507 5575 5574 5508 5576 5575 5509 5510 5577 5576 5577 5511 5578 5578 5532 5599 5599 5532 5579 5580 5579 5513 5514 5581 5580 5582 5581 5515 5583 5582 5516 5584 5583 5517 5533 5600 5584 5600 5533 5585 5519 5586 5585 5534 5601 5586 5592 5525 5535 5535 5587 5602 5537 5603 5536 5536 5603 5587 5537 5538 5604 5538 5539 5605 5539 5540 5606 5588 5607 5540 5541 5542 5608 5588 5541 5608 5543 5609 5542 5544 5610 5543 5545 5611 5544 5545 5546 5612 5613 5546 5589 5589 5523 5590 5614 5547 5548 5614 5590 5547 5549 5615 5548 5550 5616 5549 5617 5550 5551 5618 5551 5591 5552 5553 5619 5552 5619 5591 5620 5553 5554 5621 5554 5555 5556 5622 5555 5557 5623 5556 5534 5592 5601 5624 5593 5558 5528 5595 5594 5558 5594 5625 5560 5626 5559 5595 5529 5596 5626 5596 5559 5561 5627 5560 5562 5628 5561 5629 5562 5563 5630 5563 5564 5631 5564 5565 5632 5565 5566 5567 5633 5566 5597 5634 5567 5568 5635 5597 5568 5569 5635 5569 5570 5636 5570 5571 5637 5571 5598 5638 5573 5639 5572 5572 5639 5598 5574 5640 5573 5575 5641 5574 5576 5642 5575 5576 5577 5643 5577 5578 5644 5645 5578 5599 5646 5599 5579 5580 5646 5579 5580 5581 5647 5582 5648 5581 5649 5582 5583 5583 5584 5650 5584 5600 5651 5652 5600 5585 5586 5652 5585 5586 5601 5653 5592 5535 5602 5602 5587 5654 5537 5604 5603 5587 5603 5654 5604 5538 5605 5605 5539 5606 5540 5607 5606 5655 5607 5588 5542 5609 5608 5655 5588 5608 5543 5610 5609 5544 5611 5610 5545 5612 5611 5612 5546 5613 5613 5589 5656 5656 5589 5590 5615 5614 5548 5614 5657 5590 5616 5615 5549 5617 5616 5550 5617 5551 5618 5618 5591 5658 5619 5553 5620 5591 5619 5658 5621 5620 5554 5622 5621 5555 5623 5622 5556 5601 5592 5659 5660 5593 5624 5624 5558 5625 5595 5661 5594 5594 5661 5625 5560 5627 5626 5662 5595 5596 5596 5626 5663 5561 5628 5627 5629 5628 5562 5629 5563 5630 5631 5630 5564 5632 5631 5565 5633 5632 5566 5567 5634 5633 5597 5664 5634 5597 5635 5664 5635 5569 5636 5570 5637 5636 5637 5571 5638 5598 5665 5638 5573 5640 5639 5598 5639 5665 5574 5641 5640 5575 5642 5641 5576 5643 5642 5643 5577 5644 5644 5578 5645 5666 5645 5599 5646 5666 5599 5646 5580 5647 5581 5648 5647 5649 5648 5582 5649 5583 5650 5650 5584 5651 5600 5667 5651 5652 5667 5600 5652 5586 5653 5601 5668 5653 5659 5592 5602 5669 5602 5654 5603 5604 5670 5603 5670 5654 5671 5604 5605 5672 5605 5606 5607 5673 5606 5655 5674 5607 5609 5675 5608 5675 5655 5608 5609 5610 5676 5610 5611 5677 5611 5612 5678 5612 5613 5679 5680 5613 5656 5657 5656 5590 5615 5681 5614 5681 5657 5614 5616 5682 5615 5683 5616 5617 5617 5618 5684 5618 5658 5685 5619 5620 5686 5619 5686 5658 5687 5620 5621 5621 5622 5688 5623 5689 5622 5601 5659 5668 5660 5624 5690 5691 5624 5625 5662 5661 5595 5661 5691 5625 5626 5627 5692 5662 5596 5663 5626 5692 5663 5627 5628 5693 5629 5694 5628 5695 5629 5630 5631 5696 5630 5697 5631 5632 5633 5698 5632 5634 5699 5633 5634 5664 5700 5664 5635 5701 5635 5636 5701 5636 5637 5702 5637 5638 5703 5638 5665 5704 5639 5640 5705 5665 5639 5705 5640 5641 5706 5641 5642 5707 5642 5643 5708 5709 5643 5644 5710 5644 5645 5666 5711 5645 5712 5666 5646 5712 5646 5647 5648 5713 5647 5649 5714 5648 5715 5649 5650 5716 5650 5651 5667 5717 5651 5718 5667 5652 5718 5652 5653 5668 5719 5653 5669 5659 5602 5720 5669 5654 5670 5604 5671 5670 5720 5654 5672 5671 5605 5673 5672 5606 5607 5674 5673 5721 5674 5655 5609 5676 5675 5721 5655 5675 5610 5677 5676 5677 5611 5678 5612 5679 5678 5679 5613 5680 5722 5680 5656 5657 5722 5656 5615 5682 5681 5723 5657 5681 5683 5682 5616 5683 5617 5684 5684 5618 5685 5685 5658 5724 5686 5620 5687 5658 5686 5724 5687 5621 5725 5622 5689 5688 5621 5688 5725 5668 5659 5726 5727 5660 5690 5690 5624 5691 5662 5728 5661 5661 5728 5691 5692 5627 5693 5729 5662 5663 5692 5730 5663 5628 5694 5693 5695 5694 5629 5696 5695 5630 5697 5696 5631 5698 5697 5632 5699 5698 5633 5634 5700 5699 5700 5664 5731 5731 5664 5701 5701 5636 5702 5702 5637 5703 5703 5638 5704 5704 5665 5732 5640 5706 5705 5665 5705 5732 5706 5641 5707 5642 5708 5707 5708 5643 5709 5709 5644 5710 5711 5710 5645 5666 5733 5711 5712 5733 5666 5713 5712 5647 5648 5714 5713 5715 5714 5649 5716 5715 5650 5717 5716 5651 5667 5734 5717 5718 5734 5667 5719 5718 5653 5668 5735 5719 5726 5659 5669 5669 5720 5736 5670 5671 5737 5670 5737 5720 5738 5671 5672 5672 5673 5739 5673 5674 5740 5721 5741 5674 5676 5742 5675 5742 5721 5675 5676 5677 5743 5677 5678 5744 5679 5745 5678 5679 5680 5746 5747 5680 5722 5723 5722 5657 5682 5748 5681 5748 5723 5681 5749 5682 5683 5750 5683 5684 5751 5684 5685 5752 5685 5724 5686 5687 5753 5724 5686 5753 5754 5687 5725 5689 5755 5688 5688 5756 5725 5668 5726 5735 5757 5727 5690 5690 5691 5758 5729 5728 5662 5728 5759 5691 5760 5692 5693 5730 5729 5663 5730 5692 5760 5694 5761 5693 5695 5762 5694 5696 5763 5695 5697 5764 5696 5698 5765 5697 5699 5766 5698 5699 5700 5767 5700 5731 5768 5769 5731 5701 5769 5701 5702 5770 5702 5703 5771 5703 5704 5772 5704 5732 5705 5706 5773 5732 5705 5773 5706 5707 5774 5707 5708 5775 5708 5709 5776 5777 5709 5710 5711 5778 5710 5711 5733 5779 5780 5733 5712 5713 5780 5712 5713 5714 5781 5715 5782 5714 5783 5715 5716 5716 5717 5784 5717 5734 5785 5718 5786 5734 5719 5786 5718 5719 5735 5787 5726 5669 5736 5736 5720 5788 5737 5671 5738 5720 5737 5788 5738 5672 5739 5673 5740 5739 5674 5741 5740 5789 5741 5721 5742 5676 5743 5789 5721 5742 5677 5744 5743 5678 5745 5744 5679 5746 5745 5746 5680 5747 5747 5722 5790 5790 5722 5723 5749 5748 5682 5791 5723 5748 5749 5683 5750 5751 5750 5684 5752 5751 5685 5792 5752 5724 5753 5687 5754 5792 5724 5753 5756 5754 5725 5755 5756 5688 5735 5726 5793 5794 5727 5757 5757 5690 5758 5691 5759 5758 5729 5795 5728 5728 5795 5759 5761 5760 5693 5796 5729 5730 5730 5760 5797 5694 5762 5761 5695 5763 5762 5696 5764 5763 5697 5765 5764 5698 5766 5765 5699 5767 5766 5767 5700 5768 5768 5731 5798 5731 5769 5798 5770 5769 5702 5771 5770 5703 5772 5771 5704 5799 5772 5732 5773 5706 5774 5799 5732 5773 5707 5775 5774 5708 5776 5775 5776 5709 5777 5778 5777 5710 5778 5711 5779 5733 5800 5779 5780 5800 5733 5713 5781 5780 5714 5782 5781 5783 5782 5715 5783 5716 5784 5784 5717 5785 5734 5801 5785 5734 5786 5801 5719 5787 5786 5735 5802 5787 5793 5726 5736 5803 5736 5788 5737 5738 5804 5737 5804 5788 5805 5738 5739 5740 5806 5739 5740 5741 5807 5789 5808 5741 5742 5743 5809 5789 5742 5809 5744 5810 5743 5744 5745 5811 5746 5812 5745 5746 5747 5813 5747 5790 5814 5790 5723 5791 5815 5748 5749 5791 5748 5815 5816 5749 5750 5751 5817 5750 5752 5818 5751 5819 5752 5792 5820 5753 5754 5820 5792 5753 5756 5821 5754 5755 5822 5756 5735 5793 5802 5794 5757 5823 5824 5757 5758 5759 5824 5758 5796 5795 5729 5759 5795 5825 5761 5826 5760 5796 5730 5797 5760 5826 5797 5762 5827 5761 5762 5763 5828 5763 5764 5829 5764 5765 5830 5765 5766 5831 5766 5767 5832 5833 5767 5768 5834 5768 5798 5769 5835 5798 5770 5835 5769 5771 5836 5770 5837 5771 5772 5772 5799 5838 5839 5773 5774 5839 5799 5773 5775 5840 5774 5776 5841 5775 5776 5777 5842 5843 5777 5778 5844 5778 5779 5800 5845 5779 5846 5800 5780 5781 5846 5780 5782 5847 5781 5783 5848 5782 5849 5783 5784 5850 5784 5785 5801 5851 5785 5801 5786 5852 5786 5787 5852 5802 5853 5787 5803 5793 5736 5854 5803 5788 5804 5738 5805 5804 5854 5788 5806 5805 5739 5806 5740 5807 5741 5808 5807 5855 5808 5789 5743 5810 5809 5855 5789 5809 5810 5744 5811 5745 5812 5811 5746 5813 5812 5813 5747 5814 5790 5856 5814 5790 5791 5856 5815 5749 5816 5791 5815 5857 5817 5816 5750 5751 5818 5817 5819 5818 5752 5819 5792 5858 5821 5820 5754 5858 5792 5820 5756 5822 5821 5802 5793 5859 5860 5794 5823 5757 5861 5823 5861 5757 5824 5759 5825 5824 5796 5862 5795 5795 5862 5825 5827 5826 5761 5863 5796 5797 5826 5864 5797 5762 5828 5827 5828 5763 5829 5764 5830 5829 5830 5765 5831 5766 5832 5831 5832 5767 5833 5833 5768 5834 5865 5834 5798 5835 5865 5798 5770 5836 5835 5837 5836 5771 5837 5772 5838 5799 5866 5838 5840 5839 5774 5839 5866 5799 5841 5840 5775 5776 5842 5841 5842 5777 5843 5843 5778 5844 5845 5844 5779 5800 5867 5845 5846 5867 5800 5781 5847 5846 5782 5848 5847 5849 5848 5783 5850 5849 5784 5851 5850 5785 5801 5868 5851 5868 5801 5852 5787 5853 5852 5802 5869 5853 5859 5793 5803 5803 5854 5870 5804 5805 5871 5804 5871 5854 5806 5872 5805 5873 5806 5807 5808 5874 5807 5855 5875 5808 5810 5876 5809 5876 5855 5809 5877 5810 5811 5812 5878 5811 5812 5813 5879 5880 5813 5814 5814 5856 5881 5856 5791 5857 5815 5816 5882 5815 5882 5857 5883 5816 5817 5818 5884 5817 5885 5818 5819 5819 5858 5886 5887 5820 5821 5858 5820 5887 5822 5888 5821 5802 5859 5869 5889 5860 5823 5861 5889 5823 5890 5861 5824 5825 5890 5824 5863 5862 5796 5862 5891 5825 5827 5892 5826 5864 5863 5797 5892 5864 5826 5827 5828 5893 5894 5828 5829 5830 5895 5829 5830 5831 5896 5832 5897 5831 5832 5833 5898 5899 5833 5834 5865 5900 5834 5835 5901 5865 5835 5836 5901 5837 5902 5836 5903 5837 5838 5866 5904 5838 5905 5839 5840 5905 5866 5839 5840 5841 5906 5841 5842 5907 5842 5843 5908 5909 5843 5844 5845 5910 5844 5845 5867 5911 5846 5912 5867 5846 5847 5912 5847 5848 5913 5849 5914 5848 5915 5849 5850 5850 5851 5916 5851 5868 5917 5918 5868 5852 5853 5918 5852 5853 5869 5919 5859 5803 5870 5870 5854 5920 5805 5872 5871 5854 5871 5920 5873 5872 5806 5874 5873 5807 5808 5875 5874 5855 5921 5875 5877 5876 5810 5876 5921 5855 5878 5877 5811 5812 5879 5878 5879 5813 5880 5880 5814 5881 5881 5856 5922 5856 5857 5922 5882 5816 5883 5882 5923 5857 5884 5883 5817 5885 5884 5818 5885 5819 5886 5886 5858 5924 5888 5887 5821 5858 5887 5924 5869 5859 5925 5926 5860 5889 5861 5927 5889 5890 5927 5861 5891 5890 5825 5863 5928 5862 5862 5928 5891 5827 5893 5892 5864 5929 5863 5892 5930 5864 5893 5828 5894 5895 5894 5829 5830 5896 5895 5831 5897 5896 5832 5898 5897 5898 5833 5899 5900 5899 5834 5900 5865 5931 5865 5901 5931 5836 5902 5901 5903 5902 5837 5904 5903 5838 5932 5904 5866 5905 5840 5906 5932 5866 5905 5841 5907 5906 5842 5908 5907 5908 5843 5909 5910 5909 5844 5845 5911 5910 5867 5933 5911 5867 5912 5933 5912 5847 5913 5848 5914 5913 5915 5914 5849 5915 5850 5916 5916 5851 5917 5868 5934 5917 5918 5934 5868 5918 5853 5919 5869 5935 5919 5925 5859 5870 5936 5870 5920 5871 5872 5937 5871 5937 5920 5873 5938 5872 5874 5939 5873 5874 5875 5940 5875 5921 5941 5877 5942 5876 5876 5942 5921 5878 5943 5877 5878 5879 5944 5945 5879 5880 5946 5880 5881 5947 5881 5922 5857 5923 5922 5882 5883 5948 5882 5948 5923 5949 5883 5884 5950 5884 5885 5951 5885 5886 5952 5886 5924 5888 5953 5887 5887 5954 5924 5869 5925 5935 5955 5926 5889 5889 5927 5956 5890 5957 5927 5891 5957 5890 5863 5929 5928 5891 5928 5958 5892 5893 5959 5864 5930 5929 5892 5959 5930 5893 5894 5960 5894 5895 5961 5896 5962 5895 5896 5897 5963 5897 5898 5964 5898 5899 5965 5966 5899 5900 5967 5900 5931 5901 5968 5931 5901 5902 5968 5903 5969 5902 5970 5903 5904 5971 5904 5932 5972 5905 5906 5932 5905 5972 5907 5973 5906 5908 5974 5907 5908 5909 5975 5976 5909 5910 5911 5977 5910 5911 5933 5978 5933 5912 5979 5979 5912 5913 5914 5980 5913 5915 5981 5914 5982 5915 5916 5983 5916 5917 5934 5984 5917 5985 5934 5918 5985 5918 5919 5935 5986 5919 5936 5925 5870 5987 5936 5920 5872 5938 5937 5937 5987 5920 5873 5939 5938 5874 5940 5939 5940 5875 5941 5921 5988 5941 5877 5943 5942 5921 5942 5988 5878 5944 5943 5944 5879 5945 5945 5880 5946 5947 5946 5881 5947 5922 5989 5922 5923 5989 5948 5883 5949 5923 5948 5990 5949 5884 5950 5950 5885 5951 5952 5951 5886 5954 5952 5924 5953 5954 5887 5935 5925 5991 5992 5926 5955 5955 5889 5956 5927 5993 5956 5927 5957 5993 5891 5958 5957 5928 5929 5994 5958 5928 5994 5959 5893 5960 5929 5930 5995 5930 5959 5996 5960 5894 5961 5895 5962 5961 5896 5963 5962 5963 5897 5964 5898 5965 5964 5965 5899 5966 5966 5900 5967 5997 5967 5931 5968 5997 5931 5902 5969 5968 5970 5969 5903 5970 5904 5971 5971 5932 5998 5973 5972 5906 5932 5972 5998 5907 5974 5973 5908 5975 5974 5975 5909 5976 5977 5976 5910 5977 5911 5978 5933 5999 5978 5999 5933 5979 5980 5979 5913 5914 5981 5980 5982 5981 5915 5983 5982 5916 5984 5983 5917 5934 6000 5984 5985 6000 5934 5986 5985 5919 5935 6001 5986 5991 5925 5936 5936 5987 6002 5938 6003 5937 5937 6003 5987 5938 5939 6004 5939 5940 6005 6006 5940 5941 5988 6007 5941 5942 5943 6008 5988 5942 6008 5943 5944 6009 5944 5945 6010 6011 5945 5946 5947 6012 5946 6013 5947 5989 5989 5923 5990 5948 5949 6014 5948 6014 5990 5949 5950 6015 5950 5951 6016 6017 5951 5952 5952 5954 6018 5953 6019 5954 5935 5991 6001 5992 5955 6020 6021 5955 5956 5993 6021 5956 5957 6022 5993 5957 5958 6022 5929 5995 5994 6023 5958 5994 6024 5959 5960 5930 5996 5995 5996 5959 6024 6025 5960 5961 5961 5962 6026 5962 5963 6027 6028 5963 5964 5965 6029 5964 5965 5966 6030 6031 5966 5967 5997 6032 5967 5968 6033 5997 5969 6033 5968 6034 5969 5970 5970 5971 6035 6036 5971 5998 5972 5973 6037 5998 5972 6037 5973 5974 6038 5975 6039 5974 5975 5976 6040 6041 5976 5977 6042 5977 5978 5999 6043 5978 5999 5979 6044 5979 5980 6044 5980 5981 6045 5982 6046 5981 6047 5982 5983 5983 5984 6048 5984 6000 6049 5985 6050 6000 5986 6050 5985 5986 6001 6051 5991 5936 6002 6002 5987 6052 5938 6004 6003 5987 6003 6052 6004 5939 6005 5940 6006 6005 6007 6006 5941 6007 5988 6053 5943 6009 6008 5988 6008 6053 5944 6010 6009 6010 5945 6011 6012 6011 5946 6013 6012 5947 6054 6013 5989 6054 5989 5990 6014 5949 6015 5990 6014 6055 5950 6016 6015 6016 5951 6017 6017 5952 6018 5954 6019 6018 6001 5991 6056 6057 5992 6020 6020 5955 6021 6058 6021 5993 6022 6058 5993 6022 5958 6023 5994 5995 6059 6023 5994 6059 6025 6024 5960 5996 6060 5995 5996 6024 6061 6025 5961 6026 5962 6027 6026 6027 5963 6028 6029 6028 5964 5965 6030 6029 6030 5966 6031 6032 6031 5967 6062 6032 5997 6033 6062 5997 6034 6033 5969 6034 5970 6035 6035 5971 6036 6063 6036 5998 6037 5973 6038 6063 5998 6037 5974 6039 6038 5975 6040 6039 6040 5976 6041 6041 5977 6042 6043 6042 5978 6064 6043 5999 6064 5999 6044 5980 6045 6044 5981 6046 6045 6047 6046 5982 6047 5983 6048 6048 5984 6049 6049 6000 6065 6000 6050 6065 5986 6051 6050 6001 6066 6051 6056 5991 6002 6067 6002 6052 6003 6004 6068 6003 6068 6052 6069 6004 6005 6006 6070 6005 6071 6006 6007 6007 6053 6072 6009 6073 6008 6008 6073 6053 6010 6074 6009 6010 6011 6075 6076 6011 6012 6077 6012 6013 6078 6013 6054 6054 5990 6055 6014 6015 6079 6055 6014 6079 6015 6016 6080 6016 6017 6081 6082 6017 6018 6019 6083 6018 6001 6056 6066 6084 6057 6020 6085 6020 6021 6021 6058 6086 6022 6087 6058 6022 6023 6087 5995 6060 6059 6088 6023 6059 6089 6024 6025 5996 6061 6060 6061 6024 6089 6090 6025 6026 6026 6027 6091 6027 6028 6092 6028 6029 6093 6029 6030 6094 6030 6031 6095 6096 6031 6032 6097 6032 6062 6098 6062 6033 6098 6033 6034 6099 6034 6035 6100 6035 6036 6063 6101 6036 6102 6037 6038 6102 6063 6037 6038 6039 6103 6039 6040 6104 6040 6041 6105 6106 6041 6042 6043 6107 6042 6064 6108 6043 6109 6064 6044 6045 6109 6044 6045 6046 6110 6047 6111 6046 6112 6047 6048 6113 6048 6049 6114 6049 6065 6065 6050 6115 6050 6051 6115 6066 6116 6051 6067 6056 6002 6117 6067 6052 6068 6004 6069 6068 6117 6052 6070 6069 6005 6071 6070 6006 6071 6007 6072 6053 6118 6072 6009 6074 6073 6073 6118 6053 6010 6075 6074 6075 6011 6076 6076 6012 6077 6077 6013 6078 6078 6054 6119 6119 6054 6055 6079 6015 6080 6120 6055 6079 6080 6016 6081 6081 6017 6121 6017 6082 6121 6083 6082 6018 6066 6056 6122 6123 6057 6084 6084 6020 6085 6085 6021 6086 6058 6124 6086 6058 6087 6124 6087 6023 6088 6059 6060 6125 6088 6059 6125 6090 6089 6025 6060 6061 6126 6061 6089 6127 6090 6026 6091 6091 6027 6092 6028 6093 6092 6029 6094 6093 6030 6095 6094 6095 6031 6096 6096 6032 6097 6097 6062 6128 6128 6062 6098 6098 6034 6099 6099 6035 6100 6101 6100 6036 6129 6101 6063 6102 6038 6103 6129 6063 6102 6103 6039 6104 6040 6105 6104 6105 6041 6106 6107 6106 6042 6043 6108 6107 6130 6108 6064 6130 6064 6109 6109 6045 6110 6046 6111 6110 6112 6111 6047 6113 6112 6048 6114 6113 6049 6131 6114 6065 6131 6065 6115 6051 6116 6115 6066 6132 6116 6122 6056 6067 6067 6117 6133 6068 6069 6134 6068 6134 6117 6135 6069 6070 6071 6136 6070 6137 6071 6072 6118 6138 6072 6073 6074 6139 6118 6073 6139 6075 6140 6074 6075 6076 6141 6076 6077 6142 6077 6078 6143 6144 6078 6119 6120 6119 6055 6145 6079 6080 6145 6120 6079 6146 6080 6081 6147 6081 6121 6082 6148 6121 6083 6149 6082 6066 6122 6132 6123 6084 6150 6084 6085 6151 6085 6086 6152 6124 6153 6086 6124 6087 6154 6154 6087 6088 6060 6126 6125 6155 6088 6125 6156 6089 6090 6061 6127 6126 6127 6089 6156 6157 6090 6091 6158 6091 6092 6092 6093 6159 6093 6094 6160 6095 6161 6094 6095 6096 6162 6096 6097 6163 6097 6128 6164 6128 6098 6165 6098 6099 6165 6166 6099 6100 6101 6167 6100 6129 6168 6101 6169 6102 6103 6129 6102 6169 6170 6103 6104 6105 6171 6104 6105 6106 6172 6173 6106 6107 6108 6174 6107 6175 6108 6130 6130 6109 6176 6176 6109 6110 6111 6177 6110 6112 6178 6111 6179 6112 6113 6180 6113 6114 6131 6181 6114 6182 6131 6115 6116 6182 6115 6116 6132 6183 6122 6067 6133 6133 6117 6184 6069 6135 6134 6117 6134 6184 6136 6135 6070 6137 6136 6071 6138 6137 6072 6185 6138 6118 6074 6140 6139 6185 6118 6139 6075 6141 6140 6141 6076 6142 6077 6143 6142 6143 6078 6144 6186 6144 6119 6120 6186 6119 6146 6145 6080 6187 6120 6145 6146 6081 6147 6148 6147 6121 6149 6148 6082 6132 6122 6188 6189 6123 6150 6084 6151 6150 6151 6085 6152 6086 6153 6152 6124 6190 6153 6124 6154 6190 6155 6154 6088 6125 6126 6191 6155 6125 6191 6156 6090 6157 6127 6192 6126 6127 6156 6193 6158 6157 6091 6158 6092 6159 6159 6093 6160 6094 6161 6160 6095 6162 6161 6162 6096 6163 6097 6164 6163 6164 6128 6194 6194 6128 6165 6165 6099 6166 6167 6166 6100 6101 6168 6167 6195 6168 6129 6170 6169 6103 6195 6129 6169 6171 6170 6104 6105 6172 6171 6172 6106 6173 6174 6173 6107 6175 6174 6108 6175 6130 6196 6196 6130 6176 6177 6176 6110 6111 6178 6177 6179 6178 6112 6179 6113 6180 6181 6180 6114 6197 6181 6131 6197 6131 6182 6116 6183 6182 6132 6198 6183 6188 6122 6133 6199 6133 6184 6134 6135 6200 6134 6200 6184 6136 6201 6135 6137 6202 6136 6138 6203 6137 6185 6204 6138 6140 6205 6139 6205 6185 6139 6140 6141 6206 6207 6141 6142 6143 6208 6142 6143 6144 6209 6210 6144 6186 6187 6186 6120 6211 6145 6146 6187 6145 6211 6212 6146 6147 6148 6213 6147 6149 6214 6148 6132 6188 6198 6189 6150 6215 6150 6151 6216 6217 6151 6152 6153 6217 6152 6153 6190 6218 6190 6154 6219 6219 6154 6155 6126 6192 6191 6220 6155 6191 6221 6156 6157 6127 6193 6192 6193 6156 6221 6158 6222 6157 6223 6158 6159 6224 6159 6160 6160 6161 6225 6161 6162 6226 6227 6162 6163 6164 6228 6163 6164 6194 6229 6230 6194 6165 6230 6165 6166 6167 6231 6166 6168 6232 6167 6233 6168 6195 6170 6234 6169 6234 6195 6169 6235 6170 6171 6172 6236 6171 6172 6173 6237 6238 6173 6174 6239 6174 6175 6175 6196 6240 6241 6196 6176 6177 6241 6176 6178 6242 6177 6179 6243 6178 6244 6179 6180 6181 6245 6180 6246 6181 6197 6247 6197 6182 6183 6247 6182 6198 6248 6183 6199 6188 6133 6249 6199 6184 6135 6201 6200 6200 6249 6184 6136 6202 6201 6137 6203 6202 6138 6204 6203 6185 6250 6204 6140 6206 6205 6205 6250 6185 6206 6141 6207 6208 6207 6142 6143 6209 6208 6209 6144 6210 6210 6186 6251 6251 6186 6187 6211 6146 6212 6187 6211 6252 6213 6212 6147 6148 6214 6213 6198 6188 6253 6254 6189 6215 6150 6255 6215 6151 6217 6216 6255 6150 6216 6153 6218 6217 6218 6190 6256 6190 6219 6256 6219 6155 6220 6191 6192 6257 6220 6191 6257 6222 6221 6157 6192 6193 6258 6193 6221 6259 6223 6222 6158 6224 6223 6159 6224 6160 6225 6161 6226 6225 6226 6162 6227 6228 6227 6163 6164 6229 6228 6229 6194 6260 6260 6194 6230 6231 6230 6166 6167 6232 6231 6233 6232 6168 6233 6195 6261 6235 6234 6170 6261 6195 6234 6236 6235 6171 6172 6237 6236 6237 6173 6238 6238 6174 6239 6239 6175 6240 6240 6196 6262 6262 6196 6241 6177 6242 6241 6178 6243 6242 6244 6243 6179 6245 6244 6180 6246 6245 6181 6246 6197 6263 6197 6247 6263 6248 6247 6183 6198 6264 6248 6253 6188 6199 6199 6249 6265 6201 6266 6200 6200 6266 6249 6201 6202 6267 6202 6203 6268 6203 6204 6269 6204 6250 6270 6205 6206 6271 6205 6271 6250 6272 6206 6207 6207 6208 6273 6208 6209 6274 6209 6210 6275 6210 6251 6276 6251 6187 6252 6211 6212 6277 6252 6211 6277 6278 6212 6213 6214 6279 6213 6198 6253 6264 6280 6254 6215 6255 6280 6215 6217 6281 6216 6281 6255 6216 6218 6282 6217 6218 6256 6283 6219 6284 6256 6219 6220 6284 6257 6192 6258 6285 6220 6257 6286 6221 6222 6193 6259 6258 6259 6221 6286 6287 6222 6223 6288 6223 6224 6289 6224 6225 6226 6290 6225 6291 6226 6227 6292 6227 6228 6229 6293 6228 6229 6260 6294 6295 6260 6230 6231 6295 6230 6232 6296 6231 6297 6232 6233 6233 6261 6298 6299 6234 6235 6261 6234 6299 6236 6300 6235 6236 6237 6301 6237 6238 6302 6238 6239 6303 6304 6239 6240 6305 6240 6262 6306 6262 6241 6242 6306 6241 6242 6243 6307 6244 6308 6243 6309 6244 6245 6310 6245 6246 6311 6246 6263 6247 6312 6263 6248 6312 6247 6248 6264 6313 6253 6199 6265 6249 6314 6265 6201 6267 6266 6249 6266 6314 6267 6202 6268 6203 6269 6268 6269 6204 6270 6270 6250 6315 6271 6206 6272 6250 6271 6315 6272 6207 6273 6273 6208 6274 6209 6275 6274 6210 6276 6275 6276 6251 6316 6316 6251 6252 6212 6278 6277 6317 6252 6277 6279 6278 6213 6264 6253 6318 6319 6280 6255 6282 6281 6217 6281 6319 6255 6282 6218 6283 6256 6320 6283 6284 6320 6256 6284 6220 6285 6321 6257 6258 6321 6285 6257 6286 6222 6287 6258 6259 6322 6259 6286 6323 6287 6223 6288 6288 6224 6289 6290 6289 6225 6226 6291 6290 6291 6227 6292 6293 6292 6228 6229 6294 6293 6294 6260 6324 6324 6260 6295 6296 6295 6231 6297 6296 6232 6297 6233 6298 6298 6261 6325 6300 6299 6235 6261 6299 6325 6236 6301 6300 6301 6237 6302 6238 6303 6302 6303 6239 6304 6304 6240 6305 6326 6305 6262 6306 6326 6262 6242 6307 6306 6243 6308 6307 6309 6308 6244 6309 6245 6310 6310 6246 6311 6327 6311 6263 6312 6327 6263 6248 6313 6312 6264 6328 6313 6318 6253 6265 6314 6329 6265 6266 6267 6330 6266 6330 6314 6331 6267 6268 6269 6332 6268 6269 6270 6333 6334 6270 6315 6271 6272 6335 6271 6335 6315 6336 6272 6273 6337 6273 6274 6275 6338 6274 6276 6339 6275 6276 6316 6340 6317 6316 6252 6277 6278 6341 6317 6277 6341 6279 6342 6278 6264 6318 6328 6343 6281 6282 6343 6319 6281 6344 6282 6283 6320 6344 6283 6284 6345 6320 6284 6285 6345 6321 6258 6322 6346 6285 6321 6286 6287 6347 6259 6323 6322 6286 6347 6323 6287 6288 6348 6288 6289 6349 6289 6290 6350 6291 6351 6290 6352 6291 6292 6293 6353 6292 6293 6294 6354 6294 6324 6355 6324 6295 6356 6356 6295 6296 6357 6296 6297 6358 6297 6298 6359 6298 6325 6300 6360 6299 6299 6360 6325 6300 6301 6361 6362 6301 6302 6303 6363 6302 6303 6304 6364 6365 6304 6305 6326 6366 6305 6306 6367 6326 6307 6367 6306 6308 6368 6307 6369 6308 6309 6309 6310 6370 6310 6311 6371 6372 6311 6327 6327 6312 6373 6312 6313 6373 6328 6374 6313 6329 6318 6265 6375 6329 6314 6330 6267 6331 6330 6375 6314 6332 6331 6268 6332 6269 6333 6270 6334 6333 6334 6315 6376 6335 6272 6336 6315 6335 6376 6337 6336 6273 6338 6337 6274 6275 6339 6338 6276 6340 6339 6340 6316 6377 6377 6316 6317 6278 6378 6341 6379 6317 6341 6342 6378 6278 6328 6318 6380 6381 6343 6282 6344 6381 6282 6344 6320 6382 6320 6345 6382 6345 6285 6346 6383 6321 6322 6346 6321 6383 6347 6287 6348 6322 6323 6384 6347 6385 6323 6288 6349 6348 6349 6289 6350 6290 6351 6350 6352 6351 6291 6353 6352 6292 6293 6354 6353 6354 6294 6355 6324 6386 6355 6324 6356 6386 6356 6296 6357 6357 6297 6358 6359 6358 6298 6359 6325 6387 6300 6361 6360 6325 6360 6387 6361 6301 6362 6363 6362 6302 6303 6364 6363 6364 6304 6365 6366 6365 6305 6366 6326 6388 6326 6367 6388 6368 6367 6307 6369 6368 6308 6369 6309 6370 6310 6371 6370 6371 6311 6372 6389 6372 6327 6389 6327 6373 6313 6374 6373 6328 6390 6374 6380 6318 6329 6329 6375 6391 6330 6331 6392 6330 6392 6375 6393 6331 6332 6394 6332 6333 6334 6395 6333 6396 6334 6376 6335 6336 6397 6335 6397 6376 6398 6336 6337 6337 6338 6399 6339 6400 6338 6340 6401 6339 6340 6377 6402 6377 6317 6379 6378 6379 6341 6342 6403 6378 6328 6380 6390 6404 6381 6344 6404 6344 6382 6345 6405 6382 6345 6346 6406 6383 6322 6384 6346 6383 6407 6408 6347 6348 6323 6385 6384 6347 6408 6385 6349 6409 6348 6410 6349 6350 6351 6411 6350 6352 6412 6351 6353 6413 6352 6353 6354 6414 6354 6355 6415 6386 6416 6355 6356 6417 6386 6356 6357 6417 6418 6357 6358 6359 6419 6358 6420 6359 6387 6360 6361 6421 6360 6421 6387 6361 6362 6422 6362 6363 6423 6364 6424 6363 6364 6365 6425 6426 6365 6366 6427 6366 6388 6367 6428 6388 6368 6428 6367 6429 6368 6369 6369 6370 6430 6370 6371 6431 6432 6371 6372 6389 6433 6372 6434 6389 6373 6374 6434 6373 6374 6390 6435 6380 6329 6391 6391 6375 6436 6331 6393 6392 6375 6392 6436 6394 6393 6332 6395 6394 6333 6396 6395 6334 6437 6396 6376 6397 6336 6398 6397 6437 6376 6398 6337 6399 6338 6400 6399 6401 6400 6339 6340 6402 6401 6402 6377 6438 6377 6379 6438 6379 6378 6439 6378 6403 6439 6390 6380 6440 6441 6404 6382 6405 6345 6406 6405 6441 6382 6346 6407 6406 6383 6384 6442 6383 6442 6407 6409 6408 6348 6385 6443 6384 6408 6444 6385 6410 6409 6349 6411 6410 6350 6351 6412 6411 6352 6413 6412 6353 6414 6413 6414 6354 6415 6355 6416 6415 6445 6416 6386 6417 6445 6386 6417 6357 6418 6419 6418 6358 6420 6419 6359 6446 6420 6387 6421 6361 6422 6421 6446 6387 6362 6423 6422 6363 6424 6423 6364 6425 6424 6425 6365 6426 6426 6366 6427 6447 6427 6388 6428 6447 6388 6429 6428 6368 6429 6369 6430 6430 6370 6431 6431 6371 6432 6433 6432 6372 6448 6433 6389 6448 6389 6434 6434 6374 6435 6390 6449 6435 6440 6380 6391 6450 6391 6436 6392 6393 6451 6392 6451 6436 6394 6452 6393 6395 6453 6394 6396 6454 6395 6437 6455 6396 6397 6398 6456 6397 6456 6437 6457 6398 6399 6400 6458 6399 6401 6459 6400 6401 6402 6460 6461 6402 6438 6379 6462 6438 6462 6379 6439 6403 6463 6439 6390 6440 6449 6464 6405 6406 6465 6441 6405 6407 6464 6406 6384 6443 6442 6442 6466 6407 6409 6467 6408 6385 6444 6443 6408 6467 6444 6410 6468 6409 6411 6469 6410 6411 6412 6470 6412 6413 6471 6413 6414 6472 6473 6414 6415 6415 6416 6474 6445 6475 6416 6417 6476 6445 6417 6418 6476 6477 6418 6419 6478 6419 6420 6420 6446 6479 6421 6422 6480 6421 6480 6446 6423 6481 6422 6424 6482 6423 6424 6425 6483 6425 6426 6484 6426 6427 6485 6486 6427 6447 6487 6447 6428 6487 6428 6429 6488 6429 6430 6489 6430 6431 6490 6431 6432 6433 6491 6432 6492 6433 6448 6493 6448 6434 6493 6434 6435 6449 6494 6435 6450 6440 6391 6495 6450 6436 6393 6452 6451 6451 6495 6436 6394 6453 6452 6395 6454 6453 6396 6455 6454 6437 6496 6455 6456 6398 6457 6437 6456 6496 6458 6457 6399 6400 6459 6458 6401 6460 6459 6460 6402 6497 6402 6461 6497 6462 6461 6438 6463 6462 6439 6449 6440 6498 6464 6465 6405 6466 6464 6407 6443 6499 6442 6499 6466 6442 6409 6468 6467 6443 6444 6500 6444 6467 6501 6410 6469 6468 6411 6470 6469 6470 6412 6471 6413 6472 6471 6472 6414 6473 6473 6415 6474 6416 6475 6474 6445 6502 6475 6445 6476 6502 6476 6418 6477 6477 6419 6478 6478 6420 6479 6446 6503 6479 6422 6481 6480 6446 6480 6503 6482 6481 6423 6424 6483 6482 6483 6425 6484 6426 6485 6484 6485 6427 6486 6486 6447 6504 6504 6447 6487 6487 6429 6488 6488 6430 6489 6490 6489 6431 6491 6490 6432 6492 6491 6433 6492 6448 6505 6505 6448 6493 6494 6493 6435 6449 6506 6494 6498 6440 6450 6450 6495 6507 6452 6508 6451 6508 6495 6451 6452 6453 6509 6453 6454 6510 6454 6455 6511 6455 6496 6512 6456 6457 6513 6496 6456 6513 6457 6458 6514 6458 6459 6515 6459 6460 6516 6517 6460 6497 6461 6518 6497 6462 6519 6461 6463 6520 6462 6449 6498 6506 6521 6465 6464 6521 6464 6466 6499 6443 6500 6499 6522 6466 6467 6468 6523 6500 6444 6501 6467 6523 6501 6468 6469 6524 6469 6470 6525 6526 6470 6471 6472 6527 6471 6472 6473 6528 6529 6473 6474 6475 6530 6474 6475 6502 6531 6502 6476 6532 6476 6477 6532 6477 6478 6533 6534 6478 6479 6503 6535 6479 6480 6481 6536 6503 6480 6536 6482 6537 6481 6482 6483 6538 6483 6484 6539 6485 6540 6484 6485 6486 6541 6486 6504 6542 6504 6487 6543 6487 6488 6543 6544 6488 6489 6490 6545 6489 6491 6546 6490 6547 6491 6492 6492 6505 6548 6505 6493 6549 6493 6494 6549 6494 6506 6550 6498 6450 6507 6495 6551 6507 6452 6509 6508 6508 6551 6495 6509 6453 6510 6454 6511 6510 6455 6512 6511 6512 6496 6552 6513 6457 6514 6552 6496 6513 6514 6458 6515 6459 6516 6515 6516 6460 6517 6518 6517 6497 6461 6519 6518 6520 6519 6462 6506 6498 6553 6522 6521 6466 6554 6499 6500 6554 6522 6499 6523 6468 6524 6555 6500 6501 6523 6555 6501 6469 6525 6524 6525 6470 6526 6527 6526 6471 6472 6528 6527 6528 6473 6529 6530 6529 6474 6475 6531 6530 6531 6502 6556 6502 6532 6556 6477 6533 6532 6533 6478 6534 6535 6534 6479 6503 6557 6535 6481 6537 6536 6557 6503 6536 6482 6538 6537 6538 6483 6539 6484 6540 6539 6485 6541 6540 6486 6542 6541 6542 6504 6558 6558 6504 6543 6543 6488 6544 6545 6544 6489 6490 6546 6545 6547 6546 6491 6547 6492 6548 6505 6559 6548 6505 6549 6559 6494 6550 6549 6506 6560 6550 6553 6498 6507 6507 6551 6561 6508 6509 6562 6508 6562 6551 6563 6509 6510 6511 6564 6510 6512 6565 6511 6512 6552 6566 6567 6513 6514 6552 6513 6567 6568 6514 6515 6515 6516 6569 6516 6517 6570 6571 6517 6518 6519 6572 6518 6520 6573 6519 6506 6553 6560 6574 6554 6500 6575 6523 6524 6555 6574 6500 6555 6523 6576 6524 6525 6577 6525 6526 6578 6526 6527 6579 6528 6580 6527 6528 6529 6581 6530 6582 6529 6530 6531 6583 6584 6531 6556 6532 6585 6556 6533 6585 6532 6533 6534 6586 6534 6535 6587 6535 6557 6588 6537 6589 6536 6589 6557 6536 6537 6538 6590 6591 6538 6539 6540 6592 6539 6541 6593 6540 6542 6594 6541 6542 6558 6595 6558 6543 6596 6596 6543 6544 6545 6597 6544 6546 6598 6545 6599 6546 6547 6600 6547 6548 6559 6601 6548 6559 6549 6602 6549 6550 6602 6560 6603 6550 6553 6507 6561 6561 6551 6604 6562 6509 6563 6551 6562 6604 6564 6563 6510 6511 6565 6564 6512 6566 6565 6566 6552 6605 6568 6567 6514 6605 6552 6567 6568 6515 6569 6516 6570 6569 6570 6517 6571 6572 6571 6518 6519 6573 6572 6560 6553 6606 6523 6575 6576 6575 6524 6577 6607 6574 6555 6607 6555 6576 6525 6578 6577 6578 6526 6579 6527 6580 6579 6580 6528 6581 6529 6582 6581 6530 6583 6582 6583 6531 6584 6608 6584 6556 6585 6608 6556 6533 6586 6585 6586 6534 6587 6535 6588 6587 6557 6609 6588 6537 6590 6589 6589 6609 6557 6590 6538 6591 6592 6591 6539 6540 6593 6592 6541 6594 6593 6542 6595 6594 6595 6558 6610 6610 6558 6596 6597 6596 6544 6545 6598 6597 6599 6598 6546 6599 6547 6600 6601 6600 6548 6559 6611 6601 6611 6559 6602 6550 6603 6602 6560 6612 6603 6606 6553 6561 6613 6561 6604 6562 6563 6614 6562 6614 6604 6563 6564 6615 6564 6565 6616 6565 6566 6617 6566 6605 6618 6568 6619 6567 6619 6605 6567 6620 6568 6569 6570 6621 6569 6570 6571 6622 6571 6572 6623 6573 6624 6572 6560 6606 6612 6575 6625 6576 6626 6575 6577 6625 6607 6576 6578 6626 6577 6578 6579 6627 6580 6628 6579 6629 6580 6581 6582 6629 6581 6582 6583 6630 6583 6584 6631 6584 6608 6632 6585 6633 6608 6585 6586 6633 6634 6586 6587 6588 6635 6587 6609 6636 6588 6589 6590 6637 6589 6637 6609 6590 6591 6638 6591 6592 6639 6592 6593 6640 6593 6594 6641 6595 6642 6594 6595 6610 6643 6644 6610 6596 6597 6644 6596 6598 6645 6597 6646 6598 6599 6599 6600 6647 6600 6601 6648 6601 6611 6649 6650 6611 6602 6603 6650 6602 6603 6612 6651 6613 6606 6561 6652 6613 6604 6614 6563 6615 6614 6652 6604 6615 6564 6616 6565 6617 6616 6566 6618 6617 6618 6605 6653 6620 6619 6568 6653 6605 6619 6621 6620 6569 6570 6622 6621 6622 6571 6623 6572 6624 6623 6612 6606 6654 6655 6625 6575 6655 6575 6626 6626 6578 6627 6579 6628 6627 6656 6628 6580 6656 6580 6629 6629 6582 6657 6583 6631 6630 6582 6630 6657 6631 6584 6632 6608 6658 6632 6608 6633 6658 6633 6586 6634 6635 6634 6587 6636 6635 6588 6609 6659 6636 6637 6590 6638 6609 6637 6659 6638 6591 6639 6592 6640 6639 6640 6593 6641 6594 6642 6641 6595 6643 6642 6643 6610 6660 6660 6610 6644 6645 6644 6597 6646 6645 6598 6646 6599 6647 6647 6600 6648 6601 6649 6648 6611 6661 6649 6650 6661 6611 6650 6603 6651 6612 6662 6651 6654 6606 6613 6663 6613 6652 6664 6614 6615 6652 6614 6664 6665 6615 6616 6617 6666 6616 6618 6667 6617 6618 6653 6668 6669 6619 6620 6653 6619 6669 6620 6621 6670 6621 6622 6671 6672 6622 6623 6624 6673 6623 6612 6654 6662 6674 6655 6626 6674 6626 6627 6628 6675 6627 6676 6628 6656 6656 6629 6677 6677 6629 6657 6631 6678 6630 6630 6679 6657 6631 6632 6680 6632 6658 6681 6633 6682 6658 6633 6634 6682 6683 6634 6635 6635 6636 6684 6636 6659 6685 6686 6637 6638 6659 6637 6686 6687 6638 6639 6640 6688 6639 6689 6640 6641 6642 6690 6641 6642 6643 6691 6643 6660 6692 6660 6644 6693 6693 6644 6645 6694 6645 6646 6646 6647 6695 6696 6647 6648 6649 6697 6648 6661 6698 6649 6699 6661 6650 6699 6650 6651 6662 6700 6651 6654 6613 6663 6701 6663 6652 6665 6664 6615 6701 6652 6664 6666 6665 6616 6667 6666 6617 6618 6668 6667 6653 6702 6668 6669 6620 6670 6653 6669 6702 6670 6621 6671 6671 6622 6703 6622 6672 6703 6673 6672 6623 6662 6654 6704 6675 6674 6627 6676 6675 6628 6705 6676 6656 6705 6656 6677 6679 6677 6657 6631 6680 6678 6678 6679 6630 6680 6632 6681 6658 6706 6681 6682 6706 6658 6682 6634 6683 6683 6635 6684 6636 6685 6684 6659 6707 6685 6687 6686 6638 6659 6686 6707 6688 6687 6639 6640 6689 6688 6690 6689 6641 6642 6691 6690 6691 6643 6692 6660 6708 6692 6660 6693 6708 6693 6645 6694 6694 6646 6695 6695 6647 6696 6697 6696 6648 6698 6697 6649 6709 6698 6661 6709 6661 6699 6700 6699 6651 6662 6710 6700 6704 6654 6663 6701 6711 6663 6665 6712 6664 6712 6701 6664 6713 6665 6666 6666 6667 6714 6667 6668 6715 6702 6716 6668 6717 6669 6670 6702 6669 6717 6718 6670 6671 6719 6671 6703 6672 6720 6703 6673 6721 6672 6662 6704 6710 6722 6705 6677 6679 6722 6677 6678 6680 6723 6724 6679 6678 6725 6680 6681 6706 6725 6681 6682 6726 6706 6682 6683 6726 6727 6683 6684 6685 6728 6684 6707 6729 6685 6730 6686 6687 6707 6686 6730 6687 6688 6731 6688 6689 6732 6690 6733 6689 6690 6691 6734 6691 6692 6735 6692 6708 6736 6693 6737 6708 6693 6694 6737 6738 6694 6695 6739 6695 6696 6697 6740 6696 6698 6741 6697 6742 6698 6709 6709 6699 6743 6699 6700 6743 6710 6744 6700 6711 6704 6663 6701 6745 6711 6713 6712 6665 6712 6745 6701 6713 6666 6714 6714 6667 6715 6668 6716 6715 6702 6746 6716 6718 6717 6670 6702 6717 6746 6719 6718 6671 6720 6719 6703 6672 6721 6720 6710 6704 6747 6724 6722 6679 6680 6725 6723 6748 6678 6723 6748 6724 6678 6725 6706 6749 6706 6726 6750 6726 6683 6727 6728 6727 6684 6729 6728 6685 6707 6751 6729 6730 6687 6731 6707 6730 6751 6731 6688 6732 6689 6733 6732 6690 6734 6733 6734 6691 6735 6692 6736 6735 6708 6752 6736 6737 6752 6708 6737 6694 6738 6739 6738 6695 6740 6739 6696 6697 6741 6740 6742 6741 6698 6742 6709 6753 6753 6709 6743 6700 6744 6743 6710 6754 6744 6747 6704 6711 6745 6755 6711 6713 6756 6712 6712 6756 6745 6757 6713 6714 6758 6714 6715 6715 6716 6759 6716 6746 6760 6761 6717 6718 6746 6717 6761 6762 6718 6719 6763 6719 6720 6721 6764 6720 6710 6747 6754 6725 6765 6723 6765 6748 6723 6766 6725 6749 6706 6750 6749 6750 6726 6767 6726 6727 6767 6727 6728 6768 6729 6769 6728 6729 6751 6770 6771 6730 6731 6751 6730 6771 6772 6731 6732 6733 6773 6732 6733 6734 6774 6775 6734 6735 6736 6776 6735 6752 6777 6736 6737 6778 6752 6737 6738 6778 6779 6738 6739 6739 6740 6780 6741 6781 6740 6742 6782 6741 6783 6742 6753 6784 6753 6743 6744 6784 6743 6744 6754 6785 6755 6747 6711 6755 6745 6786 6757 6756 6713 6745 6756 6786 6758 6757 6714 6758 6715 6759 6716 6760 6759 6746 6787 6760 6761 6718 6762 6746 6761 6787 6762 6719 6763 6764 6763 6720 6754 6747 6788 6766 6765 6725 6789 6766 6749 6750 6789 6749 6750 6767 6790 6727 6768 6767 6728 6769 6768 6729 6770 6769 6751 6791 6770 6772 6771 6731 6751 6771 6791 6773 6772 6732 6733 6774 6773 6774 6734 6775 6776 6775 6735 6777 6776 6736 6752 6792 6777 6778 6792 6752 6778 6738 6779 6779 6739 6780 6740 6781 6780 6741 6782 6781 6783 6782 6742 6793 6783 6753 6784 6793 6753 6744 6785 6784 6754 6794 6785 6788 6747 6755 6795 6755 6786 6757 6796 6756 6756 6796 6786 6758 6797 6757 6798 6758 6759 6760 6799 6759 6787 6800 6760 6801 6761 6762 6787 6761 6801 6802 6762 6763 6764 6803 6763 6754 6788 6794 6789 6750 6790 6767 6804 6790 6768 6804 6767 6769 6805 6768 6770 6806 6769 6770 6791 6807 6808 6771 6772 6791 6771 6808 6772 6773 6809 6773 6774 6810 6774 6775 6811 6812 6775 6776 6776 6777 6813 6777 6792 6814 6778 6815 6792 6778 6779 6815 6816 6779 6780 6781 6817 6780 6781 6782 6818 6783 6819 6782 6820 6783 6793 6793 6784 6821 6784 6785 6821 6794 6822 6785 6788 6755 6795 6823 6795 6786 6757 6797 6796 6796 6823 6786 6798 6797 6758 6799 6798 6759 6800 6799 6760 6787 6824 6800 6802 6801 6762 6787 6801 6824 6803 6802 6763 6794 6788 6825 6826 6789 6790 6804 6826 6790 6805 6804 6768 6769 6806 6805 6806 6770 6807 6807 6791 6827 6808 6772 6809 6791 6808 6827 6773 6810 6809 6774 6811 6810 6811 6775 6812 6812 6776 6813 6813 6777 6814 6792 6828 6814 6792 6815 6828 6815 6779 6816 6817 6816 6780 6781 6818 6817 6782 6819 6818 6820 6819 6783 6820 6793 6829 6829 6793 6821 6785 6822 6821 6794 6830 6822 6825 6788 6795 6823 6831 6795 6796 6797 6832 6796 6832 6823 6798 6833 6797 6834 6798 6799 6799 6800 6835 6800 6824 6836 6801 6802 6837 6824 6801 6837 6803 6838 6802 6794 6825 6830 6839 6826 6804 6839 6804 6805 6806 6840 6805 6841 6806 6807 6842 6807 6827 6808 6809 6843 6808 6843 6827 6810 6844 6809 6811 6845 6810 6811 6812 6846 6847 6812 6813 6848 6813 6814 6828 6849 6814 6815 6850 6828 6815 6816 6850 6851 6816 6817 6818 6852 6817 6819 6853 6818 6820 6854 6819 6855 6820 6829 6856 6829 6821 6822 6856 6821 6830 6857 6822 6831 6825 6795 6823 6858 6831 6797 6833 6832 6823 6832 6858 6834 6833 6798 6834 6799 6835 6800 6836 6835 6836 6824 6859 6837 6802 6860 6824 6837 6859 6802 6838 6860 6830 6825 6861 6840 6839 6805 6841 6840 6806 6862 6841 6807 6842 6862 6807 6863 6842 6827 6809 6844 6843 6843 6863 6827 6810 6845 6844 6811 6846 6845 6846 6812 6847 6848 6847 6813 6849 6848 6814 6864 6849 6828 6850 6864 6828 6850 6816 6851 6852 6851 6817 6853 6852 6818 6819 6854 6853 6855 6854 6820 6865 6855 6829 6856 6865 6829 6822 6857 6856 6830 6866 6857 6861 6825 6831 6858 6867 6831 6833 6868 6832 6832 6868 6858 6869 6833 6834 6870 6834 6835 6835 6836 6871 6872 6836 6859 6873 6837 6860 6837 6873 6859 6838 6874 6860 6830 6861 6866 6875 6862 6842 6875 6842 6863 6843 6844 6876 6843 6876 6863 6844 6845 6877 6845 6846 6878 6846 6847 6879 6880 6847 6848 6881 6848 6849 6849 6864 6882 6850 6883 6864 6850 6851 6883 6884 6851 6852 6852 6853 6885 6854 6886 6853 6855 6887 6854 6865 6888 6855 6889 6865 6856 6857 6889 6856 6857 6866 6890 6867 6861 6831 6891 6867 6858 6869 6868 6833 6868 6891 6858 6869 6834 6870 6870 6835 6871 6836 6872 6871 6873 6872 6859 6874 6873 6860 6866 6861 6892 6893 6875 6863 6876 6844 6877 6876 6893 6863 6845 6878 6877 6846 6879 6878 6879 6847 6880 6880 6848 6881 6881 6849 6882 6864 6894 6882 6864 6883 6894 6883 6851 6884 6884 6852 6885 6853 6886 6885 6854 6887 6886 6855 6888 6887 6865 6895 6888 6889 6895 6865 6857 6890 6889 6890 6866 6896 6892 6861 6867 6897 6867 6891 6898 6868 6869 6898 6891 6868 6869 6870 6899 6900 6870 6871 6872 6901 6871 6873 6902 6872 6874 6903 6873 6866 6892 6896 6904 6876 6877 6905 6893 6876 6878 6904 6877 6879 6906 6878 6879 6880 6907 6880 6881 6908 6881 6882 6909 6882 6894 6910 6883 6911 6894 6883 6884 6911 6912 6884 6885 6886 6913 6885 6886 6887 6914 6887 6888 6915 6888 6895 6916 6889 6917 6895 6889 6890 6917 6890 6896 6918 6892 6867 6897 6897 6891 6919 6898 6869 6899 6919 6891 6898 6870 6900 6899 6900 6871 6920 6902 6901 6872 6871 6901 6920 6873 6903 6902 6892 6921 6896 6904 6905 6876 6906 6904 6878 6906 6879 6907 6880 6922 6907 6922 6880 6908 6881 6909 6908 6882 6910 6909 6894 6923 6910 6911 6923 6894 6911 6884 6912 6913 6912 6885 6886 6914 6913 6887 6915 6914 6915 6888 6916 6895 6924 6916 6895 6917 6924 6917 6890 6918 6918 6896 6925 6892 6897 6921 6897 6919 6926 6927 6898 6899 6919 6898 6927 6900 6928 6899 6929 6900 6920 6902 6930 6901 6901 6931 6920 6903 6932 6902 6896 6921 6925 6933 6905 6904 6933 6904 6906 6934 6906 6907 6922 6935 6907 6936 6922 6908 6909 6936 6908 6910 6937 6909 6923 6938 6910 6911 6939 6923 6911 6912 6939 6940 6912 6913 6914 6941 6913 6915 6942 6914 6915 6916 6943 6916 6924 6944 6924 6917 6945 6945 6917 6918 6946 6918 6925 6897 6926 6921 6926 6919 6947 6928 6927 6899 6947 6919 6927 6929 6928 6900 6931 6929 6920 6932 6930 6902 6901 6930 6931 6921 6948 6925 6934 6933 6906 6935 6934 6907 6949 6935 6922 6949 6922 6936 6937 6936 6909 6938 6937 6910 6923 6950 6938 6923 6939 6950 6939 6912 6940 6941 6940 6913 6942 6941 6914 6915 6943 6942 6943 6916 6944 6924 6951 6944 6924 6945 6951 6946 6945 6918 6946 6925 6952 6926 6948 6921 6926 6947 6953 6928 6954 6927 6954 6947 6927 6929 6955 6928 6956 6929 6931 6932 6957 6930 6930 6958 6931 6925 6948 6952 6959 6949 6936 6937 6959 6936 6960 6937 6938 6938 6950 6961 6950 6939 6962 6939 6940 6962 6940 6941 6963 6942 6964 6941 6942 6943 6965 6966 6943 6944 6951 6967 6944 6951 6945 6968 6968 6945 6946 6969 6946 6952 6926 6953 6948 6953 6947 6970 6955 6954 6928 6970 6947 6954 6956 6955 6929 6958 6956 6931 6930 6957 6958 6948 6971 6952 6960 6959 6937 6972 6960 6938 6950 6973 6961 6972 6938 6961 6973 6950 6962 6940 6963 6962 6941 6964 6963 6942 6965 6964 6943 6966 6965 6967 6966 6944 6951 6974 6967 6951 6968 6974 6968 6946 6969 6975 6969 6952 6948 6953 6971 6953 6970 6976 6954 6955 6977 6970 6954 6977 6956 6978 6955 6979 6956 6958 6957 6980 6958 6971 6975 6952 6973 6981 6961 6981 6972 6961 6963 6973 6962 6963 6964 6982 6964 6965 6983 6965 6966 6984 6967 6985 6966 6967 6974 6986 6974 6968 6987 6968 6969 6987 6988 6969 6975 6953 6976 6971 6976 6970 6989 6955 6978 6977 6989 6970 6977 6979 6978 6956 6980 6979 6958 6971 6990 6975 6991 6981 6973 6973 6963 6992 6964 6983 6982 6992 6963 6982 6965 6984 6983 6966 6985 6984 6967 6986 6985 6986 6974 6993 6993 6974 6987 6969 6988 6987 6994 6988 6975 6976 6990 6971 6976 6989 6995 6978 6996 6977 6996 6989 6977 6979 6997 6978 6980 6998 6979 6990 6994 6975 6991 6973 6992 6983 6999 6982 6999 6992 6982 6984 7000 6983 6985 7001 6984 6985 6986 7002 6986 6993 7003 7004 6993 6987 6988 7004 6987 6994 7005 6988 6976 6995 6990 6995 6989 7006 6997 6996 6978 7006 6989 6996 6997 6979 7007 6979 6998 7007 6990 7008 6994 7009 6991 6992 7000 6999 6983 6999 7009 6992 7001 7000 6984 7001 6985 7010 7002 6986 7003 6985 7002 7010 7003 6993 7011 6993 7004 7011 6988 7005 7004 6994 7012 7005 6990 6995 7008 6995 7006 7013 7014 6996 6997 7006 6996 7014 7015 6997 7007 6998 7016 7007 6994 7008 7012 7017 6999 7000 7017 7009 6999 7001 7018 7000 7019 7001 7010 7002 7003 7020 7002 7021 7010 7022 7003 7011 7004 7023 7011 7005 7023 7004 7005 7012 7024 7008 6995 7013 7013 7006 7025 7014 6997 7015 7006 7014 7025 7016 7015 7007 7012 7008 7026 7018 7017 7000 7019 7018 7001 7021 7019 7010 7021 7002 7020 7003 7022 7020 7027 7022 7011 7023 7027 7011 7005 7024 7023 7024 7012 7028 7026 7008 7013 7029 7013 7025 7030 7014 7015 7014 7030 7025 7016 7031 7015 7012 7026 7028 7032 7021 7020 7022 7032 7020 7033 7022 7027 7023 7034 7027 7023 7024 7034 7024 7028 7035 7026 7013 7036 7013 7029 7036 7030 7029 7025 7031 7030 7015 7028 7026 7037 7033 7032 7022 7038 7033 7027 7034 7038 7027 7034 7024 7035 7028 7039 7035 7037 7026 7036 7029 7040 7036 7030 7041 7029 7031 7042 7030 7039 7028 7037 7043 7038 7034 7044 7034 7035 7039 7044 7035 7040 7037 7036 7029 7041 7040 7030 7042 7041 7045 7039 7037 7044 7043 7034 7046 7044 7039 7040 7045 7037 7041 7047 7040 7042 7048 7041 7045 7046 7039 7049 7043 7044 7049 7044 7046 7040 7047 7045 7048 7047 7041 7045 7050 7046 7051 7049 7046 7045 7047 7052 7048 7053 7047 7050 7045 7052 7050 7051 7046 7047 7053 7052 7050 7052 7054 7055 7051 7050 7053 7056 7052 7055 7050 7054 7052 7056 7054 7057 7055 7054 7056 7057 7054 </DataArray>
        <DataArray type="Int32" Name="offsets" format="ascii">3 6 9 12 15 18 21 24 27 30 33 36 39 42 45 48 51 54 57 60 63 66 69 72 75 78 81 84 87 90 93 96 99 102 105 108 111 114 117 120 123 126 129 132 135 138 141 144 147 150 153 156 159 162 165 168 171 174 177 180 183 186 189 192 195 198 201 204 207 210 213 216 219 222 225 228 231 234 237 240 243 246 249 252 255 258 261 264 267 270 273 276 279 282 285 288 291 294 297 300 303 306 309 312 315 318 321 324 327 330 333 336 339 342 345 348 351 354 357 360 363 366 369 372 375 378 381 384 387 390 393 396 399 402 405 408 411 414 417 420 423 426 429 432 435 438 441 444 447 450 453 456 459 462 465 468 471 474 477 480 483 486 489 492 495 498 501 504 507 510 513 516 519 522 525 528 531 534 537 540 543 546 549 552 555 558 561 564 567 570 573 576 579 582 585 588 591 594 597 600 603 606 609 612 615 618 621 624 627 630 633 636 639 642 645 648 651 654 657 660 663 666 669 672 675 678 681 684 687 690 693 696 699 702 705 708 711 714 717 720 723 726 729 732 735 738 741 744 747 750 753 756 759 762 765 768 771 774 777 780 783 786 789 792 795 798 801 804 807 810 813 816 819 822 825 828 831 834 837 840 843 846 849 852 855 858 861 864 867 870 873 876 879 882 885 888 891 894 897 900 903 906 909 912 915 918 921 924 927 930 933 936 939 942 945 948 951 954 957 960 963 966 969 972 975 978 981 984 987 990 993 996 999 1002 1005 1008 1011 1014 1017 1020 1023 1026 1029 1032 1035 1038 1041 1044 1047 1050 1053 1056 1059 1062 1065 1068 1071 1074 1077 1080 1083 1086 1089 1092 1095 1098 1101 1104 1107 1110 1113 1116 1119 1122 1125 1128 1131 1134 1137 1140 1143 1146 1149 1152 1155 1158 1161 1164 1167 1170 1173 1176 1179 1182 1185 1188 1191 1194 1197 1200 1203 1206 1209 1212 1215 1218 1221 1224 1227 1230 1233 1236 1239 1242 1245 1248 1251 1254 1257 1260 1263 1266 1269 1272 1275 1278 1281 1284 1287 1290 1293 1296 1299 1302 1305 1308 1311 1314 1317 1320 1323 1326 1329 1332 1335 1338 1341 1344 1347 1350 1353 1356 1359 1362 1365 1368 1371 1374 1377 1380 1383 1386 1389 1392 1395 1398 1401 1404 1407 1410 1413 1416 1419 1422 1425 1428 1431 1434 1437 1440 1443 1446 1449 1452 1455 1458 1461 1464 1467 1470 1473 1476 1479 1482 1485 1488 1491 1494 1497 1500 1503 1506 1509 1512 1515 1518 1521 1524 1527 1530 1533 1536 1539 1542 1545 1548 1551 1554 1557 1560 1563 1566 1569 1572 1575 1578 1581 1584 1587 1590 1593 1596 1599 1602 1605 1608 1611 1614 1617 1620 1623 1626 1629 1632 1635 1638 1641 1644 1647 1650 1653 1656 1659 1662 1665 1668 1671 1674 1677 1680 1683 1686 1689 1692 1695 1698 1701 1704 1707 1710 1713 1716 1719 1722 1725 1728 1731 1734 1737 1740 1743 1746 1749 1752 1755 1758 1761 1764 1767 1770 1773 1776 1779 1782 1785 1788 1791 1794 1797 1800 1803 1806 1809 1812 1815 1818 1821 1824 1827 1830 1833 1836 1839 1842 1845 1848 1851 1854 1857 1860 1863 1866 1869 1872 1875 1878 1881 1884 1887 1890 1893 1896 1899 1902 1905 1908 1911 1914 1917 1920 1923 1926 1929 1932 1935 1938 1941 1944 1947 1950 1953 1956 1959 1962 1965 1968 1971 1974 1977 1980 1983 1986 1989 1992 1995 1998 2001 2004 2007 2010 2013 2016 2019 2022 2025 2028 2031 2034 2037 2040 2043 2046 2049 2052 2055 2058 2061 2064 2067 2070 2073 2076 2079 2082 2085 2088 2091 2094 2097 2100 2103 2106 2109 2112 2115 2118 2121 2124 2127 2130 2133 2136 2139 2142 2145 2148 2151 2154 2157 2160 2163 2166 2169 2172 2175 2178 2181 2184 2187 2190 2193 2196 2199 2202 2205 2208 2211 2214 2217 2220 2223 2226 2229 2232 2235 2238 2241 2244 2247 2250 2253 2256 2259 2262 2265 2268 2271 2274 2277 2280 2283 2286 2289 2292 2295 2298 2301 2304 2307 2310 2313 2316 2319 2322 2325 2328 2331 2334 2337 2340 2343 2346 2349 2352 2355 2358 2361 2364 2367 2370 2373 2376 2379 2382 2385 2388 2391 2394 2397 2400 2403 2406 2409 2412 2415 2418 2421 2424 2427 2430 2433 2436 2439 2442 2445 2448 2451 2454 2457 2460 2463 2466 2469 2472 2475 2478 2481 2484 2487 2490 2493 2496 2499 2502 2505 2508 2511 2514 2517 2520 2523 2526 2529 2532 2535 2538 2541 2544 2547 2550 2553 2556 2559 2562 2565 2568 2571 2574 2577 2580 2583 2586 2589 2592 2595 2598 2601 2604 2607 2610 2613 2616 2619 2622 2625 2628 2631 2634 2637 2640 2643 2646 2649 2652 2655 2658 2661 2664 2667 2670 2673 2676 2679 2682 2685 2688 2691 2694 2697 2700 2703 2706 2709 2712 2715 2718 2721 2724 2727 2730 2733 2736 2739 2742 2745 2748 2751 2754 2757 2760 2763 2766 2769 2772 2775 2778 2781 2784 2787 2790 2793 2796 2799 2802 2805 2808 2811 2814 2817 2820 2823 2826 2829 2832 2835 2838 2841 2844 2847 2850 2853 2856 2859 2862 2865 2868 2871 2874 2877 2880 2883 2886 2889 2892 2895 2898 2901 2904 2907 2910 2913 2916 2919 2922 2925 2928 2931 2934 2937 2940 2943 2946 2949 2952 2955 2958 2961 2964 2967 2970 2973 2976 2979 2982 2985 2988 2991 2994 2997 3000 3003 3006 3009 3012 3015 3018 3021 3024 3027 3030 3033 3036 3039 3042 3045 3048 3051 3054 3057 3060 3063 3066 3069 3072 3075 3078 3081 3084 3087 3090 3093 3096 3099 3102 3105 3108 3111 3114 3117 3120 3123 3126 3129 3132 3135 3138 3141 3144 3147 3150 3153 3156 3159 3162 3165 3168 3171 3174 3177 3180 3183 3186 3189 3192 3195 3198 3201 3204 3207 3210 3213 3216 3219 3222 3225 3228 3231 3234 3237 3240 3243 3246 3249 3252 3255 3258 3261 3264 3267 3270 3273 3276 3279 3282 3285 3288 3291 3294 3297 3300 3303 3306 3309 3312 3315 3318 3321 3324 3327 3330 3333 3336 3339 3342 3345 3348 3351 3354 3357 3360 3363 3366 3369 3372 3375 3378 3381 3384 3387 3390 3393 3396 3399 3402 3405 3408 3411 3414 3417 3420 3423 3426 3429 3432 3435 3438 3441 3444 3447 3450 3453 3456 3459 3462 3465 3468 3471 3474 3477 3480 3483 3486 3489 3492 3495 3498 3501 3504 3507 3510 3513 3516 3519 3522 3525 3528 3531 3534 3537 3540 3543 3546 3549 3552 3555 3558 3561 3564 3567 3570 3573 3576 3579 3582 3585 3588 3591 3594 3597 3600 3603 3606 3609 3612 3615 3618 3621 3624 3627 3630 3633 3636 3639 3642 3645 3648 3651 3654 3657 3660 3663 3666 3669 3672 3675 3678 3681 3684 3687 3690 3693 3696 3699 3702 3705 3708 3711 3714 3717 3720 3723 3726 3729 3732 3735 3738 3741 3744 3747 3750 3753 3756 3759 3762 3765 3768 3771 3774 3777 3780 3783 3786 3789 3792 3795 3798 3801 3804 3807 3810 3813 3816 3819 3822 3825 3828 3831 3834 3837 3840 3843 3846 3849 3852 3855 3858 3861 3864 3867 3870 3873 3876 3879 3882 3885 3888 3891 3894 3897 3900 3903 3906 3909 3912 3915 3918 3921 3924 3927 3930 3933 3936 3939 3942 3945 3948 3951 3954 3957 3960 3963 3966 3969 3972 3975 3978 3981 3984 3987 3990 3993 3996 3999 4002 4005 4008 4011 4014 4017 4020 4023 4026 4029 4032 4035 4038 4041 4044 4047 4050 4053 4056 4059 4062 4065 4068 4071 4074 4077 4080 4083 4086 4089 4092 4095 4098 4101 4104 4107 4110 4113 4116 4119 4122 4125 4128 4131 4134 4137 4140 4143 4146 4149 4152 4155 4158 4161 4164 4167 4170 4173 4176 4179 4182 4185 4188 4191 4194 4197 4200 4203 4206 4209 4212 4215 4218 4221 4224 4227 4230 4233 4236 4239 4242 4245 4248 4251 4254 4257 4260 4263 4266 4269 4272 4275 4278 4281 4284 4287 4290 4293 4296 4299 4302 4305 4308 4311 4314 4317 4320 4323 4326 4329 4332 4335 4338 4341 4344 4347 4350 4353 4356 4359 4362 4365 4368 4371 4374 4377 4380 4383 4386 4389 4392 4395 4398 4401 4404 4407 4410 4413 4416 4419 4422 4425 4428 4431 4434 4437 4440 4443 4446 4449 4452 4455 4458 4461 4464 4467 4470 4473 4476 4479 4482 4485 4488 4491 4494 4497 4500 4503 4506 4509 4512 4515 4518 4521 4524 4527 4530 4533 4536 4539 4542 4545 4548 4551 4554 4557 4560 4563 4566 4569 4572 4575 4578 4581 4584 4587 4590 4593 4596 4599 4602 4605 4608 4611 4614 4617 4620 4623 4626 4629 4632 4635 4638 4641 4644 4647 4650 4653 4656 4659 4662 4665 4668 4671 4674 4677 4680 4683 4686 4689 4692 4695 4698 4701 4704 4707 4710 4713 4716 4719 4722 4725 4728 4731 4734 4737 4740 4743 4746 4749 4752 4755 4758 4761 4764 4767 4770 4773 4776 4779 4782 4785 4788 4791 4794 4797 4800 4803 4806 4809 4812 4815 4818 4821 4824 4827 4830 4833 4836 4839 4842 4845 4848 4851 4854 4857 4860 4863 4866 4869 4872 4875 4878 4881 4884 4887 4890 4893 4896 4899 4902 4905 4908 4911 4914 4917 4920 4923 4926 4929 4932 4935 4938 4941 4944 4947 4950 4953 4956 4959 4962 4965 4968 4971 4974 4977 4980 4983 4986 4989 4992 4995 4998 5001 5004 5007 5010 5013 5016 5019 5022 5025 5028 5031 5034 5037 5040 5043 5046 5049 5052 5055 5058 5061 5064 5067 5070 5073 5076 5079 5082 5085 5088 5091 5094 5097 5100 5103 5106 5109 5112 5115 5118 5121 5124 5127 5130 5133 5136 5139 5142 5145 5148 5151 5154 5157 5160 5163 5166 5169 5172 5175 5178 5181 5184 5187 5190 5193 5196 5199 5202 5205 5208 5211 5214 5217 5220 5223 5226 5229 5232 5235 5238 5241 5244 5247 5250 5253 5256 5259 5262 5265 5268 5271 5274 5277 5280 5283 5286 5289 5292 5295 5298 5301 5304 5307 5310 5313 5316 5319 5322 5325 5328 5331 5334 5337 5340 5343 5346 5349 5352 5355 5358 5361 5364 5367 5370 5373 5376 5379 5382 5385 5388 5391 5394 5397 5400 5403 5406 5409 5412 5415 5418 5421 5424 5427 5430 5433 5436 5439 5442 5445 5448 5451 5454 5457 5460 5463 5466 5469 5472 5475 5478 5481 5484 5487 5490 5493 5496 5499 5502 5505 5508 5511 5514 5517 5520 5523 5526 5529 5532 5535 5538 5541 5544 5547 5550 5553 5556 5559 5562 5565 5568 5571 5574 5577 5580 5583 5586 5589 5592 5595 5598 5601 5604 5607 5610 5613 5616 5619 5622 5625 5628 5631 5634 5637 5640 5643 5646 5649 5652 5655 5658 5661 5664 5667 5670 5673 5676 5679 5682 5685 5688 5691 5694 5697 5700 5703 5706 5709 5712 5715 5718 5721 5724 5727 5730 5733 5736 5739 5742 5745 5748 5751 5754 5757 5760 5763 5766 5769 5772 5775 5778 5781 5784 5787 5790 5793 5796 5799 5802 5805 5808 5811 5814 5817 5820 5823 5826 5829 5832 5835 5838 5841 5844 5847 5850 5853 5856 5859 5862 5865 5868 5871 5874 5877 5880 5883 5886 5889 5892 5895 5898 5901 5904 5907 5910 5913 5916 5919 5922 5925 5928 5931 5934 5937 5940 5943 5946 5949 5952 5955 5958 5961 5964 5967 5970 5973 5976 5979 5982 5985 5988 5991 5994 5997 6000 6003 6006 6009 6012 6015 6018 6021 6024 6027 6030 6033 6036 6039 6042 6045 6048 6051 6054 6057 6060 6063 6066 6069 6072 6075 6078 6081 6084 6087 6090 6093 6096 6099 6102 6105 6108 6111 6114 6117 6120 6123 6126 6129 6132 6135 6138 6141 6144 6147 6150 6153 6156 6159 6162 6165 6168 6171 6174 6177 6180 6183 6186 6189 6192 6195 6198 6201 6204 6207 6210 6213 6216 6219 6222 6225 6228 6231 6234 6237 6240 6243 6246 6249 6252 6255 6258 6261 6264 6267 6270 6273 6276 6279 6282 6285 6288 6291 6294 6297 6300 6303 6306 6309 6312 6315 6318 6321 6324 6327 6330 6333 6336 6339 6342 6345 6348 6351 6354 6357 6360 6363 6366 6369 6372 6375 6378 6381 6384 6387 6390 6393 6396 6399 6402 6405 6408 6411 6414 6417 6420 6423 6426 6429 6432 6435 6438 6441 6444 6447 6450 6453 6456 6459 6462 6465 6468 6471 6474 6477 6480 6483 6486 6489 6492 6495 6498 6501 6504 6507 6510 6513 6516 6519 6522 6525 6528 6531 6534 6537 6540 6543 6546 6549 6552 6555 6558 6561 6564 6567 6570 6573 6576 6579 6582 6585 6588 6591 6594 6597 6600 6603 6606 6609 6612 6615 6618 6621 6624 6627 6630 6633 6636 6639 6642 6645 6648 6651 6654 6657 6660 6663 6666 6669 6672 6675 6678 6681 6684 6687 6690 6693 6696 6699 6702 6705 6708 6711 6714 6717 6720 6723 6726 6729 6732 6735 6738 6741 6744 6747 6750 6753 6756 6759 6762 6765 6768 6771 6774 6777 6780 6783 6786 6789 6792 6795 6798 6801 6804 6807 6810 6813 6816 6819 6822 6825 6828 6831 6834 6837 6840 6843 6846 6849 6852 6855 6858 6861 6864 6867 6870 6873 6876 6879 6882 6885 6888 6891 6894 6897 6900 6903 6906 6909 6912 6915 6918 6921 6924 6927 6930 6933 6936 6939 6942 6945 6948 6951 6954 6957 6960 6963 6966 6969 6972 6975 6978 6981 6984 6987 6990 6993 6996 6999 7002 7005 7008 7011 7014 7017 7020 7023 7026 7029 7032 7035 7038 7041 7044 7047 7050 7053 7056 7059 7062 7065 7068 7071 7074 7077 7080 7083 7086 7089 7092 7095 7098 7101 7104 7107 7110 7113 7116 7119 7122 7125 7128 7131 7134 7137 7140 7143 7146 7149 7152 7155 7158 7161 7164 7167 7170 7173 7176 7179 7182 7185 7188 7191 7194 7197 7200 7203 7206 7209 7212 7215 7218 7221 7224 7227 7230 7233 7236 7239 7242 7245 7248 7251 7254 7257 7260 7263 7266 7269 7272 7275 7278 7281 7284 7287 7290 7293 7296 7299 7302 7305 7308 7311 7314 7317 7320 7323 7326 7329 7332 7335 7338 7341 7344 7347 7350 7353 7356 7359 7362 7365 7368 7371 7374 7377 7380 7383 7386 7389 7392 7395 7398 7401 7404 7407 7410 7413 7416 7419 7422 7425 7428 7431 7434 7437 7440 7443 7446 7449 7452 7455 7458 7461 7464 7467 7470 7473 7476 7479 7482 7485 7488 7491 7494 7497 7500 7503 7506 7509 7512 7515 7518 7521 7524 7527 7530 7533 7536 7539 7542 7545 7548 7551 7554 7557 7560 7563 7566 7569 7572 7575 7578 7581 7584 7587 7590 7593 7596 7599 7602 7605 7608 7611 7614 7617 7620 7623 7626 7629 7632 7635 7638 7641 7644 7647 7650 7653 7656 7659 7662 7665 7668 7671 7674 7677 7680 7683 7686 7689 7692 7695 7698 7701 7704 7707 7710 7713 7716 7719 7722 7725 7728 7731 7734 7737 7740 7743 7746 7749 7752 7755 7758 7761 7764 7767 7770 7773 7776 7779 7782 7785 7788 7791 7794 7797 7800 7803 7806 7809 7812 7815 7818 7821 7824 7827 7830 7833 7836 7839 7842 7845 7848 7851 7854 7857 7860 7863 7866 7869 7872 7875 7878 7881 7884 7887 7890 7893 7896 7899 7902 7905 7908 7911 7914 7917 7920 7923 7926 7929 7932 7935 7938 7941 7944 7947 7950 7953 7956 7959 7962 7965 7968 7971 7974 7977 7980 7983 7986 7989 7992 7995 7998 8001 8004 8007 8010 8013 8016 8019 8022 8025 8028 8031 8034 8037 8040 8043 8046 8049 8052 8055 8058 8061 8064 8067 8070 8073 8076 8079 8082 8085 8088 8091 8094 8097 8100 8103 8106 8109 8112 8115 8118 8121 8124 8127 8130 8133 8136 8139 8142 8145 8148 8151 8154 8157 8160 8163 8166 8169 8172 8175 8178 8181 8184 8187 8190 8193 8196 8199 8202 8205 8208 8211 8214 8217 8220 8223 8226 8229 8232 8235 8238 8241 8244 8247 8250 8253 8256 8259 8262 8265 8268 8271 8274 8277 8280 8283 8286 8289 8292 8295 8298 8301 8304 8307 8310 8313 8316 8319 8322 8325 8328 8331 8334 8337 8340 8343 8346 8349 8352 8355 8358 8361 8364 8367 8370 8373 8376 8379 8382 8385 8388 8391 8394 8397 8400 8403 8406 8409 8412 8415 8418 8421 8424 8427 8430 8433 8436 8439 8442 8445 8448 8451 8454 8457 8460 8463 8466 8469 8472 8475 8478 8481 8484 8487 8490 8493 8496 8499 8502 8505 8508 8511 8514 8517 8520 8523 8526 8529 8532 8535 8538 8541 8544 8547 8550 8553 8556 8559 8562 8565 8568 8571 8574 8577 8580 8583 8586 8589 8592 8595 8598 8601 8604 8607 8610 8613 8616 8619 8622 8625 8628 8631 8634 8637 8640 8643 8646 8649 8652 8655 8658 8661 8664 8667 8670 8673 8676 8679 8682 8685 8688 8691 8694 8697 8700 8703 8706 8709 8712 8715 8718 8721 8724 8727 8730 8733 8736 8739 8742 8745 8748 8751 8754 8757 8760 8763 8766 8769 8772 8775 8778 8781 8784 8787 8790 8793 8796 8799 8802 8805 8808 8811 8814 8817 8820 8823 8826 8829 8832 8835 8838 8841 8844 8847 8850 8853 8856 8859 8862 8865 8868 8871 8874 8877 8880 8883 8886 8889 8892 8895 8898 8901 8904 8907 8910 8913 8916 8919 8922 8925 8928 8931 8934 8937 8940 8943 8946 8949 8952 8955 8958 8961 8964 8967 8970 8973 8976 8979 8982 8985 8988 8991 8994 8997 9000 9003 9006 9009 9012 9015 9018 9021 9024 9027 9030 9033 9036 9039 9042 9045 9048 9051 9054 9057 9060 9063 9066 9069 9072 9075 9078 9081 9084 9087 9090 9093 9096 9099 9102 9105 9108 9111 9114 9117 9120 9123 9126 9129 9132 9135 9138 9141 9144 9147 9150 9153 9156 9159 9162 9165 9168 9171 9174 9177 9180 9183 9186 9189 9192 9195 9198 9201 9204 9207 9210 9213 9216 9219 9222 9225 9228 9231 9234 9237 9240 9243 9246 9249 9252 9255 9258 9261 9264 9267 9270 9273 9276 9279 9282 9285 9288 9291 9294 9297 9300 9303 9306 9309 9312 9315 9318 9321 9324 9327 9330 9333 9336 9339 9342 9345 9348 9351 9354 9357 9360 9363 9366 9369 9372 9375 9378 9381 9384 9387 9390 9393 9396 9399 9402 9405 9408 9411 9414 9417 9420 9423 9426 9429 9432 9435 9438 9441 9444 9447 9450 9453 9456 9459 9462 9465 9468 9471 9474 9477 9480 9483 9486 9489 9492 9495 9498 9501 9504 9507 9510 9513 9516 9519 9522 9525 9528 9531 9534 9537 9540 9543 9546 9549 9552 9555 9558 9561 9564 9567 9570 9573 9576 9579 9582 9585 9588 9591 9594 9597 9600 9603 9606 9609 9612 9615 9618 9621 9624 9627 9630 9633 9636 9639 9642 9645 9648 9651 9654 9657 9660 9663 9666 9669 9672 9675 9678 9681 9684 9687 9690 9693 9696 9699 9702 9705 9708 9711 9714 9717 9720 9723 9726 9729 9732 9735 9738 9741 9744 9747 9750 9753 9756 9759 9762 9765 9768 9771 9774 9777 9780 9783 9786 9789 9792 9795 9798 9801 9804 9807 9810 9813 9816 9819 9822 9825 9828 9831 9834 9837 9840 9843 9846 9849 9852 9855 9858 9861 9864 9867 9870 9873 9876 9879 9882 9885 9888 9891 9894 9897 9900 9903 9906 9909 9912 9915 9918 9921 9924 9927 9930 9933 9936 9939 9942 9945 9948 9951 9954 9957 9960 9963 9966 9969 9972 9975 9978 9981 9984 9987 9990 9993 9996 9999 10002 10005 10008 10011 10014 10017 10020 10023 10026 10029 10032 10035 10038 10041 10044 10047 10050 10053 10056 10059 10062 10065 10068 10071 10074 10077 10080 10083 10086 10089 10092 10095 10098 10101 10104 10107 10110 10113 10116 10119 10122 10125 10128 10131 10134 10137 10140 10143 10146 10149 10152 10155 10158 10161 10164 10167 10170 10173 10176 10179 10182 10185 10188 10191 10194 10197 10200 10203 10206 10209 10212 10215 10218 10221 10224 10227 10230 10233 10236 10239 10242 10245 10248 10251 10254 10257 10260 10263 10266 10269 10272 10275 10278 10281 10284 10287 10290 10293 10296 10299 10302 10305 10308 10311 10314 10317 10320 10323 10326 10329 10332 10335 10338 10341 10344 10347 10350 10353 10356 10359 10362 10365 10368 10371 10374 10377 10380 10383 10386 10389 10392 10395 10398 10401 10404 10407 10410 10413 10416 10419 10422 10425 10428 10431 10434 10437 10440 10443 10446 10449 10452 10455 10458 10461 10464 10467 10470 10473 10476 10479 10482 10485 10488 10491 10494 10497 10500 10503 10506 10509 10512 10515 10518 10521 10524 10527 10530 10533 10536 10539 10542 10545 10548 10551 10554 10557 10560 10563 10566 10569 10572 10575 10578 10581 10584 10587 10590 10593 10596 10599 10602 10605 10608 10611 10614 10617 10620 10623 10626 10629 10632 10635 10638 10641 10644 10647 10650 10653 10656 10659 10662 10665 10668 10671 10674 10677 10680 10683 10686 10689 10692 10695 10698 10701 10704 10707 10710 10713 10716 10719 10722 10725 10728 10731 10734 10737 10740 10743 10746 10749 10752 10755 10758 10761 10764 10767 10770 10773 10776 10779 10782 10785 10788 10791 10794 10797 10800 10803 10806 10809 10812 10815 10818 10821 10824 10827 10830 10833 10836 10839 10842 10845 10848 10851 10854 10857 10860 10863 10866 10869 10872 10875 10878 10881 10884 10887 10890 10893 10896 10899 10902 10905 10908 10911 10914 10917 10920 10923 10926 10929 10932 10935 10938 10941 10944 10947 10950 10953 10956 10959 10962 10965 10968 10971 10974 10977 10980 10983 10986 10989 10992 10995 10998 11001 11004 11007 11010 11013 11016 11019 11022 11025 11028 11031 11034 11037 11040 11043 11046 11049 11052 11055 11058 11061 11064 11067 11070 11073 11076 11079 11082 11085 11088 11091 11094 11097 11100 11103 11106 11109 11112 11115 11118 11121 11124 11127 11130 11133 11136 11139 11142 11145 11148 11151 11154 11157 11160 11163 11166 11169 11172 11175 11178 11181 11184 11187 11190 11193 11196 11199 11202 11205 11208 11211 11214 11217 11220 11223 11226 11229 11232 11235 11238 11241 11244 11247 11250 11253 11256 11259 11262 11265 11268 11271 11274 11277 11280 11283 11286 11289 11292 11295 11298 11301 11304 11307 11310 11313 11316 11319 11322 11325 11328 11331 11334 11337 11340 11343 11346 11349 11352 11355 11358 11361 11364 11367 11370 11373 11376 11379 11382 11385 11388 11391 11394 11397 11400 11403 11406 11409 11412 11415 11418 11421 11424 11427 11430 11433 11436 11439 11442 11445 11448 11451 11454 11457 11460 11463 11466 11469 11472 11475 11478 11481 11484 11487 11490 11493 11496 11499 11502 11505 11508 11511 11514 11517 11520 11523 11526 11529 11532 11535 11538 11541 11544 11547 11550 11553 11556 11559 11562 11565 11568 11571 11574 11577 11580 11583 11586 11589 11592 11595 11598 11601 11604 11607 11610 11613 11616 11619 11622 11625 11628 11631 11634 11637 11640 11643 11646 11649 11652 11655 11658 11661 11664 11667 11670 11673 11676 11679 11682 11685 11688 11691 11694 11697 11700 11703 11706 11709 11712 11715 11718 11721 11724 11727 11730 11733 11736 11739 11742 11745 11748 11751 11754 11757 11760 11763 11766 11769 11772 11775 11778 11781 11784 11787 11790 11793 11796 11799 11802 11805 11808 11811 11814 11817 11820 11823 11826 11829 11832 11835 11838 11841 11844 11847 11850 11853 11856 11859 11862 11865 11868 11871 11874 11877 11880 11883 11886 11889 11892 11895 11898 11901 11904 11907 11910 11913 11916 11919 11922 11925 11928 11931 11934 11937 11940 11943 11946 11949 11952 11955 11958 11961 11964 11967 11970 11973 11976 11979 11982 11985 11988 11991 11994 11997 12000 12003 12006 12009 12012 12015 12018 12021 12024 12027 12030 12033 12036 12039 12042 12045 12048 12051 12054 12057 12060 12063 12066 12069 12072 12075 12078 12081 12084 12087 12090 12093 12096 12099 12102 12105 12108 12111 12114 12117 12120 12123 12126 12129 12132 12135 12138 12141 12144 12147 12150 12153 12156 12159 12162 12165 12168 12171 12174 12177 12180 12183 12186 12189 12192 12195 12198 12201 12204 12207 12210 12213 12216 12219 12222 12225 12228 12231 12234 12237 12240 12243 12246 12249 12252 12255 12258 12261 12264 12267 12270 12273 12276 12279 12282 12285 12288 12291 12294 12297 12300 12303 12306 12309 12312 12315 12318 12321 12324 12327 12330 12333 12336 12339 12342 12345 12348 12351 12354 12357 12360 12363 12366 12369 12372 12375 12378 12381 12384 12387 12390 12393 12396 12399 12402 12405 12408 12411 12414 12417 12420 12423 12426 12429 12432 12435 12438 12441 12444 12447 12450 12453 12456 12459 12462 12465 12468 12471 12474 12477 12480 12483 12486 12489 12492 12495 12498 12501 12504 12507 12510 12513 12516 12519 12522 12525 12528 12531 12534 12537 12540 12543 12546 12549 12552 12555 12558 12561 12564 12567 12570 12573 12576 12579 12582 12585 12588 12591 12594 12597 12600 12603 12606 12609 12612 12615 12618 12621 12624 12627 12630 12633 12636 12639 12642 12645 12648 12651 12654 12657 12660 12663 12666 12669 12672 12675 12678 12681 12684 12687 12690 12693 12696 12699 12702 12705 12708 12711 12714 12717 12720 12723 12726 12729 12732 12735 12738 12741 12744 12747 12750 12753 12756 12759 12762 12765 12768 12771 12774 12777 12780 12783 12786 12789 12792 12795 12798 12801 12804 12807 12810 12813 12816 12819 12822 12825 12828 12831 12834 12837 12840 12843 12846 12849 12852 12855 12858 12861 12864 12867 12870 12873 12876 12879 12882 12885 12888 12891 12894 12897 12900 12903 12906 12909 12912 12915 12918 12921 12924 12927 12930 12933 12936 12939 12942 12945 12948 12951 12954 12957 12960 12963 12966 12969 12972 12975 12978 12981 12984 12987 12990 12993 12996 12999 13002 13005 13008 13011 13014 13017 13020 13023 13026 13029 13032 13035 13038 13041 13044 13047 13050 13053 13056 13059 13062 13065 13068 13071 13074 13077 13080 13083 13086 13089 13092 13095 13098 13101 13104 13107 13110 13113 13116 13119 13122 13125 13128 13131 13134 13137 13140 13143 13146 13149 13152 13155 13158 13161 13164 13167 13170 13173 13176 13179 13182 13185 13188 13191 13194 13197 13200 13203 13206 13209 13212 13215 13218 13221 13224 13227 13230 13233 13236 13239 13242 13245 13248 13251 13254 13257 13260 13263 13266 13269 13272 13275 13278 13281 13284 13287 13290 13293 13296 13299 13302 13305 13308 13311 13314 13317 13320 13323 13326 13329 13332 13335 13338 13341 13344 13347 13350 13353 13356 13359 13362 13365 13368 13371 13374 13377 13380 13383 13386 13389 13392 13395 13398 13401 13404 13407 13410 13413 13416 13419 13422 13425 13428 13431 13434 13437 13440 13443 13446 13449 13452 13455 13458 13461 13464 13467 13470 13473 13476 13479 13482 13485 13488 13491 13494 13497 13500 13503 13506 13509 13512 13515 13518 13521 13524 13527 13530 13533 13536 13539 13542 13545 13548 13551 13554 13557 13560 13563 13566 13569 13572 13575 13578 13581 13584 13587 13590 13593 13596 13599 13602 13605 13608 13611 13614 13617 13620 13623 13626 13629 13632 13635 13638 13641 13644 13647 13650 13653 13656 13659 13662 13665 13668 13671 13674 13677 13680 13683 13686 13689 13692 13695 13698 13701 13704 13707 13710 13713 13716 13719 13722 13725 13728 13731 13734 13737 13740 13743 13746 13749 13752 13755 13758 13761 13764 13767 13770 13773 13776 13779 13782 13785 13788 13791 13794 13797 13800 13803 13806 13809 13812 13815 13818 13821 13824 13827 13830 13833 13836 13839 13842 13845 13848 13851 13854 13857 13860 13863 13866 13869 13872 13875 13878 13881 13884 13887 13890 13893 13896 13899 13902 13905 13908 13911 13914 13917 13920 13923 13926 13929 13932 13935 13938 13941 13944 13947 13950 13953 13956 13959 13962 13965 13968 13971 13974 13977 13980 13983 13986 13989 13992 13995 13998 14001 14004 14007 14010 14013 14016 14019 14022 14025 14028 14031 14034 14037 14040 14043 14046 14049 14052 14055 14058 14061 14064 14067 14070 14073 14076 14079 14082 14085 14088 14091 14094 14097 14100 14103 14106 14109 14112 14115 14118 14121 14124 14127 14130 14133 14136 14139 14142 14145 14148 14151 14154 14157 14160 14163 14166 14169 14172 14175 14178 14181 14184 14187 14190 14193 14196 14199 14202 14205 14208 14211 14214 14217 14220 14223 14226 14229 14232 14235 14238 14241 14244 14247 14250 14253 14256 14259 14262 14265 14268 14271 14274 14277 14280 14283 14286 14289 14292 14295 14298 14301 14304 14307 14310 14313 14316 14319 14322 14325 14328 14331 14334 14337 14340 14343 14346 14349 14352 14355 14358 14361 14364 14367 14370 14373 14376 14379 14382 14385 14388 14391 14394 14397 14400 14403 14406 14409 14412 14415 14418 14421 14424 14427 14430 14433 14436 14439 14442 14445 14448 14451 14454 14457 14460 14463 14466 14469 14472 14475 14478 14481 14484 14487 14490 14493 14496 14499 14502 14505 14508 14511 14514 14517 14520 14523 14526 14529 14532 14535 14538 14541 14544 14547 14550 14553 14556 14559 14562 14565 14568 14571 14574 14577 14580 14583 14586 14589 14592 14595 14598 14601 14604 14607 14610 14613 14616 14619 14622 14625 14628 14631 14634 14637 14640 14643 14646 14649 14652 14655 14658 14661 14664 14667 14670 14673 14676 14679 14682 14685 14688 14691 14694 14697 14700 14703 14706 14709 14712 14715 14718 14721 14724 14727 14730 14733 14736 14739 14742 14745 14748 14751 14754 14757 14760 14763 14766 14769 14772 14775 14778 14781 14784 14787 14790 14793 14796 14799 14802 14805 14808 14811 14814 14817 14820 14823 14826 14829 14832 14835 14838 14841 14844 14847 14850 14853 14856 14859 14862 14865 14868 14871 14874 14877 14880 14883 14886 14889 14892 14895 14898 14901 14904 14907 14910 14913 14916 14919 14922 14925 14928 14931 14934 14937 14940 14943 14946 14949 14952 14955 14958 14961 14964 14967 14970 14973 14976 14979 14982 14985 14988 14991 14994 14997 15000 15003 15006 15009 15012 15015 15018 15021 15024 15027 15030 15033 15036 15039 15042 15045 15048 15051 15054 15057 15060 15063 15066 15069 15072 15075 15078 15081 15084 15087 15090 15093 15096 15099 15102 15105 15108 15111 15114 15117 15120 15123 15126 15129 15132 15135 15138 15141 15144 15147 15150 15153 15156 15159 15162 15165 15168 15171 15174 15177 15180 15183 15186 15189 15192 15195 15198 15201 15204 15207 15210 15213 15216 15219 15222 15225 15228 15231 15234 15237 15240 15243 15246 15249 15252 15255 15258 15261 15264 15267 15270 15273 15276 15279 15282 15285 15288 15291 15294 15297 15300 15303 15306 15309 15312 15315 15318 15321 15324 15327 15330 15333 15336 15339 15342 15345 15348 15351 15354 15357 15360 15363 15366 15369 15372 15375 15378 15381 15384 15387 15390 15393 15396 15399 15402 15405 15408 15411 15414 15417 15420 15423 15426 15429 15432 15435 15438 15441 15444 15447 15450 15453 15456 15459 15462 15465 15468 15471 15474 15477 15480 15483 15486 15489 15492 15495 15498 15501 15504 15507 15510 15513 15516 15519 15522 15525 15528 15531 15534 15537 15540 15543 15546 15549 15552 15555 15558 15561 15564 15567 15570 15573 15576 15579 15582 15585 15588 15591 15594 15597 15600 15603 15606 15609 15612 15615 15618 15621 15624 15627 15630 15633 15636 15639 15642 15645 15648 15651 15654 15657 15660 15663 15666 15669 15672 15675 15678 15681 15684 15687 15690 15693 15696 15699 15702 15705 15708 15711 15714 15717 15720 15723 15726 15729 15732 15735 15738 15741 15744 15747 15750 15753 15756 15759 15762 15765 15768 15771 15774 15777 15780 15783 15786 15789 15792 15795 15798 15801 15804 15807 15810 15813 15816 15819 15822 15825 15828 15831 15834 15837 15840 15843 15846 15849 15852 15855 15858 15861 15864 15867 15870 15873 15876 15879 15882 15885 15888 15891 15894 15897 15900 15903 15906 15909 15912 15915 15918 15921 15924 15927 15930 15933 15936 15939 15942 15945 15948 15951 15954 15957 15960 15963 15966 15969 15972 15975 15978 15981 15984 15987 15990 15993 15996 15999 16002 16005 16008 16011 16014 16017 16020 16023 16026 16029 16032 16035 16038 16041 16044 16047 16050 16053 16056 16059 16062 16065 16068 16071 16074 16077 16080 16083 16086 16089 16092 16095 16098 16101 16104 16107 16110 16113 16116 16119 16122 16125 16128 16131 16134 16137 16140 16143 16146 16149 16152 16155 16158 16161 16164 16167 16170 16173 16176 16179 16182 16185 16188 16191 16194 16197 16200 16203 16206 16209 16212 16215 16218 16221 16224 16227 16230 16233 16236 16239 16242 16245 16248 16251 16254 16257 16260 16263 16266 16269 16272 16275 16278 16281 16284 16287 16290 16293 16296 16299 16302 16305 16308 16311 16314 16317 16320 16323 16326 16329 16332 16335 16338 16341 16344 16347 16350 16353 16356 16359 16362 16365 16368 16371 16374 16377 16380 16383 16386 16389 16392 16395 16398 16401 16404 16407 16410 16413 16416 16419 16422 16425 16428 16431 16434 16437 16440 16443 16446 16449 16452 16455 16458 16461 16464 16467 16470 16473 16476 16479 16482 16485 16488 16491 16494 16497 16500 16503 16506 16509 16512 16515 16518 16521 16524 16527 16530 16533 16536 16539 16542 16545 16548 16551 16554 16557 16560 16563 16566 16569 16572 16575 16578 16581 16584 16587 16590 16593 16596 16599 16602 16605 16608 16611 16614 16617 16620 16623 16626 16629 16632 16635 16638 16641 16644 16647 16650 16653 16656 16659 16662 16665 16668 16671 16674 16677 16680 16683 16686 16689 16692 16695 16698 16701 16704 16707 16710 16713 16716 16719 16722 16725 16728 16731 16734 16737 16740 16743 16746 16749 16752 16755 16758 16761 16764 16767 16770 16773 16776 16779 16782 16785 16788 16791 16794 16797 16800 16803 16806 16809 16812 16815 16818 16821 16824 16827 16830 16833 16836 16839 16842 16845 16848 16851 16854 16857 16860 16863 16866 16869 16872 16875 16878 16881 16884 16887 16890 16893 16896 16899 16902 16905 16908 16911 16914 16917 16920 16923 16926 16929 16932 16935 16938 16941 16944 16947 16950 16953 16956 16959 16962 16965 16968 16971 16974 16977 16980 16983 16986 16989 16992 16995 16998 17001 17004 17007 17010 17013 17016 17019 17022 17025 17028 17031 17034 17037 17040 17043 17046 17049 17052 17055 17058 17061 17064 17067 17070 17073 17076 17079 17082 17085 17088 17091 17094 17097 17100 17103 17106 17109 17112 17115 17118 17121 17124 17127 17130 17133 17136 17139 17142 17145 17148 17151 17154 17157 17160 17163 17166 17169 17172 17175 17178 17181 17184 17187 17190 17193 17196 17199 17202 17205 17208 17211 17214 17217 17220 17223 17226 17229 17232 17235 17238 17241 17244 17247 17250 17253 17256 17259 17262 17265 17268 17271 17274 17277 17280 17283 17286 17289 17292 17295 17298 17301 17304 17307 17310 17313 17316 17319 17322 17325 17328 17331 17334 17337 17340 17343 17346 17349 17352 17355 17358 17361 17364 17367 17370 17373 17376 17379 17382 17385 17388 17391 17394 17397 17400 17403 17406 17409 17412 17415 17418 17421 17424 17427 17430 17433 17436 17439 17442 17445 17448 17451 17454 17457 17460 17463 17466 17469 17472 17475 17478 17481 17484 17487 17490 17493 17496 17499 17502 17505 17508 17511 17514 17517 17520 17523 17526 17529 17532 17535 17538 17541 17544 17547 17550 17553 17556 17559 17562 17565 17568 17571 17574 17577 17580 17583 17586 17589 17592 17595 17598 17601 17604 17607 17610 17613 17616 17619 17622 17625 17628 17631 17634 17637 17640 17643 17646 17649 17652 17655 17658 17661 17664 17667 17670 17673 17676 17679 17682 17685 17688 17691 17694 17697 17700 17703 17706 17709 17712 17715 17718 17721 17724 17727 17730 17733 17736 17739 17742 17745 17748 17751 17754 17757 17760 17763 17766 17769 17772 17775 17778 17781 17784 17787 17790 17793 17796 17799 17802 17805 17808 17811 17814 17817 17820 17823 17826 17829 17832 17835 17838 17841 17844 17847 17850 17853 17856 17859 17862 17865 17868 17871 17874 17877 17880 17883 17886 17889 17892 17895 17898 17901 17904 17907 17910 17913 17916 17919 17922 17925 17928 17931 17934 17937 17940 17943 17946 17949 17952 17955 17958 17961 17964 17967 17970 17973 17976 17979 17982 17985 17988 17991 17994 17997 18000 18003 18006 18009 18012 18015 18018 18021 18024 18027 18030 18033 18036 18039 18042 18045 18048 18051 18054 18057 18060 18063 18066 18069 18072 18075 18078 18081 18084 18087 18090 18093 18096 18099 18102 18105 18108 18111 18114 18117 18120 18123 18126 18129 18132 18135 18138 18141 18144 18147 18150 18153 18156 18159 18162 18165 18168 18171 18174 18177 18180 18183 18186 18189 18192 18195 18198 18201 18204 18207 18210 18213 18216 18219 18222 18225 18228 18231 18234 18237 18240 18243 18246 18249 18252 18255 18258 18261 18264 18267 18270 18273 18276 18279 18282 18285 18288 18291 18294 18297 18300 18303 18306 18309 18312 18315 18318 18321 18324 18327 18330 18333 18336 18339 18342 18345 18348 18351 18354 18357 18360 18363 18366 18369 18372 18375 18378 18381 18384 18387 18390 18393 18396 18399 18402 18405 18408 18411 18414 18417 18420 18423 18426 18429 18432 18435 18438 18441 18444 18447 18450 18453 18456 18459 18462 18465 18468 18471 18474 18477 18480 18483 18486 18489 18492 18495 18498 18501 18504 18507 18510 18513 18516 18519 18522 18525 18528 18531 18534 18537 18540 18543 18546 18549 18552 18555 18558 18561 18564 18567 18570 18573 18576 18579 18582 18585 18588 18591 18594 18597 18600 18603 18606 18609 18612 18615 18618 18621 18624 18627 18630 18633 18636 18639 18642 18645 18648 18651 18654 18657 18660 18663 18666 18669 18672 18675 18678 18681 18684 18687 18690 18693 18696 18699 18702 18705 18708 18711 18714 18717 18720 18723 18726 18729 18732 18735 18738 18741 18744 18747 18750 18753 18756 18759 18762 18765 18768 18771 18774 18777 18780 18783 18786 18789 18792 18795 18798 18801 18804 18807 18810 18813 18816 18819 18822 18825 18828 18831 18834 18837 18840 18843 18846 18849 18852 18855 18858 18861 18864 18867 18870 18873 18876 18879 18882 18885 18888 18891 18894 18897 18900 18903 18906 18909 18912 18915 18918 18921 18924 18927 18930 18933 18936 18939 18942 18945 18948 18951 18954 18957 18960 18963 18966 18969 18972 18975 18978 18981 18984 18987 18990 18993 18996 18999 19002 19005 19008 19011 19014 19017 19020 19023 19026 19029 19032 19035 19038 19041 19044 19047 19050 19053 19056 19059 19062 19065 19068 19071 19074 19077 19080 19083 19086 19089 19092 19095 19098 19101 19104 19107 19110 19113 19116 19119 19122 19125 19128 19131 19134 19137 19140 19143 19146 19149 19152 19155 19158 19161 19164 19167 19170 19173 19176 19179 19182 19185 19188 19191 19194 19197 19200 19203 19206 19209 19212 19215 19218 19221 19224 19227 19230 19233 19236 19239 19242 19245 19248 19251 19254 19257 19260 19263 19266 19269 19272 19275 19278 19281 19284 19287 19290 19293 19296 19299 19302 19305 19308 19311 19314 19317 19320 19323 19326 19329 19332 19335 19338 19341 19344 19347 19350 19353 19356 19359 19362 19365 19368 19371 19374 19377 19380 19383 19386 19389 19392 19395 19398 19401 19404 19407 19410 19413 19416 19419 19422 19425 19428 19431 19434 19437 19440 19443 19446 19449 19452 19455 19458 19461 19464 19467 19470 19473 19476 19479 19482 19485 19488 19491 19494 19497 19500 19503 19506 19509 19512 19515 19518 19521 19524 19527 19530 19533 19536 19539 19542 19545 19548 19551 19554 19557 19560 19563 19566 19569 19572 19575 19578 19581 19584 19587 19590 19593 19596 19599 19602 19605 19608 19611 19614 19617 19620 19623 19626 19629 19632 19635 19638 19641 19644 19647 19650 19653 19656 19659 19662 19665 19668 19671 19674 19677 19680 19683 19686 19689 19692 19695 19698 19701 19704 19707 19710 19713 19716 19719 19722 19725 19728 19731 19734 19737 19740 19743 19746 19749 19752 19755 19758 19761 19764 19767 19770 19773 19776 19779 19782 19785 19788 19791 19794 19797 19800 19803 19806 19809 19812 19815 19818 19821 19824 19827 19830 19833 19836 19839 19842 19845 19848 19851 19854 19857 19860 19863 19866 19869 19872 19875 19878 19881 19884 19887 19890 19893 19896 19899 19902 19905 19908 19911 19914 19917 19920 19923 19926 19929 19932 19935 19938 19941 19944 19947 19950 19953 19956 19959 19962 19965 19968 19971 19974 19977 19980 19983 19986 19989 19992 19995 19998 20001 20004 20007 20010 20013 20016 20019 20022 20025 20028 20031 20034 20037 20040 20043 20046 20049 20052 20055 20058 20061 20064 20067 20070 20073 20076 20079 20082 20085 20088 20091 20094 20097 20100 20103 20106 20109 20112 20115 20118 20121 20124 20127 20130 20133 20136 20139 20142 20145 20148 20151 20154 20157 20160 20163 20166 20169 20172 20175 20178 20181 20184 20187 20190 20193 20196 20199 20202 20205 20208 20211 20214 20217 20220 20223 20226 20229 20232 20235 20238 20241 20244 20247 20250 20253 20256 20259 20262 20265 20268 20271 20274 20277 20280 20283 20286 20289 20292 20295 20298 20301 20304 20307 20310 20313 20316 20319 20322 20325 20328 20331 20334 20337 20340 20343 20346 20349 20352 20355 20358 20361 20364 20367 20370 20373 20376 20379 20382 20385 20388 20391 20394 20397 20400 20403 20406 20409 20412 20415 20418 20421 20424 20427 20430 20433 20436 20439 20442 20445 20448 20451 20454 20457 20460 20463 20466 20469 20472 20475 20478 20481 20484 20487 20490 20493 20496 20499 20502 20505 20508 20511 20514 20517 20520 20523 20526 20529 20532 20535 20538 20541 20544 20547 20550 20553 20556 20559 20562 20565 20568 20571 20574 20577 20580 20583 20586 20589 20592 20595 20598 20601 20604 20607 20610 20613 20616 20619 20622 20625 20628 20631 20634 20637 20640 20643 20646 20649 20652 20655 20658 20661 20664 20667 20670 20673 20676 20679 20682 20685 20688 20691 20694 20697 20700 20703 20706 20709 20712 20715 20718 20721 20724 20727 20730 20733 20736 20739 20742 20745 20748 20751 20754 20757 20760 20763 20766 20769 20772 20775 20778 20781 20784 20787 20790 20793 20796 20799 20802 20805 20808 20811 20814 20817 20820 20823 20826 20829 20832 20835 20838 20841 20844 20847 20850 20853 20856 20859 20862 20865 20868 20871 20874 20877 20880 20883 20886 20889 20892 20895 20898 20901 20904 20907 20910 20913 20916 20919 20922 20925 20928 20931 20934 20937 20940 20943 20946 20949 20952 20955 20958 20961 20964 20967 20970 20973 20976 20979 20982 20985 20988 20991 20994 20997 21000 21003 21006 21009 21012 21015 21018 21021 21024 21027 21030 21033 21036 21039 21042 21045 21048 21051 21054 21057 21060 21063 21066 21069 21072 21075 21078 21081 21084 21087 21090 21093 21096 21099 21102 21105 21108 21111 21114 21117 21120 21123 21126 21129 21132 21135 21138 21141 21144 21147 21150 21153 21156 21159 21162 21165 21168 21171 21174 21177 21180 21183 21186 21189 21192 21195 21198 21201 21204 21207 21210 21213 21216 21219 21222 21225 21228 21231 21234 21237 21240 21243 21246 21249 21252 21255 21258 21261 21264 21267 21270 21273 21276 21279 21282 21285 21288 21291 21294 21297 21300 21303 21306 21309 21312 21315 21318 21321 21324 21327 21330 21333 21336 21339 21342 21345 21348 21351 21354 21357 21360 21363 21366 21369 21372 21375 21378 21381 21384 21387 21390 21393 21396 21399 21402 21405 21408 21411 21414 21417 21420 21423 21426 21429 21432 21435 21438 21441 21444 21447 21450 21453 21456 21459 21462 21465 21468 21471 21474 21477 21480 21483 21486 21489 21492 21495 21498 21501 21504 21507 21510 21513 21516 21519 21522 21525 21528 21531 21534 21537 21540 21543 21546 21549 21552 21555 21558 21561 21564 21567 21570 21573 21576 21579 21582 21585 21588 21591 21594 21597 21600 21603 21606 21609 21612 21615 21618 21621 21624 21627 21630 21633 21636 21639 21642 21645 21648 21651 21654 21657 21660 21663 21666 21669 21672 21675 21678 21681 21684 21687 21690 21693 21696 21699 21702 21705 21708 21711 21714 21717 21720 21723 21726 21729 21732 21735 21738 21741 21744 21747 21750 21753 21756 21759 21762 21765 21768 21771 21774 21777 21780 21783 21786 21789 21792 21795 21798 21801 21804 21807 21810 21813 21816 21819 21822 21825 21828 21831 21834 21837 21840 21843 21846 21849 21852 21855 21858 21861 21864 21867 21870 21873 21876 21879 21882 21885 21888 21891 21894 21897 21900 21903 21906 21909 21912 21915 21918 21921 21924 21927 21930 21933 21936 21939 21942 21945 21948 21951 21954 21957 21960 21963 21966 21969 21972 21975 21978 21981 21984 21987 21990 21993 21996 21999 22002 22005 22008 22011 22014 22017 22020 22023 22026 22029 22032 22035 22038 22041 22044 22047 22050 22053 22056 22059 22062 22065 22068 22071 22074 22077 22080 22083 22086 22089 22092 22095 22098 22101 22104 22107 22110 22113 22116 22119 22122 22125 22128 22131 22134 22137 22140 22143 22146 22149 22152 22155 22158 22161 22164 22167 22170 22173 22176 22179 22182 22185 22188 22191 22194 22197 22200 22203 22206 22209 22212 22215 22218 22221 22224 22227 22230 22233 22236 22239 22242 22245 22248 22251 22254 22257 22260 22263 22266 22269 22272 22275 22278 22281 22284 22287 22290 22293 22296 22299 22302 22305 22308 22311 22314 22317 22320 22323 22326 22329 22332 22335 22338 22341 22344 22347 22350 22353 22356 22359 22362 22365 22368 22371 22374 22377 22380 22383 22386 22389 22392 22395 22398 22401 22404 22407 22410 22413 22416 22419 22422 22425 22428 22431 22434 22437 22440 22443 22446 22449 22452 22455 22458 22461 22464 22467 22470 22473 22476 22479 22482 22485 22488 22491 22494 22497 22500 22503 22506 22509 22512 22515 22518 22521 22524 22527 22530 22533 22536 22539 22542 22545 22548 22551 22554 22557 22560 22563 22566 22569 22572 22575 22578 22581 22584 22587 22590 22593 22596 22599 22602 22605 22608 22611 22614 22617 22620 22623 22626 22629 22632 22635 22638 22641 22644 22647 22650 22653 22656 22659 22662 22665 22668 22671 22674 22677 22680 22683 22686 22689 22692 22695 22698 22701 22704 22707 22710 22713 22716 22719 22722 22725 22728 22731 22734 22737 22740 22743 22746 22749 22752 22755 22758 22761 22764 22767 22770 22773 22776 22779 22782 22785 22788 22791 22794 22797 22800 22803 22806 22809 22812 22815 22818 22821 22824 22827 22830 22833 22836 22839 22842 22845 22848 22851 22854 22857 22860 22863 22866 22869 22872 22875 22878 22881 22884 22887 22890 22893 22896 22899 22902 22905 22908 22911 22914 22917 22920 22923 22926 22929 22932 22935 22938 22941 22944 22947 22950 22953 22956 22959 22962 22965 22968 22971 22974 22977 22980 22983 22986 22989 22992 22995 22998 23001 23004 23007 23010 23013 23016 23019 23022 23025 23028 23031 23034 23037 23040 23043 23046 23049 23052 23055 23058 23061 23064 23067 23070 23073 23076 23079 23082 23085 23088 23091 23094 23097 23100 23103 23106 23109 23112 23115 23118 23121 23124 23127 23130 23133 23136 23139 23142 23145 23148 23151 23154 23157 23160 23163 23166 23169 23172 23175 23178 23181 23184 23187 23190 23193 23196 23199 23202 23205 23208 23211 23214 23217 23220 23223 23226 23229 23232 23235 23238 23241 23244 23247 23250 23253 23256 23259 23262 23265 23268 23271 23274 23277 23280 23283 23286 23289 23292 23295 23298 23301 23304 23307 23310 23313 23316 23319 23322 23325 23328 23331 23334 23337 23340 23343 23346 23349 23352 23355 23358 23361 23364 23367 23370 23373 23376 23379 23382 23385 23388 23391 23394 23397 23400 23403 23406 23409 23412 23415 23418 23421 23424 23427 23430 23433 23436 23439 23442 23445 23448 23451 23454 23457 23460 23463 23466 23469 23472 23475 23478 23481 23484 23487 23490 23493 23496 23499 23502 23505 23508 23511 23514 23517 23520 23523 23526 23529 23532 23535 23538 23541 23544 23547 23550 23553 23556 23559 23562 23565 23568 23571 23574 23577 23580 23583 23586 23589 23592 23595 23598 23601 23604 23607 23610 23613 23616 23619 23622 23625 23628 23631 23634 23637 23640 23643 23646 23649 23652 23655 23658 23661 23664 23667 23670 23673 23676 23679 23682 23685 23688 23691 23694 23697 23700 23703 23706 23709 23712 23715 23718 23721 23724 23727 23730 23733 23736 23739 23742 23745 23748 23751 23754 23757 23760 23763 23766 23769 23772 23775 23778 23781 23784 23787 23790 23793 23796 23799 23802 23805 23808 23811 23814 23817 23820 23823 23826 23829 23832 23835 23838 23841 23844 23847 23850 23853 23856 23859 23862 23865 23868 23871 23874 23877 23880 23883 23886 23889 23892 23895 23898 23901 23904 23907 23910 23913 23916 23919 23922 23925 23928 23931 23934 23937 23940 23943 23946 23949 23952 23955 23958 23961 23964 23967 23970 23973 23976 23979 23982 23985 23988 23991 23994 23997 24000 24003 24006 24009 24012 24015 24018 24021 24024 24027 24030 24033 24036 24039 24042 24045 24048 24051 24054 24057 24060 24063 24066 24069 24072 24075 24078 24081 24084 24087 24090 24093 24096 24099 24102 24105 24108 24111 24114 24117 24120 24123 24126 24129 24132 24135 24138 24141 24144 24147 24150 24153 24156 24159 24162 24165 24168 24171 24174 24177 24180 24183 24186 24189 24192 24195 24198 24201 24204 24207 24210 24213 24216 24219 24222 24225 24228 24231 24234 24237 24240 24243 24246 24249 24252 24255 24258 24261 24264 24267 24270 24273 24276 24279 24282 24285 24288 24291 24294 24297 24300 24303 24306 24309 24312 24315 24318 24321 24324 24327 24330 24333 24336 24339 24342 24345 24348 24351 24354 24357 24360 24363 24366 24369 24372 24375 24378 24381 24384 24387 24390 24393 24396 24399 24402 24405 24408 24411 24414 24417 24420 24423 24426 24429 24432 24435 24438 24441 24444 24447 24450 24453 24456 24459 24462 24465 24468 24471 24474 24477 24480 24483 24486 24489 24492 24495 24498 24501 24504 24507 24510 24513 24516 24519 24522 24525 24528 24531 24534 24537 24540 24543 24546 24549 24552 24555 24558 24561 24564 24567 24570 24573 24576 24579 24582 24585 24588 24591 24594 24597 24600 24603 24606 24609 24612 24615 24618 24621 24624 24627 24630 24633 24636 24639 24642 24645 24648 24651 24654 24657 24660 24663 24666 24669 24672 24675 24678 24681 24684 24687 24690 24693 24696 24699 24702 24705 24708 24711 24714 24717 24720 24723 24726 24729 24732 24735 24738 24741 24744 24747 24750 24753 24756 24759 24762 24765 24768 24771 24774 24777 24780 24783 24786 24789 24792 24795 24798 24801 24804 24807 24810 24813 24816 24819 24822 24825 24828 24831 24834 24837 24840 24843 24846 24849 24852 24855 24858 24861 24864 24867 24870 24873 24876 24879 24882 24885 24888 24891 24894 24897 24900 24903 24906 24909 24912 24915 24918 24921 24924 24927 24930 24933 24936 24939 24942 24945 24948 24951 24954 24957 24960 24963 24966 24969 24972 24975 24978 24981 24984 24987 24990 24993 24996 24999 25002 25005 25008 25011 25014 25017 25020 25023 25026 25029 25032 25035 25038 25041 25044 25047 25050 25053 25056 25059 25062 25065 25068 25071 25074 25077 25080 25083 25086 25089 25092 25095 25098 25101 25104 25107 25110 25113 25116 25119 25122 25125 25128 25131 25134 25137 25140 25143 25146 25149 25152 25155 25158 25161 25164 25167 25170 25173 25176 25179 25182 25185 25188 25191 25194 25197 25200 25203 25206 25209 25212 25215 25218 25221 25224 25227 25230 25233 25236 25239 25242 25245 25248 25251 25254 25257 25260 25263 25266 25269 25272 25275 25278 25281 25284 25287 25290 25293 25296 25299 25302 25305 25308 25311 25314 25317 25320 25323 25326 25329 25332 25335 25338 25341 25344 25347 25350 25353 25356 25359 25362 25365 25368 25371 25374 25377 25380 25383 25386 25389 25392 25395 25398 25401 25404 25407 25410 25413 25416 25419 25422 25425 25428 25431 25434 25437 25440 25443 25446 25449 25452 25455 25458 25461 25464 25467 25470 25473 25476 25479 25482 25485 25488 25491 25494 25497 25500 25503 25506 25509 25512 25515 25518 25521 25524 25527 25530 25533 25536 25539 25542 25545 25548 25551 25554 25557 25560 25563 25566 25569 25572 25575 25578 25581 25584 25587 25590 25593 25596 25599 25602 25605 25608 25611 25614 25617 25620 25623 25626 25629 25632 25635 25638 25641 25644 25647 25650 25653 25656 25659 25662 25665 25668 25671 25674 25677 25680 25683 25686 25689 25692 25695 25698 25701 25704 25707 25710 25713 25716 25719 25722 25725 25728 25731 25734 25737 25740 25743 25746 25749 25752 25755 25758 25761 25764 25767 25770 25773 25776 25779 25782 25785 25788 25791 25794 25797 25800 25803 25806 25809 25812 25815 25818 25821 25824 25827 25830 25833 25836 25839 25842 25845 25848 25851 25854 25857 25860 25863 25866 25869 25872 25875 25878 25881 25884 25887 25890 25893 25896 25899 25902 25905 25908 25911 25914 25917 25920 25923 25926 25929 25932 25935 25938 25941 25944 25947 25950 25953 25956 25959 25962 25965 25968 25971 25974 25977 25980 25983 25986 25989 25992 25995 25998 26001 26004 26007 26010 26013 26016 26019 26022 26025 26028 26031 26034 26037 26040 26043 26046 26049 26052 26055 26058 26061 26064 26067 26070 26073 26076 26079 26082 26085 26088 26091 26094 26097 26100 26103 26106 26109 26112 26115 26118 26121 26124 26127 26130 26133 26136 26139 26142 26145 26148 26151 26154 26157 26160 26163 26166 26169 26172 26175 26178 26181 26184 26187 26190 26193 26196 26199 26202 26205 26208 26211 26214 26217 26220 26223 26226 26229 26232 26235 26238 26241 26244 26247 26250 26253 26256 26259 26262 26265 26268 26271 26274 26277 26280 26283 26286 26289 26292 26295 26298 26301 26304 26307 26310 26313 26316 26319 26322 26325 26328 26331 26334 26337 26340 26343 26346 26349 26352 26355 26358 26361 26364 26367 26370 26373 26376 26379 26382 26385 26388 26391 26394 26397 26400 26403 26406 26409 26412 26415 26418 26421 26424 26427 26430 26433 26436 26439 26442 26445 26448 26451 26454 26457 26460 26463 26466 26469 26472 26475 26478 26481 26484 26487 26490 26493 26496 26499 26502 26505 26508 26511 26514 26517 26520 26523 26526 26529 26532 26535 26538 26541 26544 26547 26550 26553 26556 26559 26562 26565 26568 26571 26574 26577 26580 26583 26586 26589 26592 26595 26598 26601 26604 26607 26610 26613 26616 26619 26622 26625 26628 26631 26634 26637 26640 26643 26646 26649 26652 26655 26658 26661 26664 26667 26670 26673 26676 26679 26682 26685 26688 26691 26694 26697 26700 26703 26706 26709 26712 26715 26718 26721 26724 26727 26730 26733 26736 26739 26742 26745 26748 26751 26754 26757 26760 26763 26766 26769 26772 26775 26778 26781 26784 26787 26790 26793 26796 26799 26802 26805 26808 26811 26814 26817 26820 26823 26826 26829 26832 26835 26838 26841 26844 26847 26850 26853 26856 26859 26862 26865 26868 26871 26874 26877 26880 26883 26886 26889 26892 26895 26898 26901 26904 26907 26910 26913 26916 26919 26922 26925 26928 26931 26934 26937 26940 26943 26946 26949 26952 26955 26958 26961 26964 26967 26970 26973 26976 26979 26982 26985 26988 26991 26994 26997 27000 27003 27006 27009 27012 27015 27018 27021 27024 27027 27030 27033 27036 27039 27042 27045 27048 27051 27054 27057 27060 27063 27066 27069 27072 27075 27078 27081 27084 27087 27090 27093 27096 27099 27102 27105 27108 27111 27114 27117 27120 27123 27126 27129 27132 27135 27138 27141 27144 27147 27150 27153 27156 27159 27162 27165 27168 27171 27174 27177 27180 27183 27186 27189 27192 27195 27198 27201 27204 27207 27210 27213 27216 27219 27222 27225 27228 27231 27234 27237 27240 27243 27246 27249 27252 27255 27258 27261 27264 27267 27270 27273 27276 27279 27282 27285 27288 27291 27294 27297 27300 27303 27306 27309 27312 27315 27318 27321 27324 27327 27330 27333 27336 27339 27342 27345 27348 27351 27354 27357 27360 27363 27366 27369 27372 27375 27378 27381 27384 27387 27390 27393 27396 27399 27402 27405 27408 27411 27414 27417 27420 27423 27426 27429 27432 27435 27438 27441 27444 27447 27450 27453 27456 27459 27462 27465 27468 27471 27474 27477 27480 27483 27486 27489 27492 27495 27498 27501 27504 27507 27510 27513 27516 27519 27522 27525 27528 27531 27534 27537 27540 27543 27546 27549 27552 27555 27558 27561 27564 27567 27570 27573 27576 27579 27582 27585 27588 27591 27594 27597 27600 27603 27606 27609 27612 27615 27618 27621 27624 27627 27630 27633 27636 27639 27642 27645 27648 27651 27654 27657 27660 27663 27666 27669 27672 27675 27678 27681 27684 27687 27690 27693 27696 27699 27702 27705 27708 27711 27714 27717 27720 27723 27726 27729 27732 27735 27738 27741 27744 27747 27750 27753 27756 27759 27762 27765 27768 27771 27774 27777 27780 27783 27786 27789 27792 27795 27798 27801 27804 27807 27810 27813 27816 27819 27822 27825 27828 27831 27834 27837 27840 27843 27846 27849 27852 27855 27858 27861 27864 27867 27870 27873 27876 27879 27882 27885 27888 27891 27894 27897 27900 27903 27906 27909 27912 27915 27918 27921 27924 27927 27930 27933 27936 27939 27942 27945 27948 27951 27954 27957 27960 27963 27966 27969 27972 27975 27978 27981 27984 27987 27990 27993 27996 27999 28002 28005 28008 28011 28014 28017 28020 28023 28026 28029 28032 28035 28038 28041 28044 28047 28050 28053 28056 28059 28062 28065 28068 28071 28074 28077 28080 28083 28086 28089 28092 28095 28098 28101 28104 28107 28110 28113 28116 28119 28122 28125 28128 28131 28134 28137 28140 28143 28146 28149 28152 28155 28158 28161 28164 28167 28170 28173 28176 28179 28182 28185 28188 28191 28194 28197 28200 28203 28206 28209 28212 28215 28218 28221 28224 28227 28230 28233 28236 28239 28242 28245 28248 28251 28254 28257 28260 28263 28266 28269 28272 28275 28278 28281 28284 28287 28290 28293 28296 28299 28302 28305 28308 28311 28314 28317 28320 28323 28326 28329 28332 28335 28338 28341 28344 28347 28350 28353 28356 28359 28362 28365 28368 28371 28374 28377 28380 28383 28386 28389 28392 28395 28398 28401 28404 28407 28410 28413 28416 28419 28422 28425 28428 28431 28434 28437 28440 28443 28446 28449 28452 28455 28458 28461 28464 28467 28470 28473 28476 28479 28482 28485 28488 28491 28494 28497 28500 28503 28506 28509 28512 28515 28518 28521 28524 28527 28530 28533 28536 28539 28542 28545 28548 28551 28554 28557 28560 28563 28566 28569 28572 28575 28578 28581 28584 28587 28590 28593 28596 28599 28602 28605 28608 28611 28614 28617 28620 28623 28626 28629 28632 28635 28638 28641 28644 28647 28650 28653 28656 28659 28662 28665 28668 28671 28674 28677 28680 28683 28686 28689 28692 28695 28698 28701 28704 28707 28710 28713 28716 28719 28722 28725 28728 28731 28734 28737 28740 28743 28746 28749 28752 28755 28758 28761 28764 28767 28770 28773 28776 28779 28782 28785 28788 28791 28794 28797 28800 28803 28806 28809 28812 28815 28818 28821 28824 28827 28830 28833 28836 28839 28842 28845 28848 28851 28854 28857 28860 28863 28866 28869 28872 28875 28878 28881 28884 28887 28890 28893 28896 28899 28902 28905 28908 28911 28914 28917 28920 28923 28926 28929 28932 28935 28938 28941 28944 28947 28950 28953 28956 28959 28962 28965 28968 28971 28974 28977 28980 28983 28986 28989 28992 28995 28998 29001 29004 29007 29010 29013 29016 29019 29022 29025 29028 29031 29034 29037 29040 29043 29046 29049 29052 29055 29058 29061 29064 29067 29070 29073 29076 29079 29082 29085 29088 29091 29094 29097 29100 29103 29106 29109 29112 29115 29118 29121 29124 29127 29130 29133 29136 29139 29142 29145 29148 29151 29154 29157 29160 29163 29166 29169 29172 29175 29178 29181 29184 29187 29190 29193 29196 29199 29202 29205 29208 29211 29214 29217 29220 29223 29226 29229 29232 29235 29238 29241 29244 29247 29250 29253 29256 29259 29262 29265 29268 29271 29274 29277 29280 29283 29286 29289 29292 29295 29298 29301 29304 29307 29310 29313 29316 29319 29322 29325 29328 29331 29334 29337 29340 29343 29346 29349 29352 29355 29358 29361 29364 29367 29370 29373 29376 29379 29382 29385 29388 29391 29394 29397 29400 29403 29406 29409 29412 29415 29418 29421 29424 29427 29430 29433 29436 29439 29442 29445 29448 29451 29454 29457 29460 29463 29466 29469 29472 29475 29478 29481 29484 29487 29490 29493 29496 29499 29502 29505 29508 29511 29514 29517 29520 29523 29526 29529 29532 29535 29538 29541 29544 29547 29550 29553 29556 29559 29562 29565 29568 29571 29574 29577 29580 29583 29586 29589 29592 29595 29598 29601 29604 29607 29610 29613 29616 29619 29622 29625 29628 29631 29634 29637 29640 29643 29646 29649 29652 29655 29658 29661 29664 29667 29670 29673 29676 29679 29682 29685 29688 29691 29694 29697 29700 29703 29706 29709 29712 29715 29718 29721 29724 29727 29730 29733 29736 29739 29742 29745 29748 29751 29754 29757 29760 29763 29766 29769 29772 29775 29778 29781 29784 29787 29790 29793 29796 29799 29802 29805 29808 29811 29814 29817 29820 29823 29826 29829 29832 29835 29838 29841 29844 29847 29850 29853 29856 29859 29862 29865 29868 29871 29874 29877 29880 29883 29886 29889 29892 29895 29898 29901 29904 29907 29910 29913 29916 29919 29922 29925 29928 29931 29934 29937 29940 29943 29946 29949 29952 29955 29958 29961 29964 29967 29970 29973 29976 29979 29982 29985 29988 29991 29994 29997 30000 30003 30006 30009 30012 30015 30018 30021 30024 30027 30030 30033 30036 30039 30042 30045 30048 30051 30054 30057 30060 30063 30066 30069 30072 30075 30078 30081 30084 30087 30090 30093 30096 30099 30102 30105 30108 30111 30114 30117 30120 30123 30126 30129 30132 30135 30138 30141 30144 30147 30150 30153 30156 30159 30162 30165 30168 30171 30174 30177 30180 30183 30186 30189 30192 30195 30198 30201 30204 30207 30210 30213 30216 30219 30222 30225 30228 30231 30234 30237 30240 30243 30246 30249 30252 30255 30258 30261 30264 30267 30270 30273 30276 30279 30282 30285 30288 30291 30294 30297 30300 30303 30306 30309 30312 30315 30318 30321 30324 30327 30330 30333 30336 30339 30342 30345 30348 30351 30354 30357 30360 30363 30366 30369 30372 30375 30378 30381 30384 30387 30390 30393 30396 30399 30402 30405 30408 30411 30414 30417 30420 30423 30426 30429 30432 30435 30438 30441 30444 30447 30450 30453 30456 30459 30462 30465 30468 30471 30474 30477 30480 30483 30486 30489 30492 30495 30498 30501 30504 30507 30510 30513 30516 30519 30522 30525 30528 30531 30534 30537 30540 30543 30546 30549 30552 30555 30558 30561 30564 30567 30570 30573 30576 30579 30582 30585 30588 30591 30594 30597 30600 30603 30606 30609 30612 30615 30618 30621 30624 30627 30630 30633 30636 30639 30642 30645 30648 30651 30654 30657 30660 30663 30666 30669 30672 30675 30678 30681 30684 30687 30690 30693 30696 30699 30702 30705 30708 30711 30714 30717 30720 30723 30726 30729 30732 30735 30738 30741 30744 30747 30750 30753 30756 30759 30762 30765 30768 30771 30774 30777 30780 30783 30786 30789 30792 30795 30798 30801 30804 30807 30810 30813 30816 30819 30822 30825 30828 30831 30834 30837 30840 30843 30846 30849 30852 30855 30858 30861 30864 30867 30870 30873 30876 30879 30882 30885 30888 30891 30894 30897 30900 30903 30906 30909 30912 30915 30918 30921 30924 30927 30930 30933 30936 30939 30942 30945 30948 30951 30954 30957 30960 30963 30966 30969 30972 30975 30978 30981 30984 30987 30990 30993 30996 30999 31002 31005 31008 31011 31014 31017 31020 31023 31026 31029 31032 31035 31038 31041 31044 31047 31050 31053 31056 31059 31062 31065 31068 31071 31074 31077 31080 31083 31086 31089 31092 31095 31098 31101 31104 31107 31110 31113 31116 31119 31122 31125 31128 31131 31134 31137 31140 31143 31146 31149 31152 31155 31158 31161 31164 31167 31170 31173 31176 31179 31182 31185 31188 31191 31194 31197 31200 31203 31206 31209 31212 31215 31218 31221 31224 31227 31230 31233 31236 31239 31242 31245 31248 31251 31254 31257 31260 31263 31266 31269 31272 31275 31278 31281 31284 31287 31290 31293 31296 31299 31302 31305 31308 31311 31314 31317 31320 31323 31326 31329 31332 31335 31338 31341 31344 31347 31350 31353 31356 31359 31362 31365 31368 31371 31374 31377 31380 31383 31386 31389 31392 31395 31398 31401 31404 31407 31410 31413 31416 31419 31422 31425 31428 31431 31434 31437 31440 31443 31446 31449 31452 31455 31458 31461 31464 31467 31470 31473 31476 31479 31482 31485 31488 31491 31494 31497 31500 31503 31506 31509 31512 31515 31518 31521 31524 31527 31530 31533 31536 31539 31542 31545 31548 31551 31554 31557 31560 31563 31566 31569 31572 31575 31578 31581 31584 31587 31590 31593 31596 31599 31602 31605 31608 31611 31614 31617 31620 31623 31626 31629 31632 31635 31638 31641 31644 31647 31650 31653 31656 31659 31662 31665 31668 31671 31674 31677 31680 31683 31686 31689 31692 31695 31698 31701 31704 31707 31710 31713 31716 31719 31722 31725 31728 31731 31734 31737 31740 31743 31746 31749 31752 31755 31758 31761 31764 31767 31770 31773 31776 31779 31782 31785 31788 31791 31794 31797 31800 31803 31806 31809 31812 31815 31818 31821 31824 31827 31830 31833 31836 31839 31842 31845 31848 31851 31854 31857 31860 31863 31866 31869 31872 31875 31878 31881 31884 31887 31890 31893 31896 31899 31902 31905 31908 31911 31914 31917 31920 31923 31926 31929 31932 31935 31938 31941 31944 31947 31950 31953 31956 31959 31962 31965 31968 31971 31974 31977 31980 31983 31986 31989 31992 31995 31998 32001 32004 32007 32010 32013 32016 32019 32022 32025 32028 32031 32034 32037 32040 32043 32046 32049 32052 32055 32058 32061 32064 32067 32070 32073 32076 32079 32082 32085 32088 32091 32094 32097 32100 32103 32106 32109 32112 32115 32118 32121 32124 32127 32130 32133 32136 32139 32142 32145 32148 32151 32154 32157 32160 32163 32166 32169 32172 32175 32178 32181 32184 32187 32190 32193 32196 32199 32202 32205 32208 32211 32214 32217 32220 32223 32226 32229 32232 32235 32238 32241 32244 32247 32250 32253 32256 32259 32262 32265 32268 32271 32274 32277 32280 32283 32286 32289 32292 32295 32298 32301 32304 32307 32310 32313 32316 32319 32322 32325 32328 32331 32334 32337 32340 32343 32346 32349 32352 32355 32358 32361 32364 32367 32370 32373 32376 32379 32382 32385 32388 32391 32394 32397 32400 32403 32406 32409 32412 32415 32418 32421 32424 32427 32430 32433 32436 32439 32442 32445 32448 32451 32454 32457 32460 32463 32466 32469 32472 32475 32478 32481 32484 32487 32490 32493 32496 32499 32502 32505 32508 32511 32514 32517 32520 32523 32526 32529 32532 32535 32538 32541 32544 32547 32550 32553 32556 32559 32562 32565 32568 32571 32574 32577 32580 32583 32586 32589 32592 32595 32598 32601 32604 32607 32610 32613 32616 32619 32622 32625 32628 32631 32634 32637 32640 32643 32646 32649 32652 32655 32658 32661 32664 32667 32670 32673 32676 32679 32682 32685 32688 32691 32694 32697 32700 32703 32706 32709 32712 32715 32718 32721 32724 32727 32730 32733 32736 32739 32742 32745 32748 32751 32754 32757 32760 32763 32766 32769 32772 32775 32778 32781 32784 32787 32790 32793 32796 32799 32802 32805 32808 32811 32814 32817 32820 32823 32826 32829 32832 32835 32838 32841 32844 32847 32850 32853 32856 32859 32862 32865 32868 32871 32874 32877 32880 32883 32886 32889 32892 32895 32898 32901 32904 32907 32910 32913 32916 32919 32922 32925 32928 32931 32934 32937 32940 32943 32946 32949 32952 32955 32958 32961 32964 32967 32970 32973 32976 32979 32982 32985 32988 32991 32994 32997 33000 33003 33006 33009 33012 33015 33018 33021 33024 33027 33030 33033 33036 33039 33042 33045 33048 33051 33054 33057 33060 33063 33066 33069 33072 33075 33078 33081 33084 33087 33090 33093 33096 33099 33102 33105 33108 33111 33114 33117 33120 33123 33126 33129 33132 33135 33138 33141 33144 33147 33150 33153 33156 33159 33162 33165 33168 33171 33174 33177 33180 33183 33186 33189 33192 33195 33198 33201 33204 33207 33210 33213 33216 33219 33222 33225 33228 33231 33234 33237 33240 33243 33246 33249 33252 33255 33258 33261 33264 33267 33270 33273 33276 33279 33282 33285 33288 33291 33294 33297 33300 33303 33306 33309 33312 33315 33318 33321 33324 33327 33330 33333 33336 33339 33342 33345 33348 33351 33354 33357 33360 33363 33366 33369 33372 33375 33378 33381 33384 33387 33390 33393 33396 33399 33402 33405 33408 33411 33414 33417 33420 33423 33426 33429 33432 33435 33438 33441 33444 33447 33450 33453 33456 33459 33462 33465 33468 33471 33474 33477 33480 33483 33486 33489 33492 33495 33498 33501 33504 33507 33510 33513 33516 33519 33522 33525 33528 33531 33534 33537 33540 33543 33546 33549 33552 33555 33558 33561 33564 33567 33570 33573 33576 33579 33582 33585 33588 33591 33594 33597 33600 33603 33606 33609 33612 33615 33618 33621 33624 33627 33630 33633 33636 33639 33642 33645 33648 33651 33654 33657 33660 33663 33666 33669 33672 33675 33678 33681 33684 33687 33690 33693 33696 33699 33702 33705 33708 33711 33714 33717 33720 33723 33726 33729 33732 33735 33738 33741 33744 33747 33750 33753 33756 33759 33762 33765 33768 33771 33774 33777 33780 33783 33786 33789 33792 33795 33798 33801 33804 33807 33810 33813 33816 33819 33822 33825 33828 33831 33834 33837 33840 33843 33846 33849 33852 33855 33858 33861 33864 33867 33870 33873 33876 33879 33882 33885 33888 33891 33894 33897 33900 33903 33906 33909 33912 33915 33918 33921 33924 33927 33930 33933 33936 33939 33942 33945 33948 33951 33954 33957 33960 33963 33966 33969 33972 33975 33978 33981 33984 33987 33990 33993 33996 33999 34002 34005 34008 34011 34014 34017 34020 34023 34026 34029 34032 34035 34038 34041 34044 34047 34050 34053 34056 34059 34062 34065 34068 34071 34074 34077 34080 34083 34086 34089 34092 34095 34098 34101 34104 34107 34110 34113 34116 34119 34122 34125 34128 34131 34134 34137 34140 34143 34146 34149 34152 34155 34158 34161 34164 34167 34170 34173 34176 34179 34182 34185 34188 34191 34194 34197 34200 34203 34206 34209 34212 34215 34218 34221 34224 34227 34230 34233 34236 34239 34242 34245 34248 34251 34254 34257 34260 34263 34266 34269 34272 34275 34278 34281 34284 34287 34290 34293 34296 34299 34302 34305 34308 34311 34314 34317 34320 34323 34326 34329 34332 34335 34338 34341 34344 34347 34350 34353 34356 34359 34362 34365 34368 34371 34374 34377 34380 34383 34386 34389 34392 34395 34398 34401 34404 34407 34410 34413 34416 34419 34422 34425 34428 34431 34434 34437 34440 34443 34446 34449 34452 34455 34458 34461 34464 34467 34470 34473 34476 34479 34482 34485 34488 34491 34494 34497 34500 34503 34506 34509 34512 34515 34518 34521 34524 34527 34530 34533 34536 34539 34542 34545 34548 34551 34554 34557 34560 34563 34566 34569 34572 34575 34578 34581 34584 34587 34590 34593 34596 34599 34602 34605 34608 34611 34614 34617 34620 34623 34626 34629 34632 34635 34638 34641 34644 34647 34650 34653 34656 34659 34662 34665 34668 34671 34674 34677 34680 34683 34686 34689 34692 34695 34698 34701 34704 34707 34710 34713 34716 34719 34722 34725 34728 34731 34734 34737 34740 34743 34746 34749 34752 34755 34758 34761 34764 34767 34770 34773 34776 34779 34782 34785 34788 34791 34794 34797 34800 34803 34806 34809 34812 34815 34818 34821 34824 34827 34830 34833 34836 34839 34842 34845 34848 34851 34854 34857 34860 34863 34866 34869 34872 34875 34878 34881 34884 34887 34890 34893 34896 34899 34902 34905 34908 34911 34914 34917 34920 34923 34926 34929 34932 34935 34938 34941 34944 34947 34950 34953 34956 34959 34962 34965 34968 34971 34974 34977 34980 34983 34986 34989 34992 34995 34998 35001 35004 35007 35010 35013 35016 35019 35022 35025 35028 35031 35034 35037 35040 35043 35046 35049 35052 35055 35058 35061 35064 35067 35070 35073 35076 35079 35082 35085 35088 35091 35094 35097 35100 35103 35106 35109 35112 35115 35118 35121 35124 35127 35130 35133 35136 35139 35142 35145 35148 35151 35154 35157 35160 35163 35166 35169 35172 35175 35178 35181 35184 35187 35190 35193 35196 35199 35202 35205 35208 35211 35214 35217 35220 35223 35226 35229 35232 35235 35238 35241 35244 35247 35250 35253 35256 35259 35262 35265 35268 35271 35274 35277 35280 35283 35286 35289 35292 35295 35298 35301 35304 35307 35310 35313 35316 35319 35322 35325 35328 35331 35334 35337 35340 35343 35346 35349 35352 35355 35358 35361 35364 35367 35370 35373 35376 35379 35382 35385 35388 35391 35394 35397 35400 35403 35406 35409 35412 35415 35418 35421 35424 35427 35430 35433 35436 35439 35442 35445 35448 35451 35454 35457 35460 35463 35466 35469 35472 35475 35478 35481 35484 35487 35490 35493 35496 35499 35502 35505 35508 35511 35514 35517 35520 35523 35526 35529 35532 35535 35538 35541 35544 35547 35550 35553 35556 35559 35562 35565 35568 35571 35574 35577 35580 35583 35586 35589 35592 35595 35598 35601 35604 35607 35610 35613 35616 35619 35622 35625 35628 35631 35634 35637 35640 35643 35646 35649 35652 35655 35658 35661 35664 35667 35670 35673 35676 35679 35682 35685 35688 35691 35694 35697 35700 35703 35706 35709 35712 35715 35718 35721 35724 35727 35730 35733 35736 35739 35742 35745 35748 35751 35754 35757 35760 35763 35766 35769 35772 35775 35778 35781 35784 35787 35790 35793 35796 35799 35802 35805 35808 35811 35814 35817 35820 35823 35826 35829 35832 35835 35838 35841 35844 35847 35850 35853 35856 35859 35862 35865 35868 35871 35874 35877 35880 35883 35886 35889 35892 35895 35898 35901 35904 35907 35910 35913 35916 35919 35922 35925 35928 35931 35934 35937 35940 35943 35946 35949 35952 35955 35958 35961 35964 35967 35970 35973 35976 35979 35982 35985 35988 35991 35994 35997 36000 36003 36006 36009 36012 36015 36018 36021 36024 36027 36030 36033 36036 36039 36042 36045 36048 36051 36054 36057 36060 36063 36066 36069 36072 36075 36078 36081 36084 36087 36090 36093 36096 36099 36102 36105 36108 36111 36114 36117 36120 36123 36126 36129 36132 36135 36138 36141 36144 36147 36150 36153 36156 36159 36162 36165 36168 36171 36174 36177 36180 36183 36186 36189 36192 36195 36198 36201 36204 36207 36210 36213 36216 36219 36222 36225 36228 36231 36234 36237 36240 36243 36246 36249 36252 36255 36258 36261 36264 36267 36270 36273 36276 36279 36282 36285 36288 36291 36294 36297 36300 36303 36306 36309 36312 36315 36318 36321 36324 36327 36330 36333 36336 36339 36342 36345 36348 36351 36354 36357 36360 36363 36366 36369 36372 36375 36378 36381 36384 36387 36390 36393 36396 36399 36402 36405 36408 36411 36414 36417 36420 36423 36426 36429 36432 36435 36438 36441 36444 36447 36450 36453 36456 36459 36462 36465 36468 36471 36474 36477 36480 36483 36486 36489 36492 36495 36498 36501 36504 36507 36510 36513 36516 36519 36522 36525 36528 36531 36534 36537 36540 36543 36546 36549 36552 36555 36558 36561 36564 36567 36570 36573 36576 36579 36582 36585 36588 36591 36594 36597 36600 36603 36606 36609 36612 36615 36618 36621 36624 36627 36630 36633 36636 36639 36642 36645 36648 36651 36654 36657 36660 36663 36666 36669 36672 36675 36678 36681 36684 36687 36690 36693 36696 36699 36702 36705 36708 36711 36714 36717 36720 36723 36726 36729 36732 36735 36738 36741 36744 36747 36750 36753 36756 36759 36762 36765 36768 36771 36774 36777 36780 36783 36786 36789 36792 36795 36798 36801 36804 36807 36810 36813 36816 36819 36822 36825 36828 36831 36834 36837 36840 36843 36846 36849 36852 36855 36858 36861 36864 36867 36870 36873 36876 36879 36882 36885 36888 36891 36894 36897 36900 36903 36906 36909 36912 36915 36918 36921 36924 36927 36930 36933 36936 36939 36942 36945 36948 36951 36954 36957 36960 36963 36966 36969 36972 36975 36978 36981 36984 36987 36990 36993 36996 36999 37002 37005 37008 37011 37014 37017 37020 37023 37026 37029 37032 37035 37038 37041 37044 37047 37050 37053 37056 37059 37062 37065 37068 37071 37074 37077 37080 37083 37086 37089 37092 37095 37098 37101 37104 37107 37110 37113 37116 37119 37122 37125 37128 37131 37134 37137 37140 37143 37146 37149 37152 37155 37158 37161 37164 37167 37170 37173 37176 37179 37182 37185 37188 37191 37194 37197 37200 37203 37206 37209 37212 37215 37218 37221 37224 37227 37230 37233 37236 37239 37242 37245 37248 37251 37254 37257 37260 37263 37266 37269 37272 37275 37278 37281 37284 37287 37290 37293 37296 37299 37302 37305 37308 37311 37314 37317 37320 37323 37326 37329 37332 37335 37338 37341 37344 37347 37350 37353 37356 37359 37362 37365 37368 37371 37374 37377 37380 37383 37386 37389 37392 37395 37398 37401 37404 37407 37410 37413 37416 37419 37422 37425 37428 37431 37434 37437 37440 37443 37446 37449 37452 37455 37458 37461 37464 37467 37470 37473 37476 37479 37482 37485 37488 37491 37494 37497 37500 37503 37506 37509 37512 37515 37518 37521 37524 37527 37530 37533 37536 37539 37542 37545 37548 37551 37554 37557 37560 37563 37566 37569 37572 37575 37578 37581 37584 37587 37590 37593 37596 37599 37602 37605 37608 37611 37614 37617 37620 37623 37626 37629 37632 37635 37638 37641 37644 37647 37650 37653 37656 37659 37662 37665 37668 37671 37674 37677 37680 37683 37686 37689 37692 37695 37698 37701 37704 37707 37710 37713 37716 37719 37722 37725 37728 37731 37734 37737 37740 37743 37746 37749 37752 37755 37758 37761 37764 37767 37770 37773 37776 37779 37782 37785 37788 37791 37794 37797 37800 37803 37806 37809 37812 37815 37818 37821 37824 37827 37830 37833 37836 37839 37842 37845 37848 37851 37854 37857 37860 37863 37866 37869 37872 37875 37878 37881 37884 37887 37890 37893 37896 37899 37902 37905 37908 37911 37914 37917 37920 37923 37926 37929 37932 37935 37938 37941 37944 37947 37950 37953 37956 37959 37962 37965 37968 37971 37974 37977 37980 37983 37986 37989 37992 37995 37998 38001 38004 38007 38010 38013 38016 38019 38022 38025 38028 38031 38034 38037 38040 38043 38046 38049 38052 38055 38058 38061 38064 38067 38070 38073 38076 38079 38082 38085 38088 38091 38094 38097 38100 38103 38106 38109 38112 38115 38118 38121 38124 38127 38130 38133 38136 38139 38142 38145 38148 38151 38154 38157 38160 38163 38166 38169 38172 38175 38178 38181 38184 38187 38190 38193 38196 38199 38202 38205 38208 38211 38214 38217 38220 38223 38226 38229 38232 38235 38238 38241 38244 38247 38250 38253 38256 38259 38262 38265 38268 38271 38274 38277 38280 38283 38286 38289 38292 38295 38298 38301 38304 38307 38310 38313 38316 38319 38322 38325 38328 38331 38334 38337 38340 38343 38346 38349 38352 38355 38358 38361 38364 38367 38370 38373 38376 38379 38382 38385 38388 38391 38394 38397 38400 38403 38406 38409 38412 38415 38418 38421 38424 38427 38430 38433 38436 38439 38442 38445 38448 38451 38454 38457 38460 38463 38466 38469 38472 38475 38478 38481 38484 38487 38490 38493 38496 38499 38502 38505 38508 38511 38514 38517 38520 38523 38526 38529 38532 38535 38538 38541 38544 38547 38550 38553 38556 38559 38562 38565 38568 38571 38574 38577 38580 38583 38586 38589 38592 38595 38598 38601 38604 38607 38610 38613 38616 38619 38622 38625 38628 38631 38634 38637 38640 38643 38646 38649 38652 38655 38658 38661 38664 38667 38670 38673 38676 38679 38682 38685 38688 38691 38694 38697 38700 38703 38706 38709 38712 38715 38718 38721 38724 38727 38730 38733 38736 38739 38742 38745 38748 38751 38754 38757 38760 38763 38766 38769 38772 38775 38778 38781 38784 38787 38790 38793 38796 38799 38802 38805 38808 38811 38814 38817 38820 38823 38826 38829 38832 38835 38838 38841 38844 38847 38850 38853 38856 38859 38862 38865 38868 38871 38874 38877 38880 38883 38886 38889 38892 38895 38898 38901 38904 38907 38910 38913 38916 38919 38922 38925 38928 38931 38934 38937 38940 38943 38946 38949 38952 38955 38958 38961 38964 38967 38970 38973 38976 38979 38982 38985 38988 38991 38994 38997 39000 39003 39006 39009 39012 39015 39018 39021 39024 39027 39030 39033 39036 39039 39042 39045 39048 39051 39054 39057 39060 39063 39066 39069 39072 39075 39078 39081 39084 39087 39090 39093 39096 39099 39102 39105 39108 39111 39114 39117 39120 39123 39126 39129 39132 39135 39138 39141 39144 39147 39150 39153 39156 39159 39162 39165 39168 39171 39174 39177 39180 39183 39186 39189 39192 39195 39198 39201 39204 39207 39210 39213 39216 39219 39222 39225 39228 39231 39234 39237 39240 39243 39246 39249 39252 39255 39258 39261 39264 39267 39270 39273 39276 39279 39282 39285 39288 39291 39294 39297 39300 39303 39306 39309 39312 39315 39318 39321 39324 39327 39330 39333 39336 39339 39342 39345 39348 39351 39354 39357 39360 39363 39366 39369 39372 39375 39378 39381 39384 39387 39390 39393 39396 39399 39402 39405 39408 39411 39414 39417 39420 39423 39426 39429 39432 39435 39438 39441 39444 39447 39450 39453 39456 39459 39462 39465 39468 39471 39474 39477 39480 39483 39486 39489 39492 39495 39498 39501 39504 39507 39510 39513 39516 39519 39522 39525 39528 39531 39534 39537 39540 39543 39546 39549 39552 39555 39558 39561 39564 39567 39570 39573 39576 39579 39582 39585 39588 39591 39594 39597 39600 39603 39606 39609 39612 39615 39618 39621 39624 39627 39630 39633 39636 39639 39642 39645 39648 39651 39654 39657 39660 39663 39666 39669 39672 39675 39678 39681 39684 39687 39690 39693 39696 39699 39702 39705 39708 39711 39714 39717 39720 39723 39726 39729 39732 39735 39738 39741 39744 39747 39750 39753 39756 39759 39762 39765 39768 39771 39774 39777 39780 39783 39786 39789 39792 39795 39798 39801 39804 39807 39810 39813 39816 39819 39822 39825 39828 39831 39834 39837 39840 39843 39846 39849 39852 39855 39858 39861 39864 39867 39870 39873 39876 39879 39882 39885 39888 39891 39894 39897 39900 39903 39906 39909 39912 39915 39918 39921 39924 39927 39930 39933 39936 39939 39942 39945 39948 39951 39954 39957 39960 39963 39966 39969 39972 39975 39978 39981 39984 39987 39990 39993 39996 39999 40002 40005 40008 40011 40014 40017 40020 40023 40026 40029 40032 40035 40038 40041 40044 40047 40050 40053 40056 40059 40062 40065 40068 40071 40074 40077 40080 40083 40086 40089 40092 40095 40098 40101 40104 40107 40110 40113 40116 40119 40122 40125 40128 40131 40134 40137 40140 40143 40146 40149 40152 40155 40158 40161 40164 40167 40170 40173 40176 40179 40182 40185 40188 40191 40194 40197 40200 40203 40206 40209 40212 40215 40218 40221 40224 40227 40230 40233 40236 40239 40242 40245 40248 40251 40254 40257 40260 40263 40266 40269 40272 40275 40278 40281 40284 40287 40290 40293 40296 40299 40302 40305 40308 40311 40314 40317 40320 40323 40326 40329 40332 40335 40338 40341 40344 40347 40350 40353 40356 40359 40362 40365 40368 40371 40374 40377 40380 40383 40386 40389 40392 40395 40398 40401 40404 40407 40410 40413 40416 40419 40422 40425 40428 40431 40434 40437 40440 40443 40446 40449 40452 40455 40458 40461 40464 40467 40470 40473 40476 40479 40482 40485 40488 40491 40494 40497 40500 40503 40506 40509 40512 40515 40518 40521 40524 40527 40530 40533 40536 40539 40542 40545 40548 40551 40554 40557 40560 40563 40566 40569 40572 40575 40578 40581 40584 40587 40590 40593 40596 40599 40602 40605 40608 40611 40614 40617 40620 40623 40626 40629 40632 40635 40638 40641 40644 40647 40650 40653 40656 40659 40662 40665 40668 40671 40674 40677 40680 40683 40686 40689 40692 40695 40698 40701 40704 40707 40710 40713 40716 40719 40722 40725 40728 40731 40734 40737 40740 40743 40746 40749 40752 40755 40758 40761 40764 40767 40770 40773 40776 40779 40782 40785 40788 40791 40794 40797 40800 40803 40806 40809 40812 40815 40818 40821 40824 40827 40830 40833 40836 40839 40842 40845 40848 40851 40854 40857 40860 40863 40866 40869 40872 40875 40878 40881 40884 40887 40890 40893 40896 40899 40902 40905 40908 40911 40914 40917 40920 40923 40926 40929 40932 40935 40938 40941 40944 40947 40950 40953 40956 40959 40962 40965 40968 40971 40974 40977 40980 40983 40986 40989 40992 40995 40998 41001 41004 41007 41010 41013 41016 41019 41022 41025 41028 41031 41034 41037 41040 41043 41046 41049 41052 41055 41058 41061 41064 41067 41070 41073 41076 41079 41082 41085 41088 41091 41094 41097 41100 41103 41106 41109 41112 41115 41118 41121 41124 41127 41130 41133 41136 41139 41142 41145 41148 41151 41154 41157 41160 41163 41166 41169 41172 41175 41178 41181 41184 41187 41190 41193 41196 41199 41202 41205 41208 41211 41214 41217 41220 41223 41226 41229 41232 41235 41238 41241 41244 41247 41250 41253 41256 41259 41262 41265 41268 41271 41274 41277 41280 41283 41286 41289 41292 41295 41298 41301 41304 41307 41310 41313 41316 41319 41322 41325 41328 41331 41334 41337 41340 41343 41346 41349 41352 41355 41358 41361 41364 41367 41370 41373 41376 41379 41382 41385 41388 41391 41394 41397 41400 41403 41406 41409 41412 </DataArray>
        <DataArray type="Int8" Name="types" format="ascii">69 69 69 69 69 69 69 69 69 69 69 69 69 69 69 69 69 69 69 69 69 69 69 69 69 69 69 69 69 69 69 69 69 69 69 69 69 69 69 69 69 69 69 69 69 69 69 69 69 69 69 69 69 69 69 69 69 69 69 69 69 69 69 69 69 69 69 69 69 69 69 69 69 69 69 69 69 69 69 69 69 69 69 69 69 69 69 69 69 69 69 69 69 69 69 69 69 69 69 69 69 69 69 69 69 69 69 69 69 69 69 69 69 69 69 69 69 69 69 69 69 69 69 69 69 69 69 69 69 69 69 69 69 69 69 69 69 69 69 69 69 69 69 69 69 69 69 69 69 69 69 69 69 69 69 69 69 69 69 69 69 69 69 69 69 69 69 69 69 69 69 69 69 69 69 69 69 69 69 69 69 69 69 69 69 69 69 69 69 69 69 69 69 69 69 69 69 69 69 69 69 69 69 69 69 69 69 69 69 69 69 69 69 69 69 69 69 69 69 69 69 69 69 69 69 69 69 69 69 69 69 69 69 69 69 69 69 69 69 69 69 69 69 69 69 69 69 69 69 69 69 69 69 69 69 69 69 69 69 69 69 69 69 69 69 69 69 69 69 69 69 69 69 69 69 69 69 69 69 69 69 69 69 69 69 69 69 69 69 69 69 69 69 69 69 69 69 69 69 69 69 69 69 69 69 69 69 69 69 69 69 69 69 69 69 69 69 69 69 69 69 69 69 69 69 69 69 69 69 69 69 69 69 69 69 69 69 69 69 69 69 69 69 69 69 69 69 69 69 69 69 69 69 69 69 69 69 69 69 69 69 69 69 69 69 69 69 69 69 69 69 69 69 69 69 69 69 69 69 69 69 69 69 69 69 69 69 69 69 69 69 69 69 69 69 69 69 69 69 69 69 69 69 69 69 69 69 69 69 69 69 69 69 69 69 69 69 69 69 69 69 69 69 69 69 69 69 69 69 69 69 69 69 69 69 69 69 69 69 69 69 69 69 69 69 69 69 69 69 69 69 69 69 69 69 69 69 69 69 69 69 69 69 69 69 69 69 69 69 69 69 69 69 69 69 69 69 69 69 69 69 69 69 69 69 69 69 69 69 69 69 69 69 69 69 69 69 69 69 69 69 69 69 69 69 69 69 69 69 69 69 69 69 69 69 69 69 69 69 69 69 69 69 69 69 69 69 69 69 69 69 69 69 69 69 69 69 69 69 69 69 69 69 69 69 69 69 69 69 69 69 69 69 69 69 69 69 69 69 69 69 69 69 69 69 69 69 69 69 69 69 69 69 69 69 69 69 69 69 69 69 69 69 69 69 69 69 69 69 69 69 69 69 69 69 69 69 69 69 69 69 69 69 69 69 69 69 69 69 69 69 69 69 69 69 69 69 69 69 69 69 69 69 69 69 69 69 69 69 69 69 69 69 69 69 69 69 69 69 69 69 69 69 69 69 69 69 69 69 69 69 69 69 69 69 69 69 69 69 69 69 69 69 69 69 69 69 69 69 69 69 69 69 69 69 69 69 69 69 69 69 69 69 69 69 69 69 69 69 69 69 69 69 69 69 69 69 69 69 69 69 69 69 69 69 69 69 69 69 69 69 69 69 69 69 69 69 69 69 69 69 69 69 69 69 69 69 69 69 69 69 69 69 69 69 69 69 69 69 69 69 69 69 69 69 69 69 69 69 69 69 69 69 69 69 69 69 69 69 69 69 69 69 69 69 69 69 69 69 69 69 69 69 69 69 69 69 69 69 69 69 69 69 69 69 69 69 69 69 69 69 69 69 69 69 69 69 69 69 69 69 69 69 69 69 69 69 69 69 69 69 69 69 69 69 69 69 69 69 69 69 69 69 69 69 69 69 69 69 69 69 69 69 69 69 69 69 69 69 69 69 69 69 69 69 69 69 69 69 69 69 69 69 69 69 69 69 69 69 69 69 69 69 69 69 69 69 69 69 69 69 69 69 69 69 69 69 69 69 69 69 69 69 69 69 69 69 69 69 69 69 69 69 69 69 69 69 69 69 69 69 69 69 69 69 69 69 69 69 69 69 69 69 69 69 69 69 69 69 69 69 69 69 69 69 69 69 69 69 69 69 69 69 69 69 69 69 69 69 69 69 69 69 69 69 69 69 69 69 69 69 69 69 69 69 69 69 69 69 69 69 69 69 69 69 69 69 69 69 69 69 69 69 69 69 69 69 69 69 69 69 69 69 69 69 69 69 69 69 69 69 69 69 69 69 69 69 69 69 69 69 69 69 69 69 69 69 69 69 69 69 69 69 69 69 69 69 69 69 69 69 69 69 69 69 69 69 69 69 69 69 69 69 69 69 69 69 69 69 69 69 69 69 69 69 69 69 69 69 69 69 69 69 69 69 69 69 69 69 69 69 69 69 69 69 69 69 69 69 69 69 69 69 69 69 69 69 69 69 69 69 69 69 69 69 69 69 69 69 69 69 69 69 69 69 69 69 69 69 69 69 69 69 69 69 69 69 69 69 69 69 69 69 69 69 69 69 69 69 69 69 69 69 69 69 69 69 69 69 69 69 69 69 69 69 69 69 69 69 69 69 69 69 69 69 69 69 69 69 69 69 69 69 69 69 69 69 69 69 69 69 69 69 69 69 69 69 69 69 69 69 69 69 69 69 69 69 69 69 69 69 69 69 69 69 69 69 69 69 69 69 69 69 69 69 69 69 69 69 69 69 69 69 69 69 69 69 69 69 69 69 69 69 69 69 69 69 69 69 69 69 69 69 69 69 69 69 69 69 69 69 69 69 69 69 69 69 69 69 69 69 69 69 69 69 69 69 69 69 69 69 69 69 69 69 69 69 69 69 69 69 69 69 69 69 69 69 69 69 69 69 69 69 69 69 69 69 69 69 69 69 69 69 69 69 69 69 69 69 69 69 69 69 69 69 69 69 69 69 69 69 69 69 69 69 69 69 69 69 69 69 69 69 69 69 69 69 69 69 69 69 69 69 69 69 69 69 69 69 69 69 69 69 69 69 69 69 69 69 69 69 69 69 69 69 69 69 69 69 69 69 69 69 69 69 69 69 69 69 69 69 69 69 69 69 69 69 69 69 69 69 69 69 69 69 69 69 69 69 69 69 69 69 69 69 69 69 69 69 69 69 69 69 69 69 69 69 69 69 69 69 69 69 69 69 69 69 69 69 69 69 69 69 69 69 69 69 69 69 69 69 69 69 69 69 69 69 69 69 69 69 69 69 69 69 69 69 69 69 69 69 69 69 69 69 69 69 69 69 69 69 69 69 69 69 69 69 69 69 69 69 69 69 69 69 69 69 69 69 69 69 69 69 69 69 69 69 69 69 69 69 69 69 69 69 69 69 69 69 69 69 69 69 69 69 69 69 69 69 69 69 69 69 69 69 69 69 69 69 69 69 69 69 69 69 69 69 69 69 69 69 69 69 69 69 69 69 69 69 69 69 69 69 69 69 69 69 69 69 69 69 69 69 69 69 69 69 69 69 69 69 69 69 69 69 69 69 69 69 69 69 69 69 69 69 69 69 69 69 69 69 69 69 69 69 69 69 69 69 69 69 69 69 69 69 69 69 69 69 69 69 69 69 69 69 69 69 69 69 69 69 69 69 69 69 69 69 69 69 69 69 69 69 69 69 69 69 69 69 69 69 69 69 69 69 69 69 69 69 69 69 69 69 69 69 69 69 69 69 69 69 69 69 69 69 69 69 69 69 69 69 69 69 69 69 69 69 69 69 69 69 69 69 69 69 69 69 69 69 69 69 69 69 69 69 69 69 69 69 69 69 69 69 69 69 69 69 69 69 69 69 69 69 69 69 69 69 69 69 69 69 69 69 69 69 69 69 69 69 69 69 69 69 69 69 69 69 69 69 69 69 69 69 69 69 69 69 69 69 69 69 69 69 69 69 69 69 69 69 69 69 69 69 69 69 69 69 69 69 69 69 69 69 69 69 69 69 69 69 69 69 69 69 69 69 69 69 69 69 69 69 69 69 69 69 69 69 69 69 69 69 69 69 69 69 69 69 69 69 69 69 69 69 69 69 69 69 69 69 69 69 69 69 69 69 69 69 69 69 69 69 69 69 69 69 69 69 69 69 69 69 69 69 69 69 69 69 69 69 69 69 69 69 69 69 69 69 69 69 69 69 69 69 69 69 69 69 69 69 69 69 69 69 69 69 69 69 69 69 69 69 69 69 69 69 69 69 69 69 69 69 69 69 69 69 69 69 69 69 69 69 69 69 69 69 69 69 69 69 69 69 69 69 69 69 69 69 69 69 69 69 69 69 69 69 69 69 69 69 69 69 69 69 69 69 69 69 69 69 69 69 69 69 69 69 69 69 69 69 69 69 69 69 69 69 69 69 69 69 69 69 69 69 69 69 69 69 69 69 69 69 69 69 69 69 69 69 69 69 69 69 69 69 69 69 69 69 69 69 69 69 69 69 69 69 69 69 69 69 69 69 69 69 69 69 69 69 69 69 69 69 69 69 69 69 69 69 69 69 69 69 69 69 69 69 69 69 69 69 69 69 69 69 69 69 69 69 69 69 69 69 69 69 69 69 69 69 69 69 69 69 69 69 69 69 69 69 69 69 69 69 69 69 69 69 69 69 69 69 69 69 69 69 69 69 69 69 69 69 69 69 69 69 69 69 69 69 69 69 69 69 69 69 69 69 69 69 69 69 69 69 69 69 69 69 69 69 69 69 69 69 69 69 69 69 69 69 69 69 69 69 69 69 69 69 69 69 69 69 69 69 69 69 69 69 69 69 69 69 69 69 69 69 69 69 69 69 69 69 69 69 69 69 69 69 69 69 69 69 69 69 69 69 69 69 69 69 69 69 69 69 69 69 69 69 69 69 69 69 69 69 69 69 69 69 69 69 69 69 69 69 69 69 69 69 69 69 69 69 69 69 69 69 69 69 69 69 69 69 69 69 69 69 69 69 69 69 69 69 69 69 69 69 69 69 69 69 69 69 69 69 69 69 69 69 69 69 69 69 69 69 69 69 69 69 69 69 69 69 69 69 69 69 69 69 69 69 69 69 69 69 69 69 69 69 69 69 69 69 69 69 69 69 69 69 69 69 69 69 69 69 69 69 69 69 69 69 69 69 69 69 69 69 69 69 69 69 69 69 69 69 69 69 69 69 69 69 69 69 69 69 69 69 69 69 69 69 69 69 69 69 69 69 69 69 69 69 69 69 69 69 69 69 69 69 69 69 69 69 69 69 69 69 69 69 69 69 69 69 69 69 69 69 69 69 69 69 69 69 69 69 69 69 69 69 69 69 69 69 69 69 69 69 69 69 69 69 69 69 69 69 69 69 69 69 69 69 69 69 69 69 69 69 69 69 69 69 69 69 69 69 69 69 69 69 69 69 69 69 69 69 69 69 69 69 69 69 69 69 69 69 69 69 69 69 69 69 69 69 69 69 69 69 69 69 69 69 69 69 69 69 69 69 69 69 69 69 69 69 69 69 69 69 69 69 69 69 69 69 69 69 69 69 69 69 69 69 69 69 69 69 69 69 69 69 69 69 69 69 69 69 69 69 69 69 69 69 69 69 69 69 69 69 69 69 69 69 69 69 69 69 69 69 69 69 69 69 69 69 69 69 69 69 69 69 69 69 69 69 69 69 69 69 69 69 69 69 69 69 69 69 69 69 69 69 69 69 69 69 69 69 69 69 69 69 69 69 69 69 69 69 69 69 69 69 69 69 69 69 69 69 69 69 69 69 69 69 69 69 69 69 69 69 69 69 69 69 69 69 69 69 69 69 69 69 69 69 69 69 69 69 69 69 69 69 69 69 69 69 69 69 69 69 69 69 69 69 69 69 69 69 69 69 69 69 69 69 69 69 69 69 69 69 69 69 69 69 69 69 69 69 69 69 69 69 69 69 69 69 69 69 69 69 69 69 69 69 69 69 69 69 69 69 69 69 69 69 69 69 69 69 69 69 69 69 69 69 69 69 69 69 69 69 69 69 69 69 69 69 69 69 69 69 69 69 69 69 69 69 69 69 69 69 69 69 69 69 69 69 69 69 69 69 69 69 69 69 69 69 69 69 69 69 69 69 69 69 69 69 69 69 69 69 69 69 69 69 69 69 69 69 69 69 69 69 69 69 69 69 69 69 69 69 69 69 69 69 69 69 69 69 69 69 69 69 69 69 69 69 69 69 69 69 69 69 69 69 69 69 69 69 69 69 69 69 69 69 69 69 69 69 69 69 69 69 69 69 69 69 69 69 69 69 69 69 69 69 69 69 69 69 69 69 69 69 69 69 69 69 69 69 69 69 69 69 69 69 69 69 69 69 69 69 69 69 69 69 69 69 69 69 69 69 69 69 69 69 69 69 69 69 69 69 69 69 69 69 69 69 69 69 69 69 69 69 69 69 69 69 69 69 69 69 69 69 69 69 69 69 69 69 69 69 69 69 69 69 69 69 69 69 69 69 69 69 69 69 69 69 69 69 69 69 69 69 69 69 69 69 69 69 69 69 69 69 69 69 69 69 69 69 69 69 69 69 69 69 69 69 69 69 69 69 69 69 69 69 69 69 69 69 69 69 69 69 69 69 69 69 69 69 69 69 69 69 69 69 69 69 69 69 69 69 69 69 69 69 69 69 69 69 69 69 69 69 69 69 69 69 69 69 69 69 69 69 69 69 69 69 69 69 69 69 69 69 69 69 69 69 69 69 69 69 69 69 69 69 69 69 69 69 69 69 69 69 69 69 69 69 69 69 69 69 69 69 69 69 69 69 69 69 69 69 69 69 69 69 69 69 69 69 69 69 69 69 69 69 69 69 69 69 69 69 69 69 69 69 69 69 69 69 69 69 69 69 69 69 69 69 69 69 69 69 69 69 69 69 69 69 69 69 69 69 69 69 69 69 69 69 69 69 69 69 69 69 69 69 69 69 69 69 69 69 69 69 69 69 69 69 69 69 69 69 69 69 69 69 69 69 69 69 69 69 69 69 69 69 69 69 69 69 69 69 69 69 69 69 69 69 69 69 69 69 69 69 69 69 69 69 69 69 69 69 69 69 69 69 69 69 69 69 69 69 69 69 69 69 69 69 69 69 69 69 69 69 69 69 69 69 69 69 69 69 69 69 69 69 69 69 69 69 69 69 69 69 69 69 69 69 69 69 69 69 69 69 69 69 69 69 69 69 69 69 69 69 69 69 69 69 69 69 69 69 69 69 69 69 69 69 69 69 69 69 69 69 69 69 69 69 69 69 69 69 69 69 69 69 69 69 69 69 69 69 69 69 69 69 69 69 69 69 69 69 69 69 69 69 69 69 69 69 69 69 69 69 69 69 69 69 69 69 69 69 69 69 69 69 69 69 69 69 69 69 69 69 69 69 69 69 69 69 69 69 69 69 69 69 69 69 69 69 69 69 69 69 69 69 69 69 69 69 69 69 69 69 69 69 69 69 69 69 69 69 69 69 69 69 69 69 69 69 69 69 69 69 69 69 69 69 69 69 69 69 69 69 69 69 69 69 69 69 69 69 69 69 69 69 69 69 69 69 69 69 69 69 69 69 69 69 69 69 69 69 69 69 69 69 69 69 69 69 69 69 69 69 69 69 69 69 69 69 69 69 69 69 69 69 69 69 69 69 69 69 69 69 69 69 69 69 69 69 69 69 69 69 69 69 69 69 69 69 69 69 69 69 69 69 69 69 69 69 69 69 69 69 69 69 69 69 69 69 69 69 69 69 69 69 69 69 69 69 69 69 69 69 69 69 69 69 69 69 69 69 69 69 69 69 69 69 69 69 69 69 69 69 69 69 69 69 69 69 69 69 69 69 69 69 69 69 69 69 69 69 69 69 69 69 69 69 69 69 69 69 69 69 69 69 69 69 69 69 69 69 69 69 69 69 69 69 69 69 69 69 69 69 69 69 69 69 69 69 69 69 69 69 69 69 69 69 69 69 69 69 69 69 69 69 69 69 69 69 69 69 69 69 69 69 69 69 69 69 69 69 69 69 69 69 69 69 69 69 69 69 69 69 69 69 69 69 69 69 69 69 69 69 69 69 69 69 69 69 69 69 69 69 69 69 69 69 69 69 69 69 69 69 69 69 69 69 69 69 69 69 69 69 69 69 69 69 69 69 69 69 69 69 69 69 69 69 69 69 69 69 69 69 69 69 69 69 69 69 69 69 69 69 69 69 69 69 69 69 69 69 69 69 69 69 69 69 69 69 69 69 69 69 69 69 69 69 69 69 69 69 69 69 69 69 69 69 69 69 69 69 69 69 69 69 69 69 69 69 69 69 69 69 69 69 69 69 69 69 69 69 69 69 69 69 69 69 69 69 69 69 69 69 69 69 69 69 69 69 69 69 69 69 69 69 69 69 69 69 69 69 69 69 69 69 69 69 69 69 69 69 69 69 69 69 69 69 69 69 69 69 69 69 69 69 69 69 69 69 69 69 69 69 69 69 69 69 69 69 69 69 69 69 69 69 69 69 69 69 69 69 69 69 69 69 69 69 69 69 69 69 69 69 69 69 69 69 69 69 69 69 69 69 69 69 69 69 69 69 69 69 69 69 69 69 69 69 69 69 69 69 69 69 69 69 69 69 69 69 69 69 69 69 69 69 69 69 69 69 69 69 69 69 69 69 69 69 69 69 69 69 69 69 69 69 69 69 69 69 69 69 69 69 69 69 69 69 69 69 69 69 69 69 69 69 69 69 69 69 69 69 69 69 69 69 69 69 69 69 69 69 69 69 69 69 69 69 69 69 69 69 69 69 69 69 69 69 69 69 69 69 69 69 69 69 69 69 69 69 69 69 69 69 69 69 69 69 69 69 69 69 69 69 69 69 69 69 69 69 69 69 69 69 69 69 69 69 69 69 69 69 69 69 69 69 69 69 69 69 69 69 69 69 69 69 69 69 69 69 69 69 69 69 69 69 69 69 69 69 69 69 69 69 69 69 69 69 69 69 69 69 69 69 69 69 69 69 69 69 69 69 69 69 69 69 69 69 69 69 69 69 69 69 69 69 69 69 69 69 69 69 69 69 69 69 69 69 69 69 69 69 69 69 69 69 69 69 69 69 69 69 69 69 69 69 69 69 69 69 69 69 69 69 69 69 69 69 69 69 69 69 69 69 69 69 69 69 69 69 69 69 69 69 69 69 69 69 69 69 69 69 69 69 69 69 69 69 69 69 69 69 69 69 69 69 69 69 69 69 69 69 69 69 69 69 69 69 69 69 69 69 69 69 69 69 69 69 69 69 69 69 69 69 69 69 69 69 69 69 69 69 69 69 69 69 69 69 69 69 69 69 69 69 69 69 69 69 69 69 69 69 69 69 69 69 69 69 69 69 69 69 69 69 69 69 69 69 69 69 69 69 69 69 69 69 69 69 69 69 69 69 69 69 69 69 69 69 69 69 69 69 69 69 69 69 69 69 69 69 69 69 69 69 69 69 69 69 69 69 69 69 69 69 69 69 69 69 69 69 69 69 69 69 69 69 69 69 69 69 69 69 69 69 69 69 69 69 69 69 69 69 69 69 69 69 69 69 69 69 69 69 69 69 69 69 69 69 69 69 69 69 69 69 69 69 69 69 69 69 69 69 69 69 69 69 69 69 69 69 69 69 69 69 69 69 69 69 69 69 69 69 69 69 69 69 69 69 69 69 69 69 69 69 69 69 69 69 69 69 69 69 69 69 69 69 69 69 69 69 69 69 69 69 69 69 69 69 69 69 69 69 69 69 69 69 69 69 69 69 69 69 69 69 69 69 69 69 69 69 69 69 69 69 69 69 69 69 69 69 69 69 69 69 69 69 69 69 69 69 69 69 69 69 69 69 69 69 69 69 69 69 69 69 69 69 69 69 69 69 69 69 69 69 69 69 69 69 69 69 69 69 69 69 69 69 69 69 69 69 69 69 69 69 69 69 69 69 69 69 69 69 69 69 69 69 69 69 69 69 69 69 69 69 69 69 69 69 69 69 69 69 69 69 69 69 69 69 69 69 69 69 69 69 69 69 69 69 69 69 69 69 69 69 69 69 69 69 69 69 69 69 69 69 69 69 69 69 69 69 69 69 69 69 69 69 69 69 69 69 69 69 69 69 69 69 69 69 69 69 69 69 69 69 69 69 69 69 69 69 69 69 69 69 69 69 69 69 69 69 69 69 69 69 69 69 69 69 69 69 69 69 69 69 69 69 69 69 69 69 69 69 69 69 69 69 69 69 69 69 69 69 69 69 69 69 69 69 69 69 69 69 69 69 69 69 69 69 69 69 69 69 69 69 69 69 69 69 69 69 69 69 69 69 69 69 69 69 69 69 69 69 69 69 69 69 69 69 69 69 69 69 69 69 69 69 69 69 69 69 69 69 69 69 69 69 69 69 69 69 69 69 69 69 69 69 69 69 69 69 69 69 69 69 69 69 69 69 69 69 69 69 69 69 69 69 69 69 69 69 69 69 69 69 69 69 69 69 69 69 69 69 69 69 69 69 69 69 69 69 69 69 69 69 69 69 69 69 69 69 69 69 69 69 69 69 69 69 69 69 69 69 69 69 69 69 69 69 69 69 69 69 69 69 69 69 69 69 69 69 69 69 69 69 69 69 69 69 69 69 69 69 69 69 69 69 69 69 69 69 69 69 69 69 69 69 69 69 69 69 69 69 69 69 69 69 69 69 69 69 69 69 69 69 69 69 69 69 69 69 69 69 69 69 69 69 69 69 69 69 69 69 69 69 69 69 69 69 69 69 69 69 69 69 69 69 69 69 69 69 69 69 69 69 69 69 69 69 69 69 69 69 69 69 69 69 69 69 69 69 69 69 69 69 69 69 69 69 69 69 69 69 69 69 69 69 69 69 69 69 69 69 69 69 69 69 69 69 69 69 69 69 69 69 69 69 69 69 69 69 69 69 69 69 69 69 69 69 69 69 69 69 69 69 69 69 69 69 69 69 69 69 69 69 69 69 69 69 69 69 69 69 69 69 69 69 69 69 69 69 69 69 69 69 69 69 69 69 69 69 69 69 69 69 69 69 69 69 69 69 69 69 69 69 69 69 69 69 69 69 69 69 69 69 69 69 69 69 69 69 69 69 69 69 69 69 69 69 69 69 69 69 69 69 69 69 69 69 69 69 69 69 69 69 69 69 69 69 69 69 69 69 69 69 69 69 69 69 69 69 69 69 69 69 69 69 69 69 69 69 69 69 69 69 69 69 69 69 69 69 69 69 69 69 69 69 69 69 69 69 69 69 69 69 69 69 69 69 69 69 69 69 69 69 69 69 69 69 69 69 69 69 69 69 69 69 69 69 69 69 69 69 69 69 69 69 69 69 69 69 69 69 69 69 69 69 69 69 69 69 69 69 69 69 69 69 69 69 69 69 69 69 69 69 69 69 69 69 69 69 69 69 69 69 69 69 69 69 69 69 69 69 69 69 69 69 69 69 69 69 69 69 69 69 69 69 69 69 69 69 69 69 69 69 69 69 69 69 69 69 69 69 69 69 69 69 69 69 69 69 69 69 69 69 69 69 69 69 69 69 69 69 69 69 69 69 69 69 69 69 69 69 69 69 69 69 69 69 69 69 69 69 69 69 69 69 69 69 69 69 69 69 69 69 69 69 69 69 69 69 69 69 69 69 69 69 69 69 69 69 69 69 69 69 69 69 69 69 69 69 69 69 69 69 69 69 69 69 69 69 69 69 69 69 69 69 69 69 69 69 69 69 69 69 69 69 69 69 69 69 69 69 69 69 69 69 69 69 69 69 69 69 69 69 69 69 69 69 69 69 69 69 69 69 69 69 69 69 69 69 69 69 69 69 69 69 69 69 69 69 69 69 69 69 69 69 69 69 69 69 69 69 69 69 69 69 69 69 69 69 69 69 69 69 69 69 69 69 69 69 69 69 69 69 69 69 69 69 69 69 69 69 69 69 69 69 69 69 69 69 69 69 69 69 69 69 69 69 69 69 69 69 69 69 69 69 69 69 69 69 69 69 69 69 69 69 69 69 69 69 69 69 69 69 69 69 69 69 69 69 69 69 69 69 69 69 69 69 69 69 69 69 69 69 69 69 69 69 69 69 69 69 69 69 69 69 69 69 69 69 69 69 69 69 69 69 69 69 69 69 69 69 69 69 69 69 69 69 69 69 69 69 69 69 69 69 69 69 69 69 69 69 69 69 69 69 69 69 69 69 69 69 69 69 69 69 69 69 69 69 69 69 69 69 69 69 69 69 69 69 69 69 69 69 69 69 69 69 69 69 69 69 69 69 69 69 69 69 69 69 69 69 69 69 69 69 69 69 69 69 69 69 69 69 69 69 69 69 69 69 69 69 69 69 69 69 69 69 69 69 69 69 69 69 69 69 69 69 69 69 69 69 69 69 69 69 69 69 69 69 69 69 69 69 69 69 69 69 69 69 69 69 69 69 69 69 69 69 69 69 69 69 69 69 69 69 69 69 69 69 69 69 69 69 69 69 69 69 69 69 69 69 69 69 69 69 69 69 69 69 69 69 69 69 69 69 69 69 69 69 69 69 69 69 69 69 69 69 69 69 69 69 69 69 69 69 69 69 69 69 69 69 69 69 69 69 69 69 69 69 69 69 69 69 69 69 69 69 69 69 69 69 69 69 69 69 69 69 69 69 69 69 69 69 69 69 69 69 69 69 69 69 69 69 69 69 69 69 69 69 69 69 69 69 69 69 69 69 69 69 69 69 69 69 69 69 69 69 69 69 69 69 69 69 69 69 69 69 69 69 69 69 69 69 69 69 69 69 69 69 69 69 69 69 69 69 69 69 69 69 69 69 69 69 69 69 69 69 69 69 69 69 69 69 69 69 69 69 69 69 69 69 69 69 69 69 69 69 69 69 69 69 69 69 69 69 69 69 69 69 69 69 69 69 69 69 69 69 69 69 69 69 69 69 69 69 69 69 69 69 69 69 69 69 69 69 69 69 69 69 69 69 69 69 69 69 69 69 69 69 69 69 69 69 69 69 69 69 69 69 69 69 69 69 69 69 69 69 69 69 69 69 69 69 69 69 69 69 69 69 69 69 69 69 69 69 69 69 69 69 69 69 69 69 69 69 69 69 69 69 69 69 69 69 69 69 69 69 69 69 69 69 69 69 69 69 69 69 69 69 69 69 69 69 69 69 69 69 69 69 69 69 69 69 69 69 69 69 69 69 69 69 69 69 69 69 69 69 69 69 69 69 69 69 69 69 69 69 69 69 69 69 69 69 69 69 69 69 69 69 69 69 69 69 69 69 69 69 69 69 69 69 69 69 69 69 69 69 69 69 69 69 69 69 69 69 69 69 69 69 69 69 69 69 69 69 69 69 69 69 69 69 69 69 69 69 69 69 69 69 69 69 69 69 69 69 69 69 69 69 69 69 69 69 69 69 69 69 69 69 69 69 69 69 69 69 69 69 69 69 69 69 69 69 69 69 69 69 69 69 69 69 69 69 69 69 69 69 69 69 69 69 69 69 69 69 69 69 69 69 69 69 69 69 69 69 69 69 69 69 69 69 69 69 69 69 69 69 69 69 69 69 69 69 69 69 69 69 69 69 69 69 69 69 69 69 69 69 69 69 69 69 69 69 69 69 69 69 69 69 69 69 69 69 69 69 69 69 69 69 69 69 69 69 69 69 69 69 69 69 69 69 69 69 69 69 69 69 69 69 69 69 69 69 69 69 69 69 69 69 69 69 69 69 69 69 69 69 69 69 69 69 69 69 69 69 69 69 69 69 69 69 69 69 69 69 69 69 69 69 69 69 69 69 69 69 69 69 69 69 69 69 69 69 69 69 69 69 69 69 69 69 69 69 69 69 69 69 69 69 69 69 69 69 69 69 69 69 69 69 69 69 69 69 69 69 69 69 69 69 69 69 69 69 69 69 69 69 69 69 69 69 69 69 69 69 69 69 69 69 69 69 69 69 69 69 69 69 69 69 69 69 69 69 69 69 69 69 69 69 69 69 69 69 69 69 69 69 69 69 69 69 69 69 69 69 69 69 69 69 69 69 69 69 69 69 69 69 69 69 69 69 69 69 69 69 69 69 69 69 69 69 69 69 69 69 69 69 69 69 69 69 69 69 69 69 69 69 69 69 69 69 69 69 69 69 69 69 69 69 69 69 69 69 69 69 69 69 69 69 69 69 69 69 69 69 69 69 69 69 69 69 69 69 69 69 69 69 69 69 69 69 69 69 69 69 69 69 69 69 69 69 69 69 69 69 69 69 69 69 69 69 69 69 69 69 69 69 69 69 69 69 69 69 69 69 69 69 69 69 69 69 69 69 69 69 69 69 69 69 69 69 69 69 69 69 69 69 69 69 69 69 69 69 69 69 69 69 69 69 69 69 69 69 69 69 69 69 69 69 69 69 69 69 69 69 69 69 69 69 69 69 69 69 69 69 69 69 69 69 69 69 69 69 69 69 69 69 69 69 69 69 69 69 69 69 69 69 69 69 69 69 69 69 69 69 69 69 69 69 69 69 69 69 69 69 69 69 69 69 69 69 69 69 69 69 69 69 69 69 69 69 69 69 69 69 69 69 69 69 69 69 69 69 69 69 69 69 69 69 69 69 69 69 69 69 69 69 69 69 69 69 69 69 69 69 69 69 69 69 69 69 69 69 69 69 69 69 69 69 69 69 69 69 69 69 69 69 69 69 69 69 69 69 69 69 69 69 69 69 69 69 69 69 69 69 69 69 69 69 69 69 69 69 69 69 69 69 69 69 69 69 69 69 69 69 69 69 69 69 69 69 69 69 69 69 69 69 69 69 69 69 69 69 69 69 69 69 69 69 69 69 69 69 69 69 69 69 69 69 69 69 69 69 69 69 69 69 69 69 69 69 69 69 69 69 69 69 69 69 69 69 69 69 69 69 69 69 69 69 69 69 69 69 69 69 69 69 69 69 69 69 69 69 69 69 69 69 69 69 69 69 69 69 69 69 69 69 69 69 69 69 69 69 69 69 69 69 69 69 69 69 69 69 69 69 69 69 69 69 69 69 69 69 69 69 69 69 69 69 69 69 69 69 69 69 69 69 69 69 69 69 69 69 69 69 69 69 69 69 69 69 69 69 69 69 69 69 69 69 69 69 69 69 69 69 69 69 69 69 69 69 69 69 69 69 69 69 69 69 69 69 69 69 69 69 69 69 69 69 69 69 69 69 69 69 69 69 69 69 69 69 69 69 69 69 69 69 69 69 69 69 69 69 69 69 69 69 69 69 69 69 69 69 69 69 69 69 69 69 69 69 69 69 69 69 69 69 69 69 69 69 69 69 69 69 69 69 69 69 69 69 69 69 69 69 69 69 69 69 69 69 69 69 69 69 69 69 69 69 69 69 69 69 69 69 69 69 69 69 69 69 69 69 69 69 69 69 69 69 69 69 69 69 69 69 69 69 69 69 69 69 69 69 69 69 69 69 69 69 69 69 69 69 69 69 69 69 69 69 69 69 69 69 69 69 69 69 69 69 69 69 69 69 69 69 69 69 69 69 69 69 69 69 69 69 69 69 69 69 69 69 69 69 69 69 69 69 69 69 69 69 69 69 69 69 69 69 69 69 69 69 69 69 69 69 69 69 69 69 69 69 69 69 69 69 69 69 69 69 69 69 69 69 69 69 69 69 69 69 69 69 69 69 69 69 69 69 69 69 69 69 69 69 69 69 69 69 69 69 69 69 69 69 69 69 69 69 69 69 69 69 69 69 69 69 69 69 69 69 69 69 69 69 69 69 69 69 69 69 69 69 69 69 69 69 69 69 69 69 69 69 69 69 69 69 69 69 69 69 69 69 69 69 69 69 69 69 69 69 69 69 69 69 69 69 69 69 69 69 69 69 69 69 69 69 69 69 69 69 69 69 69 69 69 69 69 69 69 69 69 69 69 69 69 69 69 69 69 69 69 69 69 69 69 69 69 69 69 69 69 69 69 69 69 69 69 69 69 69 69 69 69 69 69 69 69 69 69 69 69 69 69 69 69 69 69 69 69 69 69 69 69 69 69 69 69 69 69 69 69 69 69 69 69 69 69 69 69 69 69 69 69 69 69 69 69 69 69 69 69 69 69 69 69 69 69 69 69 69 69 69 69 69 69 69 69 69 69 69 69 69 69 69 69 69 69 69 69 69 69 69 69 69 69 69 69 69 69 69 69 69 69 69 69 69 69 69 69 69 69 69 69 69 69 69 69 69 69 69 69 69 69 69 69 69 69 69 69 69 69 69 69 69 69 69 69 69 69 69 69 69 69 69 69 69 69 69 69 69 69 69 69 69 69 69 69 69 69 69 69 69 69 69 69 69 69 69 69 69 69 69 69 69 69 69 69 69 69 69 69 69 69 69 69 69 69 69 69 69 69 69 69 69 69 69 69 69 69 69 69 69 69 69 69 69 69 69 69 69 69 69 69 69 69 69 69 69 69 69 69 69 69 69 69 69 69 69 69 69 69 69 69 69 69 69 69 69 69 69 69 69 69 69 69 69 69 69 69 69 69 69 69 69 69 69 69 69 69 69 69 69 69 69 69 69 69 69 69 69 69 69 69 69 69 69 69 69 69 69 69 69 69 69 69 69 69 69 69 69 69 69 69 69 69 69 69 69 69 69 69 69 69 69 69 69 69 69 69 69 69 69 69 69 69 69 69 69 69 69 69 69 69 69 69 69 69 69 69 69 69 69 69 69 69 69 69 69 69 69 69 69 69 69 69 69 69 69 69 69 69 69 69 69 69 69 69 69 69 69 69 69 69 69 69 69 69 69 69 69 69 69 69 69 69 69 69 69 69 69 69 69 69 69 69 69 69 69 69 69 69 69 69 69 69 69 69 69 69 69 69 69 69 69 69 69 69 69 69 69 69 69 69 69 69 69 69 69 69 69 69 69 69 69 69 69 69 69 69 69 69 69 69 69 69 69 69 69 69 69 69 69 69 69 69 69 69 69 69 69 69 69 69 69 69 69 69 69 69 69 69 69 69 69 69 69 69 69 69 69 69 69 69 69 69 69 69 69 69 69 69 69 69 69 69 69 69 69 69 69 69 69 69 69 69 69 69 69 69 69 69 69 69 69 69 69 69 69 69 69 69 69 69 69 69 69 69 69 69 69 69 69 69 69 69 69 69 69 69 69 69 69 69 69 69 69 69 69 69 69 69 69 69 69 69 69 69 69 69 69 69 69 69 69 69 69 69 69 69 69 69 69 69 69 69 69 69 69 69 69 69 69 69 69 69 69 69 69 69 69 69 69 69 69 69 69 69 69 69 69 69 69 69 69 69 69 69 69 69 69 69 69 69 69 69 69 69 69 69 69 69 69 69 69 69 69 69 69 69 69 69 69 69 69 69 69 69 69 69 69 69 69 69 69 69 69 69 69 69 69 69 69 69 69 69 69 69 69 69 69 69 69 69 69 69 69 69 69 69 69 69 69 69 69 69 69 69 69 69 69 69 69 69 69 69 69 69 69 69 69 69 69 69 69 69 69 69 69 69 69 69 69 69 69 69 69 69 69 69 69 69 69 69 69 69 69 69 69 69 69 69 69 69 69 69 69 69 69 69 69 69 69 69 69 69 69 69 69 69 69 69 69 69 69 69 69 69 69 69 69 69 69 69 69 69 69 69 69 69 69 69 69 69 69 69 69 69 69 69 69 69 69 69 69 69 69 69 69 69 69 69 69 69 69 69 69 69 69 69 69 69 69 69 69 69 69 69 69 69 69 69 69 69 69 69 69 69 69 69 69 69 69 69 69 69 69 69 69 69 69 69 69 69 69 69 69 69 69 69 69 69 69 69 69 69 69 69 69 69 69 69 69 69 69 69 69 69 69 69 69 69 69 69 69 69 69 69 69 69 69 69 69 69 69 69 69 69 69 69 69 69 69 69 69 69 69 69 69 69 69 69 69 69 69 69 69 69 69 69 69 69 69 69 69 69 69 69 69 69 69 69 69 69 69 69 69 69 69 69 69 69 69 69 69 69 69 69 69 69 69 69 69 69 69 69 69 69 69 69 69 69 69 69 69 69 69 69 69 69 69 69 69 69 69 69 69 69 69 69 69 69 69 69 69 69 69 69 69 69 69 69 69 69 69 69 69 69 69 69 69 69 69 69 69 69 69 69 69 69 69 69 69 69 69 69 69 69 69 69 69 69 69 69 69 69 69 69 69 69 69 69 69 69 69 69 69 69 69 69 69 69 69 69 69 69 69 69 69 69 69 69 69 69 69 69 69 69 69 69 69 69 69 69 69 69 69 69 69 69 69 69 69 69 69 69 69 69 69 69 69 69 69 69 69 69 69 69 69 69 69 69 69 69 69 69 69 69 69 69 69 69 69 69 69 69 69 69 69 69 69 69 69 69 69 69 69 69 69 69 69 69 69 69 69 69 69 69 69 69 69 69 69 69 69 69 69 69 69 69 69 69 69 69 69 69 69 69 69 69 69 69 69 69 69 69 69 69 69 69 69 69 69 69 69 69 69 69 69 69 69 69 69 69 69 69 69 69 69 69 69 69 69 69 69 69 69 69 69 69 69 69 69 69 69 69 69 69 69 69 69 69 69 69 69 69 69 69 69 69 69 69 69 69 69 69 69 69 69 69 69 69 69 69 69 69 69 69 69 69 69 69 69 69 69 69 69 69 69 69 69 69 69 69 69 69 69 69 69 69 69 69 69 69 69 69 69 69 69 69 69 69 69 69 69 69 69 69 69 69 69 69 69 69 69 69 69 69 69 69 69 69 69 69 69 69 69 69 69 69 69 69 69 69 69 69 69 69 69 69 69 69 69 69 69 69 69 69 69 69 69 69 69 69 69 69 69 69 69 69 69 69 69 69 69 69 69 69 69 69 69 69 69 69 69 69 69 69 69 69 69 69 69 69 69 69 69 69 69 69 69 69 69 69 69 69 69 69 69 69 69 69 69 69 69 69 69 69 69 69 69 69 69 69 69 69 69 69 69 69 69 69 69 69 69 69 69 69 69 69 69 69 69 69 69 69 69 69 69 69 69 69 69 69 69 69 69 69 69 69 69 69 69 69 69 69 69 69 69 69 69 69 69 69 69 69 69 69 69 69 69 69 69 69 69 69 69 69 69 69 69 69 69 69 69 69 69 69 69 69 69 69 69 69 69 69 69 69 69 69 69 69 69 69 69 69 69 69 69 69 69 69 69 69 69 69 69 69 69 69 69 69 69 69 69 69 69 69 69 69 69 69 69 69 69 69 69 69 69 69 69 69 69 69 69 69 69 69 69 69 69 69 69 69 69 69 69 69 69 69 69 69 69 69 69 69 69 69 69 69 69 69 69 69 69 69 69 69 69 69 69 69 69 69 69 69 69 69 69 69 69 69 69 69 69 69 69 69 69 69 69 69 69 69 69 69 69 69 69 69 69 69 69 69 69 69 69 69 69 69 69 69 69 69 69 69 69 69 69 69 69 69 69 69 69 69 69 69 69 69 69 69 69 69 69 69 69 69 69 69 69 69 69 69 69 69 69 69 69 69 69 69 69 69 69 69 69 69 69 69 69 69 69 69 69 69 69 69 69 69 69 69 69 69 69 69 69 69 69 69 69 69 69 69 69 69 69 69 69 69 69 69 69 69 69 69 69 69 69 69 69 69 69 69 69 69 69 69 69 69 69 69 69 69 69 69 69 69 69 69 69 69 69 69 69 69 69 69 69 69 69 69 69 69 69 69 69 69 69 69 69 69 69 69 69 69 69 69 69 69 69 69 69 69 69 69 69 69 69 69 69 69 69 69 69 69 69 69 69 69 69 69 69 69 69 69 69 69 69 69 69 69 69 69 69 69 69 69 69 69 69 69 69 69 69 69 69 69 69 69 69 69 69 69 69 69 69 69 69 69 69 69 69 69 69 69 69 69 69 69 69 69 69 69 69 69 69 69 69 69 69 69 69 69 69 69 69 69 69 69 69 69 69 69 69 69 69 69 69 69 69 69 69 69 69 69 69 69 69 69 69 69 69 69 69 69 69 69 69 69 69 69 69 69 69 69 69 69 69 69 69 69 69 69 69 69 69 69 69 69 69 69 69 69 69 69 69 69 69 69 69 69 69 69 69 69 69 69 69 69 69 69 69 69 69 69 69 69 69 69 69 69 69 69 69 69 69 69 69 69 69 69 69 69 69 69 69 69 69 69 69 69 69 69 69 69 69 69 69 69 69 69 69 69 69 69 69 69 69 69 69 69 69 69 69 69 69 69 69 69 69 69 69 69 69 69 69 69 69 69 69 69 69 69 69 69 69 69 69 69 69 69 69 69 69 69 69 69 69 69 69 69 69 69 69 69 69 69 69 69 69 69 69 69 69 69 69 69 69 69 69 69 69 69 69 69 69 69 69 69 69 69 69 69 69 69 69 69 69 69 69 69 69 69 69 69 69 69 69 69 69 69 69 69 69 69 69 69 69 69 69 69 69 69 69 69 69 69 69 69 69 69 69 69 69 69 69 69 69 69 69 69 69 69 69 69 69 69 69 69 69 69 69 69 69 69 69 69 69 69 69 69 69 69 69 69 69 69 69 69 69 69 69 69 69 69 69 69 69 69 69 69 69 69 69 69 69 69 69 69 69 69 69 69 69 69 69 69 69 69 69 69 69 69 69 69 69 69 69 69 69 69 69 69 69 69 69 69 69 69 69 69 69 69 69 69 69 69 69 69 69 69 69 69 69 69 69 69 69 69 69 69 69 69 69 69 69 69 69 69 69 69 69 69 69 69 69 69 69 69 69 69 69 69 69 69 69 69 69 69 69 69 69 69 69 69 69 69 69 69 69 69 69 69 69 69 69 69 69 69 69 69 69 69 69 69 69 69 69 69 69 69 69 69 69 69 69 69 69 69 69 69 69 69 69 69 69 69 69 69 69 69 69 69 69 69 69 69 69 69 69 69 69 69 69 69 69 69 69 69 69 69 69 69 69 69 69 69 69 69 69 69 69 69 69 69 69 69 69 69 69 69 69 69 69 69 69 69 69 69 69 69 69 69 69 69 69 69 69 69 69 69 69 69 69 69 69 69 69 69 69 69 69 69 69 69 69 69 69 69 69 69 69 69 69 69 69 69 69 69 69 69 69 69 69 69 69 69 69 69 69 69 69 69 69 69 69 69 69 69 69 69 69 69 69 69 69 69 69 69 69 69 69 69 69 69 69 69 69 69 69 69 69 69 69 69 69 69 69 69 69 69 69 69 69 69 69 69 69 69 69 69 69 69 69 69 69 69 69 69 69 69 69 69 69 69 69 69 69 69 69 69 69 69 69 69 69 69 69 69 69 69 69 69 69 69 69 69 69 69 69 69 69 69 69 69 69 69 69 69 69 69 69 69 69 69 69 69 69 69 69 69 69 69 69 69 69 69 69 69 69 69 69 69 69 69 69 69 69 69 69 69 69 69 69 69 69 69 69 69 69 69 69 69 69 69 69 69 69 69 69 69 69 69 69 69 69 69 69 69 69 69 69 69 69 69 69 69 69 69 69 69 69 69 69 69 69 69 69 69 69 69 69 69 69 69 69 69 69 69 69 69 69 69 69 69 69 69 69 69 69 69 69 69 69 69 69 69 69 69 69 69 69 69 69 69 69 69 69 69 69 69 69 69 69 69 69 69 69 69 69 69 69 69 69 69 69 69 69 69 69 69 69 69 69 69 69 69 69 69 69 69 69 69 69 69 69 69 69 69 69 69 69 69 69 69 69 69 69 69 69 69 69 69 69 69 69 69 69 69 69 69 69 69 69 69 69 69 69 69 69 69 69 69 69 69 69 69 69 69 69 69 69 69 69 69 69 69 69 69 69 69 69 69 69 69 69 69 69 69 69 69 69 69 69 69 69 69 69 69 69 69 69 69 69 69 69 69 69 69 69 69 69 69 69 69 69 69 69 69 69 69 69 69 69 69 69 69 69 69 69 69 69 69 69 69 69 69 69 69 69 69 69 69 69 69 69 69 69 69 69 69 69 69 69 69 69 69 69 69 69 69 69 69 69 69 69 69 69 69 69 69 69 69 69 69 69 69 69 69 69 69 69 69 69 69 69 69 69 69 69 69 69 69 69 69 69 69 69 69 69 69 69 69 69 69 69 69 69 69 69 69 69 69 69 69 69 69 69 69 69 69 69 69 69 69 69 69 69 69 69 69 69 69 69 69 69 69 69 69 69 69 69 69 69 69 69 69 69 69 69 69 69 69 69 69 69 69 69 69 69 69 69 69 69 69 69 69 69 69 69 69 69 69 69 69 69 69 69 69 69 69 69 69 69 69 69 69 69 69 69 69 69 69 69 69 69 69 69 69 69 69 69 69 69 69 69 69 69 69 69 69 69 69 69 69 69 69 69 69 69 69 69 69 69 69 69 69 69 69 69 69 69 69 69 69 69 69 69 69 69 69 69 69 69 69 69 69 69 69 69 69 69 69 69 69 69 69 69 69 69 69 69 69 69 69 69 69 69 69 69 69 69 69 69 69 69 69 69 69 69 69 69 69 69 69 69 69 69 69 69 69 69 69 69 69 69 69 69 69 69 69 69 69 69 69 69 69 69 69 69 69 69 69 69 69 69 69 69 69 69 69 69 69 69 69 69 69 69 69 69 69 69 69 69 69 69 69 69 69 69 69 69 69 69 69 69 69 69 69 69 69 69 69 69 69 69 69 69 69 69 69 69 69 69 69 69 69 69 69 69 69 69 69 69 69 69 69 69 69 69 69 69 69 69 69 69 69 69 69 69 69 69 69 69 69 69 69 69 69 69 69 69 69 69 69 69 69 69 69 69 69 69 69 69 69 69 69 69 69 69 69 69 69 69 69 69 69 69 69 69 69 69 69 69 69 69 69 69 69 69 69 69 69 69 69 69 69 69 69 69 69 69 69 69 69 69 69 69 69 69 69 69 69 69 69 69 69 69 69 69 69 69 69 69 69 69 69 69 69 69 69 69 69 69 69 69 69 69 69 69 69 69 69 69 69 69 69 69 69 69 69 69 69 69 69 69 69 69 69 69 69 69 69 69 69 69 69 69 69 69 69 69 69 69 69 69 69 69 69 69 69 69 69 69 69 69 69 69 69 69 69 69 69 69 69 69 69 69 69 69 69 69 69 69 69 69 69 69 69 69 69 69 69 69 69 69 69 69 69 69 69 69 69 69 69 69 69 69 69 69 69 69 69 69 69 69 69 69 69 69 69 69 69 69 69 69 69 69 69 69 69 69 69 69 69 69 69 69 69 69 69 69 69 69 69 69 69 69 69 69 69 69 69 69 69 69 69 69 69 69 69 69 69 69 69 69 69 69 69 69 69 69 69 69 69 69 69 69 69 69 69 69 69 69 69 69 69 69 69 69 69 69 69 69 69 69 69 69 69 69 69 69 69 69 69 69 69 69 69 69 69 69 69 69 69 69 69 69 69 69 69 69 69 69 69 69 69 69 69 69 69 69 69 69 69 69 69 69 69 69 69 69 69 69 69 69 69 69 69 69 69 69 69 69 69 69 69 69 69 69 69 69 69 69 69 69 69 69 69 69 69 69 69 69 69 69 69 69 69 69 69 69 69 69 69 69 69 69 69 69 69 69 69 69 69 69 69 69 69 69 69 69 69 69 69 69 69 69 69 69 69 69 69 69 69 69 69 69 69 69 69 69 69 69 69 69 69 69 69 69 69 69 69 69 69 69 69 69 69 69 69 69 69 69 69 69 69 69 69 69 69 69 69 69 69 69 69 69 69 69 69 69 69 69 69 69 69 69 69 69 69 69 69 69 69 69 69 69 69 69 69 69 69 69 69 69 69 69 69 69 69 69 69 69 69 69 69 69 69 69 69 69 69 69 69 69 69 69 69 69 69 69 69 69 69 69 69 69 69 69 69 69 69 69 69 69 69 69 69 69 69 69 69 69 69 69 69 69 69 69 69 69 69 69 69 69 69 69 69 69 69 69 69 69 69 69 69 69 69 69 69 69 69 69 69 69 69 69 69 69 69 69 69 69 69 69 69 69 69 69 69 69 69 69 69 69 69 69 69 69 69 69 69 69 69 69 69 69 69 69 69 69 69 69 69 69 69 69 69 69 69 69 69 69 69 69 69 69 69 69 69 69 69 69 69 69 69 69 69 69 69 69 69 69 69 69 69 69 69 69 69 69 69 69 69 69 69 69 69 69 69 69 69 69 69 69 69 69 69 69 69 69 69 69 69 69 69 69 69 69 69 69 69 69 69 69 69 69 69 69 69 69 69 69 69 69 69 69 69 69 69 69 69 69 69 69 69 69 69 69 69 69 69 69 69 69 69 69 69 69 69 69 69 69 69 69 69 69 69 69 69 69 69 69 69 69 69 69 69 69 69 69 69 69 69 69 69 69 69 69 69 69 69 69 69 69 69 69 69 69 69 69 69 69 69 69 69 69 69 69 69 69 69 69 69 69 69 69 69 69 69 69 69 69 69 69 69 69 69 69 69 69 69 69 69 69 69 69 69 69 69 69 69 69 69 69 69 69 69 69 69 69 69 69 69 69 69 69 69 69 69 69 69 69 69 69 69 69 69 69 69 69 69 69 69 69 69 69 69 69 69 69 69 69 69 69 69 69 69 69 69 69 69 69 69 69 69 69 69 69 69 69 69 69 69 69 69 69 69 69 69 69 69 69 69 69 69 69 69 69 69 69 69 69 69 69 69 69 69 69 69 69 69 69 69 69 69 69 69 69 69 69 69 69 69 69 69 69 69 69 69 69 69 69 69 69 69 69 69 69 69 69 69 69 69 69 69 69 69 69 69 69 69 69 69 69 69 69 69 69 69 69 69 69 69 69 69 69 69 69 69 69 69 69 69 69 69 69 69 69 69 69 69 69 69 69 69 69 69 69 69 69 69 69 69 69 69 69 69 69 69 69 69 69 69 69 69 69 69 69 69 69 69 69 69 69 69 69 69 69 69 69 69 69 69 69 69 69 69 69 69 69 69 69 69 69 69 69 69 69 69 69 69 69 69 69 69 69 69 69 69 69 69 69 69 69 69 69 69 69 69 69 69 69 69 69 69 69 69 69 69 69 69 69 69 69 69 69 69 69 69 69 69 69 69 69 69 69 69 69 69 69 69 69 69 69 69 69 69 69 69 69 69 69 69 69 69 69 69 69 69 69 69 69 69 69 69 69 69 69 69 69 69 69 69 69 69 69 69 69 69 69 69 69 69 69 69 69 69 69 69 69 69 69 69 69 69 69 69 69 69 69 69 69 69 69 69 69 69 69 69 69 69 69 69 69 69 69 69 69 69 69 69 69 69 69 69 69 69 69 69 69 69 69 69 69 69 69 69 69 69 69 69 69 69 69 69 69 69 69 69 69 69 69 69 69 69 69 69 69 69 69 69 69 69 69 69 69 69 69 69 69 69 69 69 69 69 69 69 69 69 69 69 69 69 69 69 69 69 69 69 69 69 69 69 69 69 69 69 69 69 69 69 69 69 69 69 69 69 69 69 69 69 69 69 69 69 69 69 69 69 69 69 69 69 69 69 69 69 69 69 69 69 69 69 69 69 69 69 69 69 69 69 69 69 69 69 69 69 69 69 69 69 69 69 69 69 69 69 69 69 69 69 69 69 69 69 69 69 69 69 69 69 69 69 69 69 69 69 69 69 69 69 69 69 69 69 69 69 69 69 69 69 69 69 69 69 69 69 69 69 69 69 69 69 69 69 69 69 69 69 69 69 69 69 69 69 69 69 69 69 69 69 69 69 69 69 69 69 69 69 69 69 69 69 69 69 69 69 69 69 69 69 69 69 69 69 69 69 69 69 69 69 69 69 69 69 69 69 69 69 69 69 69 69 69 69 69 69 69 69 69 69 69 69 69 69 69 69 69 69 69 69 69 69 69 69 69 69 69 69 69 69 69 69 69 69 69 69 69 69 69 69 69 69 69 69 69 69 69 69 69 69 69 69 69 69 69 69 69 69 69 69 69 69 69 69 69 69 69 69 69 69 69 69 69 69 69 69 69 69 69 69 69 69 69 69 69 69 69 69 69 69 69 69 69 69 69 69 69 69 69 69 69 69 69 69 69 69 69 69 69 69 69 69 69 69 69 69 69 69 69 69 69 69 69 69 69 69 69 69 69 69 69 69 69 69 69 69 69 69 69 69 69 69 69 69 69 69 69 69 69 69 69 69 69 69 69 69 69 69 69 69 69 69 69 69 69 69 69 69 69 69 69 69 69 69 69 69 69 69 69 69 69 69 69 69 69 69 69 69 69 69 69 69 69 69 69 69 69 69 69 69 69 69 69 69 69 69 69 69 69 69 69 69 69 69 69 69 69 69 69 69 69 69 69 69 69 69 69 69 69 69 69 69 69 69 69 69 69 69 69 69 69 69 69 69 69 69 69 69 69 69 69 69 69 69 69 69 69 69 69 69 69 69 69 69 69 69 69 69 69 69 69 69 69 69 69 69 69 69 69 69 69 69 69 69 69 69 69 69 69 69 69 69 69 69 69 69 69 69 69 69 69 69 69 69 69 69 69 69 69 69 69 69 69 69 69 69 69 69 69 69 69 69 69 69 69 69 69 69 69 69 69 69 69 69 69 69 69 69 69 69 69 69 69 69 69 69 69 69 69 69 69 69 69 69 69 69 69 69 69 69 69 69 69 69 69 69 69 69 69 69 69 69 69 69 69 69 69 69 69 69 69 69 69 69 69 69 69 69 69 69 69 69 69 69 69 69 69 69 69 69 69 69 69 69 69 69 69 69 69 69 69 69 69 69 69 69 69 69 69 69 69 69 69 69 69 69 69 69 69 69 69 69 69 69 69 69 69 69 69 69 69 69 69 69 69 69 69 69 69 69 69 69 69 69 69 69 69 69 69 69 69 69 69 69 69 69 69 69 69 69 69 69 69 69 69 69 69 69 69 69 69 69 69 69 69 69 69 69 69 69 69 69 69 69 69 69 69 69 69 69 69 69 69 69 69 69 69 69 69 69 69 69 69 69 69 69 69 69 69 69 69 69 69 69 69 69 69 69 69 69 69 69 69 69 69 69 69 69 69 69 69 69 69 69 69 69 69 69 69 69 69 69 69 69 69 69 69 69 69 69 69 69 69 69 69 69 69 69 69 69 69 69 69 69 69 69 69 69 69 69 69 69 69 69 69 69 69 69 69 69 69 69 69 69 69 69 69 69 69 69 69 69 69 69 69 69 69 69 69 69 69 69 69 69 69 69 69 69 69 69 69 69 69 69 69 69 69 69 69 69 69 69 69 69 69 69 69 69 69 69 69 69 69 69 69 69 69 69 69 69 69 69 69 69 69 69 69 69 69 69 69 69 69 69 69 69 69 69 69 69 69 69 69 69 69 69 69 69 69 69 69 69 69 69 69 69 69 69 69 69 69 69 69 69 69 69 69 69 69 69 69 69 69 69 69 69 69 69 69 69 69 69 69 69 69 69 69 69 69 69 69 69 69 69 69 69 69 69 69 69 69 69 69 69 69 69 69 69 69 69 69 69 69 69 69 69 69 69 69 69 69 69 69 69 69 69 69 69 69 69 69 69 69 69 69 69 69 69 69 69 69 69 69 69 69 69 69 69 69 69 69 69 69 69 69 69 69 69 69 69 69 69 69 69 69 69 69 69 69 69 69 69 69 69 69 69 69 69 69 69 69 69 69 69 69 69 69 69 69 69 69 69 69 69 69 69 69 69 69 69 69 69 69 69 69 69 69 69 69 69 69 69 69 69 69 69 69 69 69 69 69 69 69 69 69 69 69 69 69 69 69 69 69 69 69 69 69 69 69 69 69 69 69 69 69 69 69 69 69 69 69 69 69 69 69 69 69 69 69 69 69 69 69 69 69 69 69 69 69 69 69 69 69 69 69 69 69 69 69 69 69 69 69 69 69 69 69 69 69 69 69 69 69 69 69 69 69 69 69 69 69 69 69 69 69 69 69 69 69 69 69 69 69 69 69 69 69 69 69 69 69 69 69 69 69 69 69 69 69 69 69 69 69 69 69 69 69 69 69 69 69 69 69 69 69 69 69 69 69 69 69 69 69 69 69 69 69 69 69 69 69 69 69 69 69 69 69 69 69 69 69 69 69 69 69 69 69 69 69 69 69 69 69 69 69 69 69 69 69 69 69 69 69 69 69 69 69 69 69 69 69 69 69 69 69 69 69 69 69 69 69 69 69 69 69 69 69 69 69 69 69 69 69 69 69 69 69 69 69 69 69 69 69 69 69 69 69 69 69 69 69 69 69 69 69 69 69 69 69 69 69 69 69 69 69 69 69 69 69 69 69 69 69 69 69 69 69 69 69 69 69 69 69 69 69 69 69 69 69 69 69 69 69 69 69 69 69 69 69 69 69 69 69 69 69 69 69 69 69 69 69 69 69 69 69 69 69 69 69 69 69 69 69 69 69 69 69 69 69 69 69 69 69 69 69 69 69 69 69 69 69 69 69 69 69 69 69 69 69 69 69 69 69 69 69 69 69 69 69 69 69 69 69 69 69 69 69 69 69 69 69 69 69 69 69 69 69 69 69 69 69 69 69 69 69 69 69 69 69 69 69 69 69 69 69 69 69 69 69 69 69 69 69 69 69 69 69 69 69 69 69 69 69 69 69 69 69 69 69 69 69 69 69 69 69 69 69 69 69 69 69 69 69 69 69 69 69 69 69 69 69 69 69 69 69 69 69 69 69 69 69 69 69 69 69 69 69 69 69 69 69 69 69 69 69 69 69 69 69 69 69 69 69 69 69 69 69 69 69 69 69 69 69 69 69 69 69 69 69 69 69 69 69 69 69 69 69 69 69 69 69 69 69 69 69 69 69 69 69 69 69 69 69 69 69 69 69 69 69 69 69 69 69 69 69 69 69 69 69 69 69 69 69 69 69 69 69 69 69 69 69 69 69 69 69 69 69 69 69 69 69 69 69 69 69 69 69 69 69 69 69 69 69 69 69 69 69 69 69 69 69 69 69 69 69 69 69 69 69 69 69 69 69 69 69 69 69 69 69 69 69 69 69 69 69 69 69 69 69 69 69 69 69 69 69 69 69 69 69 69 69 69 69 69 69 69 69 69 69 69 69 69 69 69 69 69 69 69 69 69 69 69 69 69 69 69 69 69 69 69 69 69 69 69 69 69 69 69 69 69 69 69 69 69 69 69 69 69 69 69 69 69 69 69 69 69 69 69 69 69 69 69 69 69 69 69 69 69 69 69 69 69 69 69 69 69 69 69 69 69 69 69 69 69 69 69 69 69 69 69 69 69 69 69 69 69 69 69 69 69 69 69 69 69 69 69 69 69 69 69 69 69 69 69 69 69 69 69 69 69 69 69 69 69 69 69 69 69 69 69 69 69 69 69 69 69 69 69 69 69 69 69 69 69 69 69 69 69 69 69 69 69 69 69 69 69 69 69 69 69 69 69 69 69 69 69 69 69 69 69 69 69 69 69 69 69 69 69 69 69 69 69 69 69 69 69 69 69 69 69 69 69 69 69 69 69 69 69 69 69 69 69 69 69 69 69 69 69 69 69 69 69 69 69 69 69 69 69 69 69 69 69 69 69 69 69 69 69 69 69 69 69 69 69 69 69 69 69 69 69 69 69 69 69 69 69 69 69 69 69 69 69 69 69 69 69 69 69 69 69 69 69 69 69 69 69 69 69 69 69 69 69 69 69 69 69 69 69 69 69 69 69 69 69 69 69 69 69 69 69 69 69 69 69 69 69 69 69 69 69 69 69 69 69 69 69 69 69 69 69 69 69 69 69 69 69 69 69 69 69 69 69 69 69 69 69 69 69 69 69 69 69 69 69 69 69 69 69 69 69 69 69 69 69 69 69 69 69 69 69 69 69 69 69 69 69 69 69 69 69 69 69 69 69 69 69 69 69 69 69 69 69 69 69 69 69 69 69 69 69 69 69 69 69 69 69 69 69 69 69 69 69 69 69 69 69 69 69 69 69 69 69 69 69 69 69 69 69 69 69 69 69 69 69 69 69 69 69 69 69 69 69 69 69 69 69 69 69 69 69 69 69 69 69 69 69 69 69 69 69 69 69 69 69 69 69 69 69 69 69 69 69 69 69 69 69 69 69 69 69 69 69 69 69 69 69 69 69 69 69 69 69 69 69 69 69 69 69 69 69 69 69 69 69 69 69 69 69 69 69 69 69 69 69 69 69 69 69 69 69 69 69 69 69 69 69 69 69 69 69 69 69 69 69 69 69 69 69 69 69 69 69 69 69 69 69 69 69 69 69 69 69 69 69 69 69 69 69 69 69 69 69 69 69 69 69 69 69 69 69 69 69 69 69 69 69 69 69 69 69 69 69 69 69 69 69 69 69 69 69 69 69 69 69 69 69 69 69 69 69 69 69 69 69 69 69 69 69 69 69 69 69 69 69 69 69 69 69 69 69 69 69 69 69 69 69 69 69 69 69 69 69 69 69 69 69 69 69 69 69 69 69 69 69 69 69 69 69 69 69 69 69 69 69 69 69 69 69 69 69 69 69 69 69 69 69 69 69 69 69 69 69 69 69 69 69 69 69 69 69 69 69 69 69 69 69 69 69 69 69 69 69 69 69 69 69 69 69 69 69 69 69 69 69 69 69 69 69 69 69 69 69 69 69 69 69 69 69 69 69 69 69 69 69 69 69 69 69 69 69 69 69 69 69 69 69 69 69 69 69 69 69 69 69 69 69 69 69 69 69 69 69 69 69 69 69 69 69 69 69 69 69 69 69 69 69 69 69 69 69 69 69 69 69 69 69 69 69 69 69 69 69 69 69 69 69 69 69 69 69 69 69 69 69 69 69 69 69 69 69 69 69 69 69 69 69 69 69 69 69 69 69 69 69 69 69 69 69 69 69 69 69 69 69 69 69 69 69 69 69 69 69 69 69 69 69 69 69 69 69 69 69 69 69 69 69 69 69 69 69 69 69 69 69 69 69 69 69 69 69 69 69 69 69 69 69 69 69 69 69 69 69 69 69 69 69 69 69 69 69 69 69 69 69 69 69 69 69 69 69 69 69 69 69 69 69 69 69 69 69 69 69 69 69 69 69 69 69 69 69 69 69 69 69 69 69 69 69 69 69 69 69 69 69 69 69 69 69 69 69 69 69 69 69 69 69 69 69 69 69 69 69 69 69 69 69 69 69 69 69 69 69 69 69 69 69 69 69 69 69 </DataArray>
      </Cells>
      <CellData Tensors="stress" Vectors="von_mises_stress">
        <DataArray type="UInt8" Name="vtkGhostType" format="ascii" RangeMin="0" RangeMax="1">0 0 0 0 0 0 0 0 0 0 0 0 0 0 0 0 0 0 0 0 0 0 0 0 0 0 0 0 0 0 0 0 0 0 0 0 0 0 0 0 0 0 0 0 0 0 0 0 0 0 0 0 0 0 0 0 0 0 0 0 0 0 0 0 0 0 0 0 0 0 0 0 0 0 0 0 0 0 0 0 0 0 0 0 0 0 0 0 0 0 0 0 0 0 0 0 0 0 0 0 0 0 0 0 0 0 0 0 0 0 0 0 0 0 0 0 0 0 0 0 0 0 0 0 0 0 0 0 0 0 0 0 0 0 0 0 0 0 0 0 0 0 0 0 0 0 0 0 0 0 0 0 0 0 0 0 0 0 0 0 0 0 0 0 0 0 0 0 0 0 0 0 0 0 0 0 0 0 0 0 0 0 0 0 0 0 0 0 0 0 0 0 0 0 0 0 0 0 0 0 0 0 0 0 0 0 0 0 0 0 0 0 0 0 0 0 0 0 0 0 0 0 0 0 0 0 0 0 0 0 0 0 0 0 0 0 0 0 0 0 0 0 0 0 0 0 0 0 0 0 0 0 0 0 0 0 0 0 0 0 0 0 0 0 0 0 0 0 0 0 0 0 0 0 0 0 0 0 0 0 0 0 0 0 0 0 0 0 0 0 0 0 0 0 0 0 0 0 0 0 0 0 0 0 0 0 0 0 0 0 0 0 0 0 0 0 0 0 0 0 0 0 0 0 0 0 0 0 0 0 0 0 0 0 0 0 0 0 0 0 0 0 0 0 0 0 0 0 0 0 0 0 0 0 0 0 0 0 0 0 0 0 0 0 0 0 0 0 0 0 0 0 0 0 0 0 0 0 0 0 0 0 0 0 0 0 0 0 0 0 0 0 0 0 0 0 0 0 0 0 0 0 0 0 0 0 0 0 0 0 0 0 0 0 0 0 0 0 0 0 0 0 0 0 0 0 0 0 0 0 0 0 0 0 0 0 0 0 0 0 0 0 0 0 0 0 0 0 0 0 0 0 0 0 0 0 0 0 0 0 0 0 0 0 0 0 0 0 0 0 0 0 0 0 0 0 0 0 0 0 0 0 0 0 0 0 0 0 0 0 0 0 0 0 0 0 0 0 0 0 0 0 0 0 0 0 0 0 0 0 0 0 0 0 0 0 0 0 0 0 0 0 0 0 0 0 0 0 0 0 0 0 0 0 0 0 0 0 0 0 0 0 0 0 0 0 0 0 0 0 0 0 0 0 0 0 0 0 0 0 0 0 0 0 0 0 0 0 0 0 0 0 0 0 0 0 0 0 0 0 0 0 0 0 0 0 0 0 0 0 0 0 0 0 0 0 0 0 0 0 0 0 0 0 0 0 0 0 0 0 0 0 0 0 0 0 0 0 0 0 0 0 0 0 0 0 0 0 0 0 0 0 0 0 0 0 0 0 0 0 0 0 0 0 0 0 0 0 0 0 0 0 0 0 0 0 0 0 0 0 0 0 0 0 0 0 0 0 0 0 0 0 0 0 0 0 0 0 0 0 0 0 0 0 0 0 0 0 0 0 0 0 0 0 0 0 0 0 0 0 0 0 0 0 0 0 0 0 0 0 0 0 0 0 0 0 0 0 0 0 0 0 0 0 0 0 0 0 0 0 0 0 0 0 0 0 0 0 0 0 0 0 0 0 0 0 0 0 0 0 0 0 0 0 0 0 0 0 0 0 0 0 0 0 0 0 0 0 0 0 0 0 0 0 0 0 0 0 0 0 0 0 0 0 0 0 0 0 0 0 0 0 0 0 0 0 0 0 0 0 0 0 0 0 0 0 0 0 0 0 0 0 0 0 0 0 0 0 0 0 0 0 0 0 0 0 0 0 0 0 0 0 0 0 0 0 0 0 0 0 0 0 0 0 0 0 0 0 0 0 0 0 0 0 0 0 0 0 0 0 0 0 0 0 0 0 0 0 0 0 0 0 0 0 0 0 0 0 0 0 0 0 0 0 0 0 0 0 0 0 0 0 0 0 0 0 0 0 0 0 0 0 0 0 0 0 0 0 0 0 0 0 0 0 0 0 0 0 0 0 0 0 0 0 0 0 0 0 0 0 0 0 0 0 0 0 0 0 0 0 0 0 0 0 0 0 0 0 0 0 0 0 0 0 0 0 0 0 0 0 0 0 0 0 0 0 0 0 0 0 0 0 0 0 0 0 0 0 0 0 0 0 0 0 0 0 0 0 0 0 0 0 0 0 0 0 0 0 0 0 0 0 0 0 0 0 0 0 0 0 0 0 0 0 0 0 0 0 0 0 0 0 0 0 0 0 0 0 0 0 0 0 0 0 0 0 0 0 0 0 0 0 0 0 0 0 0 0 0 0 0 0 0 0 0 0 0 0 0 0 0 0 0 0 0 0 0 0 0 0 0 0 0 0 0 0 0 0 0 0 0 0 0 0 0 0 0 0 0 0 0 0 0 0 0 0 0 0 0 0 0 0 0 0 0 0 0 0 0 0 0 0 0 0 0 0 0 0 0 0 0 0 0 0 0 0 0 0 0 0 0 0 0 0 0 0 0 0 0 0 0 0 0 0 0 0 0 0 0 0 0 0 0 0 0 0 0 0 0 0 0 0 0 0 0 0 0 0 0 0 0 0 0 0 0 0 0 0 0 0 0 0 0 0 0 0 0 0 0 0 0 0 0 0 0 0 0 0 0 0 0 0 0 0 0 0 0 0 0 0 0 0 0 0 0 0 0 0 0 0 0 0 0 0 0 0 0 0 0 0 0 0 0 0 0 0 0 0 0 0 0 0 0 0 0 0 0 0 0 0 0 0 0 0 0 0 0 0 0 0 0 0 0 0 0 0 0 0 0 0 0 0 0 0 0 0 0 0 0 0 0 0 0 0 0 0 0 0 0 0 0 0 0 0 0 0 0 0 0 0 0 0 0 0 0 0 0 0 0 0 0 0 0 0 0 0 0 0 0 0 0 0 0 0 0 0 0 0 0 0 0 0 0 0 0 0 0 0 0 0 0 0 0 0 0 0 0 0 0 0 0 0 0 0 0 0 0 0 0 0 0 0 0 0 0 0 0 0 0 0 0 0 0 0 0 0 0 0 0 0 0 0 0 0 0 0 0 0 0 0 0 0 0 0 0 0 0 0 0 0 0 0 0 0 0 0 0 0 0 0 0 0 0 0 0 0 0 0 0 0 0 0 0 0 0 0 0 0 0 0 0 0 0 0 0 0 0 0 0 0 0 0 0 0 0 0 0 0 0 0 0 0 0 0 0 0 0 0 0 0 0 0 0 0 0 0 0 0 0 0 0 0 0 0 0 0 0 0 0 0 0 0 0 0 0 0 0 0 0 0 0 0 0 0 0 0 0 0 0 0 0 0 0 0 0 0 0 0 0 0 0 0 0 0 0 0 0 0 0 0 0 0 0 0 0 0 0 0 0 0 0 0 0 0 0 0 0 0 0 0 0 0 0 0 0 0 0 0 0 0 0 0 0 0 0 0 0 0 0 0 0 0 0 0 0 0 0 0 0 0 0 0 0 0 0 0 0 0 0 0 0 0 0 0 0 0 0 0 0 0 0 0 0 0 0 0 0 0 0 0 0 0 0 0 0 0 0 0 0 0 0 0 0 0 0 0 0 0 0 0 0 0 0 0 0 0 0 0 0 0 0 0 0 0 0 0 0 0 0 0 0 0 0 0 0 0 0 0 0 0 0 0 0 0 0 0 0 0 0 0 0 0 0 0 0 0 0 0 0 0 0 0 0 0 0 0 0 0 0 0 0 0 0 0 0 0 0 0 0 0 0 0 0 0 0 0 0 0 0 0 0 0 0 0 0 0 0 0 0 0 0 0 0 0 0 0 0 0 0 0 0 0 0 0 0 0 0 0 0 0 0 0 0 0 0 0 0 0 0 0 0 0 0 0 0 0 0 0 0 0 0 0 0 0 0 0 0 0 0 0 0 0 0 0 0 0 0 0 0 0 0 0 0 0 0 0 0 0 0 0 0 0 0 0 0 0 0 0 0 0 0 0 0 0 0 0 0 0 0 0 0 0 0 0 0 0 0 0 0 0 0 0 0 0 0 0 0 0 0 0 0 0 0 0 0 0 0 0 0 0 0 0 0 0 0 0 0 0 0 0 0 0 0 0 0 0 0 0 0 0 0 0 0 0 0 0 0 0 0 0 0 0 0 0 0 0 0 0 0 0 0 0 0 0 0 0 0 0 0 0 0 0 0 0 0 0 0 0 0 0 0 0 0 0 0 0 0 0 0 0 0 0 0 0 0 0 0 0 0 0 0 0 0 0 0 0 0 0 0 0 0 0 0 0 0 0 0 0 0 0 0 0 0 0 0 0 0 0 0 0 0 0 0 0 0 0 0 0 0 0 0 0 0 0 0 0 0 0 0 0 0 0 0 0 0 0 0 0 0 0 0 0 0 0 0 0 0 0 0 0 0 0 0 0 0 0 0 0 0 0 0 0 0 0 0 0 0 0 0 0 0 0 0 0 0 0 0 0 0 0 0 0 0 0 0 0 0 0 0 0 0 0 0 0 0 0 0 0 0 0 0 0 0 0 0 0 0 0 0 0 0 0 0 0 0 0 0 0 0 0 0 0 0 0 0 0 0 0 0 0 0 0 0 0 0 0 0 0 0 0 0 0 0 0 0 0 0 0 0 0 0 0 0 0 0 0 0 0 0 0 0 0 0 0 0 0 0 0 0 0 0 0 0 0 0 0 0 0 0 0 0 0 0 0 0 0 0 0 0 0 0 0 0 0 0 0 0 0 0 0 0 0 0 0 0 0 0 0 0 0 0 0 0 0 0 0 0 0 0 0 0 0 0 0 0 0 0 0 0 0 0 0 0 0 0 0 0 0 0 0 0 0 0 0 0 0 0 0 0 0 0 0 0 0 0 0 0 0 0 0 0 0 0 0 0 0 0 0 0 0 0 0 0 0 0 0 0 0 0 0 0 0 0 0 0 0 0 0 0 0 0 0 0 0 0 0 0 0 0 0 0 0 0 0 0 0 0 0 0 0 0 0 0 0 0 0 0 0 0 0 0 0 0 0 0 0 0 0 0 0 0 0 0 0 0 0 0 0 0 0 0 0 0 0 0 0 0 0 0 0 0 0 0 0 0 0 0 0 0 0 0 0 0 0 0 0 0 0 0 0 0 0 0 0 0 0 0 0 0 0 0 0 0 0 0 0 0 0 0 0 0 0 0 0 0 0 0 0 0 0 0 0 0 0 0 0 0 0 0 0 0 0 0 0 0 0 0 0 0 0 0 0 0 0 0 0 0 0 0 0 0 0 0 0 0 0 0 0 0 0 0 0 0 0 0 0 0 0 0 0 0 0 0 0 0 0 0 0 0 0 0 0 0 0 0 0 0 0 0 0 0 0 0 0 0 0 0 0 0 0 0 0 0 0 0 0 0 0 0 0 0 0 0 0 0 0 0 0 0 0 0 0 0 0 0 0 0 0 0 0 0 0 0 0 0 0 0 0 0 0 0 0 0 0 0 0 0 0 0 0 0 0 0 0 0 0 0 0 0 0 0 0 0 0 0 0 0 0 0 0 0 0 0 0 0 0 0 0 0 0 0 0 0 0 0 0 0 0 0 0 0 0 0 0 0 0 0 0 0 0 0 0 0 0 0 0 0 0 0 0 0 0 0 0 0 0 0 0 0 0 0 0 0 0 0 0 0 0 0 0 0 0 0 0 0 0 0 0 0 0 0 0 0 0 0 0 0 0 0 0 0 0 0 0 0 0 0 0 0 0 0 0 0 0 0 0 0 0 0 0 0 0 0 0 0 0 0 0 0 0 0 0 0 0 0 0 0 0 0 0 0 0 0 0 0 0 0 0 0 0 0 0 0 0 0 0 0 0 0 0 0 0 0 0 0 0 0 0 0 0 0 0 0 0 0 0 0 0 0 0 0 0 0 0 0 0 0 0 0 0 0 0 0 0 0 0 0 0 0 0 0 0 0 0 0 0 0 0 0 0 0 0 0 0 0 0 0 0 0 0 0 0 0 0 0 0 0 0 0 0 0 0 0 0 0 0 0 0 0 0 0 0 0 0 0 0 0 0 0 0 0 0 0 0 0 0 0 0 0 0 0 0 0 0 0 0 0 0 0 0 0 0 0 0 0 0 0 0 0 0 0 0 0 0 0 0 0 0 0 0 0 0 0 0 0 0 0 0 0 0 0 0 0 0 0 0 0 0 0 0 0 0 0 0 0 0 0 0 0 0 0 0 0 0 0 0 0 0 0 0 0 0 0 0 0 0 0 0 0 0 0 0 0 0 0 0 0 0 0 0 0 0 0 0 0 0 0 0 0 0 0 0 0 0 0 0 0 0 0 0 0 0 0 0 0 0 0 0 0 0 0 0 0 0 0 0 0 0 0 0 0 0 0 0 0 0 0 0 0 0 0 0 0 0 0 0 0 0 0 0 0 0 0 0 0 0 0 0 0 0 0 0 0 0 0 0 0 0 0 0 0 0 0 0 0 0 0 0 0 0 0 0 0 0 0 0 0 0 0 0 0 0 0 0 0 0 0 0 0 0 0 0 0 0 0 0 0 0 0 0 0 0 0 0 0 0 0 0 0 0 0 0 0 0 0 0 0 0 0 0 0 0 0 0 0 0 0 0 0 0 0 0 0 0 0 0 0 0 0 0 0 0 0 0 0 0 0 0 0 0 0 0 0 0 0 0 0 0 0 0 0 0 0 0 0 0 0 0 0 0 0 0 0 0 0 0 0 0 0 0 0 0 0 0 0 0 0 0 0 0 0 0 0 0 0 0 0 0 0 0 0 0 0 0 0 0 0 0 0 0 0 0 0 0 0 0 0 0 0 0 0 0 0 0 0 0 0 0 0 0 0 0 0 0 0 0 0 0 0 0 0 0 0 0 0 0 0 0 0 0 0 0 0 0 0 0 0 0 0 0 0 0 0 0 0 0 0 0 0 0 0 0 0 0 0 0 0 0 0 0 0 0 0 0 0 0 0 0 0 0 0 0 0 0 0 0 0 0 0 0 0 0 0 0 0 0 0 0 0 0 0 0 0 0 0 0 0 0 0 0 0 0 0 0 0 0 0 0 0 0 0 0 0 0 0 0 0 0 0 0 0 0 0 0 0 0 0 0 0 0 0 0 0 0 0 0 0 0 0 0 0 0 0 0 0 0 0 0 0 0 0 0 0 0 0 0 0 0 0 0 0 0 0 0 0 0 0 0 0 0 0 0 0 0 0 0 0 0 0 0 0 0 0 0 0 0 0 0 0 0 0 0 0 0 0 0 0 0 0 0 0 0 0 0 0 0 0 0 0 0 0 0 0 0 0 0 0 0 0 0 0 0 0 0 0 0 0 0 0 0 0 0 0 0 0 0 0 0 0 0 0 0 0 0 0 0 0 0 0 0 0 0 0 0 0 0 0 0 0 0 0 0 0 0 0 0 0 0 0 0 0 0 0 0 0 0 0 0 0 0 0 0 0 0 0 0 0 0 0 0 0 0 0 0 0 0 0 0 0 0 0 0 0 0 0 0 0 0 0 0 0 0 0 0 0 0 0 0 0 0 0 0 0 0 0 0 0 0 0 0 0 0 0 0 0 0 0 0 0 0 0 0 0 0 0 0 0 0 0 0 0 0 0 0 0 0 0 0 0 0 0 0 0 0 0 0 0 0 0 0 0 0 0 0 0 0 0 0 0 0 0 0 0 0 0 0 0 0 0 0 0 0 0 0 0 0 0 0 0 0 0 0 0 0 0 0 0 0 0 0 0 0 0 0 0 0 0 0 0 0 0 0 0 0 0 0 0 0 0 0 0 0 0 0 0 0 0 0 0 0 0 0 0 0 0 0 0 0 0 0 0 0 0 0 0 0 0 0 0 0 0 0 0 0 0 0 0 0 0 0 0 0 0 0 0 0 0 0 0 0 0 0 0 0 0 0 0 0 0 0 0 0 0 0 0 0 0 0 0 0 0 0 0 0 0 0 0 0 0 0 0 0 0 0 0 0 0 0 0 0 0 0 0 0 0 0 0 0 0 0 0 0 0 0 0 0 0 0 0 0 0 0 0 0 0 0 0 0 0 0 0 0 0 0 0 0 0 0 0 0 0 0 0 0 0 0 0 0 0 0 0 0 0 0 0 0 0 0 0 0 0 0 0 0 0 0 0 0 0 0 0 0 0 0 0 0 0 0 0 0 0 0 0 0 0 0 0 0 0 0 0 0 0 0 0 0 0 0 0 0 0 0 0 0 0 0 0 0 0 0 0 0 0 0 0 0 0 0 0 0 0 0 0 0 0 0 0 0 0 0 0 0 0 0 0 0 0 0 0 0 0 0 0 0 0 0 0 0 0 0 0 0 0 0 0 0 0 0 0 0 0 0 0 0 0 0 0 0 0 0 0 0 0 0 0 0 0 0 0 0 0 0 0 0 0 0 0 0 0 0 0 0 0 0 0 0 0 0 0 0 0 0 0 0 0 0 0 0 0 0 0 0 0 0 0 0 0 0 0 0 0 0 0 0 0 0 0 0 0 0 0 0 0 0 0 0 0 0 0 0 0 0 0 0 0 0 0 0 0 0 0 0 0 0 0 0 0 0 0 0 0 0 0 0 0 0 0 0 0 0 0 0 0 0 0 0 0 0 0 0 0 0 0 0 0 0 0 0 0 0 0 0 0 0 0 0 0 0 0 0 0 0 0 0 0 0 0 0 0 0 0 0 0 0 0 0 0 0 0 0 0 0 0 0 0 0 0 0 0 0 0 0 0 0 0 0 0 0 0 0 0 0 0 0 0 0 0 0 0 0 0 0 0 0 0 0 0 0 0 0 0 0 0 0 0 0 0 0 0 0 0 0 0 0 0 0 0 0 0 0 0 0 0 0 0 0 0 0 0 0 0 0 0 0 0 0 0 0 0 0 0 0 0 0 0 0 0 0 0 0 0 0 0 0 0 0 0 0 0 0 0 0 0 0 0 0 0 0 0 0 0 0 0 0 0 0 0 0 0 0 0 0 0 0 0 0 0 0 0 0 0 0 0 0 0 0 0 0 0 0 0 0 0 0 0 0 0 0 0 0 0 0 0 0 0 0 0 0 0 0 0 0 0 0 0 0 0 0 0 0 0 0 0 0 0 0 0 0 0 0 0 0 0 0 0 0 0 0 0 0 0 0 0 0 0 0 0 0 0 0 0 0 0 0 0 0 0 0 0 0 0 0 0 0 0 0 0 0 0 0 0 0 0 0 0 0 0 0 0 0 0 0 0 0 0 0 0 0 0 0 0 0 0 0 0 0 0 0 0 0 0 0 0 0 0 0 0 0 0 0 0 0 0 0 0 0 0 0 0 0 0 0 0 0 0 0 0 0 0 0 0 0 0 0 0 0 0 0 0 0 0 0 0 0 0 0 0 0 0 0 0 0 0 0 0 0 0 0 0 0 0 0 0 0 0 0 0 0 0 0 0 0 0 0 0 0 0 0 0 0 0 0 0 0 0 0 0 0 0 0 0 0 0 0 0 0 0 0 0 0 0 0 0 0 0 0 0 0 0 0 0 0 0 0 0 0 0 0 0 0 0 0 0 0 0 0 0 0 0 0 0 0 0 0 0 0 0 0 0 0 0 0 0 0 0 0 0 0 0 0 0 0 0 0 0 0 0 0 0 0 0 0 0 0 0 0 0 0 0 0 0 0 0 0 0 0 0 0 0 0 0 0 0 0 0 0 0 0 0 0 0 0 0 0 0 0 0 0 0 0 0 0 0 0 0 0 0 0 0 0 0 0 0 0 0 0 0 0 0 0 0 0 0 0 0 0 0 0 0 0 0 0 0 0 0 0 0 0 0 0 0 0 0 0 0 0 0 0 0 0 0 0 0 0 0 0 0 0 0 0 0 0 0 0 0 0 0 0 0 0 0 0 0 0 0 0 0 0 0 0 0 0 0 0 0 0 0 0 0 0 0 0 0 0 0 0 0 0 0 0 0 0 0 0 0 0 0 0 0 0 0 0 0 0 0 0 0 0 0 0 0 0 0 0 0 0 0 0 0 0 0 0 0 0 0 0 0 0 0 0 0 0 0 0 0 0 0 0 0 0 0 0 0 0 0 0 0 0 0 0 0 0 0 0 0 0 0 0 0 0 0 0 0 0 0 0 0 0 0 0 0 0 0 0 0 0 0 0 0 0 0 0 0 0 0 0 0 0 0 0 0 0 0 0 0 0 0 0 0 0 0 0 0 0 0 0 0 0 0 0 0 0 0 0 0 0 0 0 0 0 0 0 0 0 0 0 0 0 0 0 0 0 0 0 0 0 0 0 0 0 0 0 0 0 0 0 0 0 0 0 0 0 0 0 0 0 0 0 0 0 0 0 0 0 0 0 0 0 0 0 0 0 0 0 0 0 0 0 0 0 0 0 0 0 0 0 0 0 0 0 0 0 0 0 0 0 0 0 0 0 0 0 0 0 0 0 0 0 0 0 0 0 0 0 0 0 0 0 0 0 0 0 0 0 0 0 0 0 0 0 0 0 0 0 0 0 0 0 0 0 0 0 0 0 0 0 0 0 0 0 0 0 0 0 0 0 0 0 0 0 0 0 0 0 0 0 0 0 0 0 0 0 0 0 0 0 0 0 0 0 0 0 0 0 0 0 0 0 0 0 0 0 0 0 0 0 0 0 0 0 0 0 0 0 0 0 0 0 0 0 0 0 0 0 0 0 0 0 0 0 0 0 0 0 0 0 0 0 0 0 0 0 0 0 0 0 0 0 0 0 0 0 0 0 0 0 0 0 0 0 0 0 0 0 0 0 0 0 0 0 0 0 0 0 0 0 0 0 0 0 0 0 0 0 0 0 0 0 0 0 0 0 0 0 0 0 0 0 0 0 0 0 0 0 0 0 0 0 0 0 0 0 0 0 0 0 0 0 0 0 0 0 0 0 0 0 0 0 0 0 0 0 0 0 0 0 0 0 0 0 0 0 0 0 0 0 0 0 0 0 0 0 0 0 0 0 0 0 0 0 0 0 0 0 0 0 0 0 0 0 0 0 0 0 0 0 0 0 0 0 0 0 0 0 0 0 0 0 0 0 0 0 0 0 0 0 0 0 0 0 0 0 0 0 0 0 0 0 0 0 0 0 0 0 0 0 0 0 0 0 0 0 0 0 0 0 0 0 0 0 0 0 0 0 0 0 0 0 0 0 0 0 0 0 0 0 0 0 0 0 0 0 0 0 0 0 0 0 0 0 0 0 0 0 0 0 0 0 0 0 0 0 0 0 0 0 0 0 0 0 0 0 0 0 0 0 0 0 0 0 0 0 0 0 0 0 0 0 0 0 0 0 0 0 0 0 0 0 0 0 0 0 0 0 0 0 0 0 0 0 0 0 0 0 0 0 0 0 0 0 0 0 0 0 0 0 0 0 0 0 0 0 0 0 0 0 0 0 0 0 0 0 0 0 0 0 0 0 0 0 0 0 0 0 0 0 0 0 0 0 0 0 0 0 0 0 0 0 0 0 0 0 0 0 0 0 0 0 0 0 0 0 0 0 0 0 0 0 0 0 0 0 0 0 0 0 0 0 0 0 0 0 0 0 0 0 0 0 0 0 0 0 0 0 0 0 0 0 0 0 0 0 0 0 0 0 0 0 0 0 0 0 0 0 0 0 0 0 0 0 0 0 0 0 0 0 0 0 0 0 0 0 0 0 0 0 0 0 0 0 0 0 0 0 0 0 0 0 0 0 0 0 0 0 0 0 0 0 0 0 0 0 0 0 0 0 0 0 0 0 0 0 0 0 0 0 0 0 0 0 0 0 0 0 0 0 0 0 0 0 0 0 0 0 0 0 0 0 0 0 0 0 0 0 0 0 0 0 0 0 0 0 0 0 0 0 0 0 0 0 0 0 0 0 0 0 0 0 0 0 0 0 0 0 0 0 0 0 0 0 0 0 0 0 0 0 0 0 0 0 0 0 0 0 0 0 0 0 0 0 0 0 0 0 0 0 0 0 0 0 0 0 0 0 0 0 0 0 0 0 0 0 0 0 0 0 0 0 0 0 0 0 0 0 0 0 0 0 0 0 0 0 0 0 0 0 0 0 0 0 0 0 0 0 0 0 0 0 0 0 0 0 0 0 0 0 0 0 0 0 0 0 0 0 0 0 0 0 0 0 0 0 0 0 0 0 0 0 0 0 0 0 0 0 0 0 0 0 0 0 0 0 0 0 0 0 0 0 0 0 0 0 0 0 0 0 0 0 0 0 0 0 0 0 0 0 0 0 0 0 0 0 0 0 0 0 0 0 0 0 0 0 0 0 0 0 0 0 0 0 0 0 0 0 0 0 0 0 0 0 0 0 0 0 0 0 0 0 0 0 0 0 0 0 0 0 0 0 0 0 0 0 0 0 0 0 0 0 0 0 0 0 0 0 0 0 0 0 0 0 0 0 0 0 0 0 0 0 0 0 0 0 0 0 0 0 0 0 0 0 0 0 0 0 0 0 0 0 0 0 0 0 0 0 0 0 0 0 0 0 0 0 0 0 0 0 0 0 0 0 0 0 0 0 0 0 0 0 0 0 0 0 0 0 0 0 0 0 0 0 0 0 0 0 0 0 0 0 0 0 0 0 0 0 0 0 0 0 0 0 0 0 0 0 0 0 0 0 0 0 0 0 0 0 0 0 0 0 0 0 0 0 0 0 0 0 0 0 0 0 0 0 0 0 0 0 0 0 0 0 0 0 0 0 0 0 0 0 0 0 0 0 0 0 0 0 0 0 0 0 0 0 0 0 0 0 0 0 0 0 0 0 0 0 0 0 0 0 0 0 0 0 0 0 0 0 0 0 0 0 0 0 0 0 0 0 0 0 0 0 0 0 0 0 0 0 0 0 0 0 0 0 0 0 0 0 0 0 0 0 0 0 0 0 0 0 0 0 0 0 0 0 0 0 0 0 0 0 0 0 0 0 0 0 0 0 0 0 0 0 0 0 0 0 0 0 0 0 0 0 0 0 0 0 0 0 0 0 0 0 0 0 0 0 0 0 0 0 0 0 0 0 0 0 0 0 0 0 0 0 0 0 0 0 0 0 0 0 0 0 0 0 0 0 0 0 0 0 0 0 0 0 0 0 0 0 0 0 0 0 0 0 0 0 0 0 0 0 0 0 0 0 0 0 0 0 0 0 0 0 0 0 0 0 0 0 0 0 0 0 0 0 0 0 0 0 0 0 0 0 0 0 0 0 0 0 0 0 0 0 0 0 0 0 0 0 0 0 0 0 0 0 0 0 0 0 0 0 0 0 0 0 0 0 0 0 0 0 0 0 0 0 0 0 0 0 0 0 0 0 0 0 0 0 0 0 0 0 0 0 0 0 0 0 0 0 0 0 0 0 0 0 0 0 0 0 0 0 0 0 0 0 0 0 0 0 0 0 0 0 0 0 0 0 0 0 0 0 0 0 0 0 0 0 0 0 0 0 0 0 0 0 0 0 0 0 0 0 0 0 0 0 0 0 0 0 0 0 0 0 0 0 0 0 0 0 0 0 0 0 0 0 0 0 0 0 0 0 0 0 0 0 0 0 0 0 0 0 0 0 0 0 0 0 0 0 0 0 0 0 0 0 0 0 0 0 0 0 0 0 0 0 0 0 0 0 0 0 0 0 0 0 0 0 0 0 0 0 0 0 0 0 0 0 0 0 0 0 0 0 0 0 0 0 0 0 0 0 0 0 0 0 0 0 0 0 0 0 0 0 0 0 0 0 0 0 0 0 0 0 0 0 0 0 0 0 0 0 0 0 0 0 0 0 0 0 0 0 0 0 0 0 0 0 0 0 0 0 0 0 0 0 0 0 0 0 0 0 0 0 0 0 0 0 0 0 0 0 0 0 0 0 0 0 0 0 0 0 0 0 0 0 0 0 0 0 0 0 0 0 0 0 0 0 0 0 0 0 0 0 0 0 0 0 0 0 0 0 0 0 0 0 0 0 0 0 0 0 0 0 0 0 0 0 0 0 0 0 0 0 0 0 0 0 0 0 0 0 0 0 0 0 0 0 0 0 0 0 0 0 0 0 0 0 0 0 0 0 0 0 0 0 0 0 0 0 0 0 0 0 0 0 0 0 0 0 0 0 0 0 0 0 0 0 0 0 0 0 0 0 0 0 0 0 0 0 0 0 0 0 0 0 0 0 0 0 0 0 0 0 0 0 0 0 0 0 0 0 0 0 0 0 0 0 0 0 0 0 0 0 0 0 0 0 0 0 0 0 0 0 0 0 0 0 0 0 0 0 0 0 0 0 0 0 0 0 0 0 0 0 0 0 0 0 0 0 0 0 0 0 0 0 0 0 0 0 0 0 0 0 0 0 0 0 0 0 0 0 0 0 0 0 0 0 0 0 0 0 0 0 0 0 0 0 0 0 0 0 0 0 0 0 0 0 0 0 0 0 0 0 0 0 0 0 0 0 0 0 0 0 0 0 0 0 0 0 0 0 0 0 0 0 0 0 0 0 0 0 0 0 0 0 0 0 0 0 0 0 0 0 0 0 0 0 0 0 0 0 0 0 0 0 0 0 0 0 0 0 0 0 0 0 0 0 0 0 0 0 0 0 0 0 0 0 0 0 0 0 0 0 0 0 0 0 0 0 0 0 0 0 0 0 0 0 0 0 0 0 0 0 0 0 0 0 0 0 0 0 0 0 0 0 0 0 0 0 0 0 0 0 0 0 0 0 0 0 0 0 0 0 0 0 0 0 0 0 0 0 0 0 0 0 0 0 0 0 0 0 0 0 0 0 0 0 0 0 0 0 0 0 0 0 0 0 0 0 0 0 0 0 0 0 0 0 0 0 0 0 0 0 0 0 0 0 0 0 0 0 0 0 0 0 0 0 0 0 0 0 0 0 0 0 0 0 0 0 0 0 0 0 0 0 0 0 0 0 0 0 0 0 0 0 0 0 0 0 0 0 0 0 0 0 0 0 0 0 0 0 0 0 0 0 0 0 0 0 0 0 0 0 0 0 0 0 0 0 0 0 0 0 0 0 0 0 0 0 0 0 0 0 0 0 0 0 0 0 0 0 0 0 0 0 0 0 0 0 0 0 0 0 0 0 0 0 0 0 0 0 0 0 0 0 0 0 0 0 0 0 0 0 0 0 0 0 0 0 0 0 0 0 0 0 0 0 0 0 0 0 0 0 0 0 0 0 0 0 0 0 0 0 0 0 0 0 0 0 0 0 0 0 0 0 0 0 0 0 0 0 0 0 0 0 0 0 0 0 0 0 0 0 0 0 0 0 0 0 0 0 0 0 0 0 0 0 0 0 0 0 0 0 0 0 0 0 0 0 0 0 0 0 0 0 0 0 0 0 0 0 0 0 0 0 0 0 0 0 0 0 0 0 0 0 0 0 0 0 0 0 0 0 0 0 0 0 0 0 0 0 0 0 0 0 0 0 0 0 0 0 0 0 0 0 0 0 0 0 0 0 0 0 0 0 0 0 0 0 0 0 0 0 0 0 0 0 0 0 0 0 0 0 0 0 0 0 0 0 0 0 0 0 0 0 0 0 0 0 0 0 0 0 0 0 0 0 0 0 0 0 0 0 0 0 0 0 0 0 0 0 0 0 0 0 0 0 0 0 0 0 0 0 0 0 0 0 0 0 0 0 0 0 0 0 0 0 0 0 0 0 0 0 0 0 0 0 0 0 0 0 0 0 0 0 0 0 0 0 0 0 0 0 0 0 0 0 0 0 0 0 0 0 0 0 0 0 0 0 0 0 0 0 0 0 0 0 0 0 0 0 0 0 0 0 0 0 0 0 0 0 0 0 0 0 0 0 0 0 0 0 0 0 0 0 0 0 0 0 0 0 0 0 0 0 0 0 0 0 0 0 0 0 0 0 0 0 0 0 0 0 0 0 0 0 0 0 0 0 0 0 0 0 0 0 0 0 0 0 0 0 0 0 0 0 0 0 0 0 0 0 0 0 0 0 0 0 0 0 0 0 0 0 0 0 0 0 0 0 0 0 0 0 0 0 0 0 0 0 0 0 0 0 0 0 0 0 0 0 0 0 0 0 0 0 0 0 0 0 0 0 0 0 0 0 0 0 0 0 0 0 0 0 0 0 0 0 0 0 0 0 0 0 0 0 0 0 0 0 0 0 0 0 0 0 0 0 0 0 0 0 0 0 0 0 0 0 0 0 0 0 0 0 0 0 0 0 0 0 0 0 0 0 0 0 0 0 0 0 0 0 0 0 0 0 0 0 0 0 0 0 0 0 0 0 0 0 0 0 0 0 0 0 0 0 0 0 0 0 0 0 0 0 0 0 0 0 0 0 0 0 0 0 0 0 0 0 0 0 0 0 0 0 0 0 0 0 0 0 0 0 0 0 0 0 0 0 0 0 0 0 0 0 0 0 0 0 0 0 0 0 0 0 0 0 0 0 0 0 0 0 0 0 0 0 0 0 0 0 0 0 0 0 0 0 0 0 0 0 0 0 0 0 0 0 0 0 0 0 0 0 0 0 0 0 0 0 0 0 0 0 0 0 0 0 0 0 0 0 0 0 0 0 0 0 0 0 0 0 0 0 0 0 0 0 0 0 0 0 0 0 0 0 0 0 0 0 0 0 0 0 0 0 0 0 0 0 0 0 0 0 0 0 0 0 0 0 0 0 0 0 0 0 0 0 0 0 0 0 0 0 0 0 0 0 0 0 0 0 0 0 0 0 0 0 0 0 0 0 0 0 0 0 0 0 0 0 0 0 0 0 0 0 0 0 0 0 0 0 0 0 0 0 0 0 0 0 0 0 0 0 0 0 0 0 0 0 0 0 0 0 0 0 0 0 0 0 0 0 0 0 0 0 0 0 0 0 0 0 0 0 0 0 0 0 0 0 0 0 0 0 0 0 0 0 0 0 0 0 0 0 0 0 0 0 0 0 0 0 0 0 0 0 0 0 0 0 0 0 0 0 0 0 0 0 0 0 0 0 0 0 0 0 0 0 0 0 0 0 0 0 0 0 0 0 0 0 0 0 0 0 0 0 0 0 0 0 0 0 0 0 0 0 0 0 0 0 0 0 0 0 0 0 0 0 0 0 0 0 0 0 0 0 0 0 0 0 0 0 0 0 0 0 0 0 0 0 0 0 0 0 0 0 0 0 0 0 0 0 0 0 0 0 0 0 0 0 0 0 0 0 0 0 0 0 0 0 0 0 0 0 0 0 0 0 0 0 0 0 0 0 0 0 0 0 0 0 0 0 0 0 0 0 0 0 0 0 0 0 0 0 0 0 0 0 0 0 0 0 0 0 0 0 0 0 0 0 0 0 0 0 0 0 0 0 0 0 0 0 0 0 0 0 0 0 0 0 0 0 0 0 0 0 0 0 0 0 0 0 0 0 0 0 0 0 0 0 0 0 0 0 0 0 0 0 0 0 0 0 0 0 0 0 0 0 0 0 0 0 0 0 0 0 0 0 0 0 0 0 0 0 0 0 0 0 0 0 0 0 0 0 0 0 0 0 0 0 0 0 0 0 0 0 0 0 0 0 0 0 0 0 0 0 0 0 0 0 0 0 0 0 0 0 0 0 0 0 0 0 0 0 0 0 0 0 0 0 0 0 0 0 0 0 0 0 0 0 0 0 0 0 0 0 0 0 0 0 0 0 0 0 0 0 0 0 0 0 0 0 0 0 0 0 0 0 0 0 0 0 0 0 0 0 0 0 0 0 0 0 0 0 0 0 0 0 0 0 0 0 0 0 0 0 0 0 0 0 0 0 0 0 0 0 0 0 0 0 0 0 0 0 0 0 0 0 0 0 0 0 0 0 0 0 0 0 0 0 0 0 0 0 0 0 0 0 0 0 0 0 0 0 0 0 0 0 0 0 0 0 0 0 0 0 0 0 0 0 0 0 0 0 0 0 0 0 0 0 0 0 0 0 0 0 0 0 0 0 0 0 0 0 0 0 0 0 0 0 0 0 0 0 0 0 0 0 0 0 0 0 0 0 0 0 0 0 0 0 0 0 0 0 0 0 0 0 0 0 0 0 0 0 0 0 0 0 0 0 0 0 0 0 0 0 0 0 0 0 0 0 0 0 0 0 0 0 0 0 0 0 0 0 0 0 0 0 0 0 0 0 0 0 0 0 0 0 0 0 0 0 0 0 0 0 0 0 0 0 0 0 0 0 0 0 0 0 0 0 0 0 0 0 0 0 0 0 0 0 0 0 0 0 0 0 0 0 0 0 0 0 0 0 0 0 0 0 0 0 0 0 0 0 0 0 0 0 0 0 0 0 0 0 0 0 0 0 0 0 0 0 0 0 0 0 0 0 0 0 0 0 0 0 0 0 0 0 0 0 0 0 0 0 0 0 0 0 0 0 0 0 0 0 0 0 0 0 0 0 0 0 0 0 0 0 0 0 0 0 0 0 0 0 0 0 0 0 0 0 0 0 0 0 0 0 0 0 0 0 0 0 0 0 0 0 0 0 0 0 0 0 0 0 0 0 0 0 0 0 0 0 0 0 0 0 0 0 0 0 0 0 0 0 0 0 0 0 0 0 0 0 0 0 0 0 0 0 0 0 0 0 0 0 0 0 0 0 0 0 0 0 0 0 0 0 0 0 0 0 0 0 0 0 0 0 0 0 0 0 0 0 0 0 0 0 0 0 0 0 0 0 0 0 0 0 0 0 0 0 0 0 0 0 0 0 0 0 0 0 0 0 0 0 0 0 0 0 0 0 0 0 0 0 0 0 0 0 0 0 0 0 0 0 0 0 0 0 0 0 0 0 0 0 0 0 0 0 0 0 0 0 0 0 0 0 0 0 0 0 0 0 0 0 0 0 0 0 0 0 0 0 0 0 0 0 0 0 0 0 0 0 0 0 0 0 0 0 0 0 0 0 0 0 0 0 0 0 0 0 0 0 0 0 0 0 0 0 0 0 0 0 0 0 0 0 0 0 0 0 0 0 0 0 0 0 0 0 0 0 0 0 0 0 0 0 0 0 0 0 0 0 0 0 0 0 0 0 0 0 0 0 0 0 0 0 0 0 0 0 0 0 0 0 0 0 0 0 0 0 0 0 0 0 0 0 0 0 0 0 0 0 0 0 0 0 0 0 0 0 0 0 0 0 0 0 0 0 0 0 0 0 0 0 0 0 0 0 0 0 0 0 0 0 0 0 0 0 0 0 0 0 0 0 0 0 0 0 0 0 0 0 0 0 0 0 0 0 0 0 0 0 0 0 0 0 0 0 0 0 0 0 0 0 0 0 0 0 0 0 0 0 0 0 0 0 0 0 0 0 0 0 0 0 0 0 0 0 0 0 0 0 0 0 0 0 0 0 0 0 0 0 0 0 0 0 0 0 0 0 0 0 0 0 0 0 0 0 0 0 0 0 0 0 0 0 0 0 0 0 0 0 0 0 0 0 0 0 0 0 0 0 0 0 0 0 0 0 0 0 0 0 0 0 0 0 0 0 0 0 0 0 0 0 0 0 0 0 0 0 0 0 0 0 0 0 0 0 0 0 0 0 0 0 0 0 0 0 0 0 0 0 0 0 0 0 0 0 0 0 0 0 0 0 0 0 0 0 0 0 0 0 0 0 0 0 0 0 0 0 0 0 0 0 0 0 0 0 0 0 0 0 0 0 0 0 0 0 0 0 0 0 0 0 0 0 0 0 0 0 0 0 0 0 0 0 0 0 0 0 0 0 0 0 0 0 0 0 0 0 0 0 0 0 0 0 0 0 0 0 0 0 0 0 0 0 0 0 0 0 0 0 0 0 0 0 0 0 0 0 0 0 0 0 0 0 0 0 0 0 0 0 0 0 0 0 0 0 0 0 0 0 0 0 0 0 0 0 0 0 0 0 0 0 0 0 0 0 0 0 0 0 0 0 0 0 0 0 0 0 0 0 0 0 0 0 0 0 0 0 0 0 0 0 0 0 0 0 0 0 0 0 0 0 0 0 0 0 0 0 0 0 0 0 0 0 0 0 0 0 0 0 0 0 0 0 0 0 0 0 0 0 0 0 0 0 0 0 0 0 0 0 0 0 0 0 0 0 0 0 0 0 0 0 0 0 0 0 0 0 0 0 0 0 0 0 0 0 0 0 0 0 0 0 0 0 0 0 0 0 0 0 0 0 0 0 0 0 0 0 0 0 0 0 0 0 0 0 0 0 0 0 0 0 0 0 0 0 0 0 0 0 0 0 0 0 0 0 0 0 0 0 0 0 0 0 0 0 0 0 0 0 0 0 0 0 0 0 0 0 0 0 0 0 0 0 0 0 0 0 0 0 0 0 0 0 0 0 0 0 0 0 0 0 0 0 0 0 0 0 0 0 0 0 0 0 0 0 0 0 0 0 0 0 0 0 0 0 0 0 0 0 0 0 0 0 0 0 0 0 0 0 0 0 0 0 0 0 0 0 0 0 0 0 0 0 0 0 0 0 0 0 0 0 0 0 0 0 0 0 0 0 0 0 0 0 0 0 0 0 0 0 0 0 0 0 0 0 0 0 0 0 0 0 0 0 0 0 0 0 0 0 0 0 0 0 0 0 0 0 0 0 0 0 0 0 0 0 0 0 0 0 0 0 0 0 0 0 0 0 0 0 0 0 0 0 0 0 0 0 0 0 0 0 0 0 0 0 0 0 0 0 0 0 0 0 0 0 0 0 0 0 0 0 0 0 0 0 0 0 0 0 0 0 0 0 0 0 0 0 0 0 0 0 0 0 0 0 0 0 0 0 0 0 0 0 0 0 0 0 0 0 0 0 0 0 0 0 0 0 0 0 0 0 0 0 0 0 0 0 0 0 0 0 0 0 0 0 0 0 0 0 0 0 0 0 0 0 0 0 0 0 0 0 0 0 0 0 0 0 0 0 0 0 0 0 0 0 0 0 0 0 0 0 0 0 0 0 0 0 0 0 0 0 0 0 0 0 0 0 0 0 0 0 0 0 0 0 0 0 0 0 0 0 0 0 0 0 0 0 0 0 0 0 0 0 0 0 0 0 0 0 0 0 0 0 0 0 0 0 0 0 0 0 0 0 0 0 0 0 0 0 0 0 0 0 0 0 0 0 0 0 0 0 0 0 0 0 0 0 0 0 0 0 0 0 0 0 0 0 0 0 0 0 0 0 0 0 0 0 0 0 0 0 0 0 0 0 0 0 0 0 0 0 0 0 0 0 0 0 0 0 0 0 0 0 0 0 0 0 0 0 0 0 0 0 0 0 0 0 0 0 0 0 0 0 0 0 0 0 0 0 0 0 0 0 0 0 0 0 0 0 0 0 0 0 0 0 0 0 0 0 0 0 0 0 0 0 0 0 0 0 0 0 0 0 0 0 0 0 0 0 0 0 0 0 0 0 0 0 0 0 0 0 0 0 0 0 0 0 0 0 0 0 0 0 0 0 0 0 0 0 0 0 0 0 0 0 0 0 0 0 0 0 0 0 0 0 0 0 0 0 0 0 0 0 0 0 0 0 0 0 0 0 0 0 0 0 0 0 0 0 0 0 0 0 0 0 0 0 0 0 0 0 0 0 0 0 0 0 0 0 0 0 0 0 0 0 0 0 0 0 0 0 0 0 0 0 0 0 0 0 0 0 0 0 0 0 0 0 0 0 0 0 0 0 0 0 0 0 0 0 0 0 0 0 0 0 0 0 0 0 0 0 0 0 0 0 0 0 0 0 0 0 0 0 0 0 0 0 0 0 0 0 0 0 0 0 0 0 0 0 0 0 0 0 0 0 0 0 0 0 0 0 0 0 0 0 0 0 0 0 0 0 0 0 0 0 0 0 0 0 0 0 0 0 0 0 0 0 0 0 0 0 0 0 0 0 0 0 0 0 0 0 0 0 0 0 0 0 0 0 0 0 0 0 0 0 0 0 0 0 0 0 0 0 0 0 0 0 0 0 0 0 0 0 0 0 0 0 0 0 0 0 0 0 0 0 0 0 0 0 0 0 0 0 0 0 0 0 0 0 0 0 0 0 0 0 0 0 0 0 0 0 0 0 0 0 0 0 0 0 0 0 0 0 0 0 0 0 0 0 0 0 0 0 0 0 0 0 0 0 0 0 0 0 0 0 0 0 0 0 0 0 0 0 0 0 0 0 0 0 0 0 0 0 0 0 0 0 0 0 0 0 0 0 0 0 0 0 0 0 0 0 0 0 0 0 0 0 0 0 0 0 0 0 0 0 0 0 0 0 0 0 0 0 0 0 0 0 0 0 0 0 0 0 0 0 0 0 0 0 0 0 0 0 0 0 0 0 0 0 0 0 0 0 0 0 0 0 0 0 0 0 0 0 0 0 0 0 0 0 0 0 0 0 0 0 0 0 0 0 0 0 0 0 0 0 0 0 0 0 0 0 0 0 0 0 0 0 0 0 0 0 0 0 0 0 0 0 0 0 0 0 0 0 0 0 0 0 0 0 0 0 0 0 0 0 0 0 0 0 0 0 0 0 0 0 0 0 0 0 0 0 0 0 0 0 0 0 0 0 0 0 0 0 0 0 0 0 0 0 0 0 0 0 0 0 0 0 0 0 0 0 0 0 0 0 0 0 0 0 0 0 0 0 0 0 0 0 0 0 0 0 0 0 0 0 0 0 0 0 0 0 0 0 0 0 0 0 0 0 0 0 0 0 0 0 0 0 0 0 0 0 0 0 0 0 0 0 0 0 0 0 0 0 0 0 0 0 0 0 0 0 0 0 0 0 0 0 0 0 0 0 0 0 0 0 0 0 0 0 0 0 0 0 0 0 0 0 0 0 0 0 0 0 0 0 0 0 0 0 0 0 0 0 0 0 0 0 0 0 0 0 0 0 0 0 0 0 0 0 0 0 0 0 0 0 0 0 0 0 0 0 0 0 0 0 0 0 0 0 0 0 0 0 0 0 0 0 0 0 0 0 0 0 0 0 0 0 0 0 0 0 0 0 0 0 0 0 0 0 0 0 0 0 0 0 0 0 0 0 0 0 0 0 0 0 0 0 0 0 0 0 0 0 0 0 0 0 0 0 0 0 0 0 0 0 0 0 0 0 0 0 0 0 0 0 0 0 0 0 0 0 0 0 0 0 0 0 0 0 0 0 0 0 0 0 0 0 0 0 0 0 0 0 0 0 0 0 0 0 0 0 0 0 0 0 0 0 0 0 0 0 0 0 0 0 0 0 0 0 0 0 0 0 0 0 0 0 0 0 0 0 0 0 0 0 0 0 0 0 0 0 0 0 0 0 0 0 0 0 0 0 0 0 0 0 0 0 0 0 0 0 0 0 0 0 0 0 0 0 0 0 0 0 0 0 0 0 0 0 0 0 0 0 0 0 0 0 0 0 0 0 0 0 0 0 0 0 0 0 0 0 0 0 0 0 0 0 0 0 0 0 0 0 0 0 0 0 0 0 0 0 0 0 0 0 0 0 0 0 0 0 0 0 0 0 0 0 0 0 0 0 0 0 0 0 0 0 0 0 0 0 0 0 0 0 0 0 0 0 0 0 0 0 0 0 0 0 0 0 0 0 0 0 0 0 0 0 0 0 0 0 0 0 0 0 0 0 0 0 0 0 0 0 0 0 0 0 0 0 0 0 0 0 0 0 0 0 0 0 0 0 0 0 0 0 0 0 0 0 0 0 0 0 0 0 0 0 0 0 0 0 0 0 0 0 0 0 0 0 0 0 0 0 0 0 0 0 0 0 0 0 0 0 0 0 0 0 0 0 0 0 0 0 0 0 0 0 0 0 0 0 0 0 0 0 0 0 0 0 0 0 0 0 0 0 0 0 0 0 0 0 0 0 0 0 0 0 0 0 0 0 0 0 0 0 0 0 0 0 0 0 0 0 0 0 0 0 0 0 0 0 0 0 0 0 0 0 0 0 0 0 0 0 0 0 0 0 0 0 0 0 0 0 0 0 0 0 0 0 0 0 0 0 0 0 0 0 0 0 0 0 0 0 0 0 0 0 0 0 0 0 0 0 0 0 0 0 0 0 0 0 0 0 0 0 0 0 0 0 0 0 0 0 0 0 0 0 0 0 0 0 0 0 0 0 0 0 0 0 0 0 0 0 0 0 0 0 0 0 0 0 0 0 0 0 0 0 0 0 0 0 0 0 0 0 0 0 0 0 0 0 0 0 0 0 0 0 0 0 0 0 0 0 0 0 0 0 0 0 0 0 0 0 0 0 0 0 0 0 0 0 0 0 0 0 0 0 0 0 0 0 0 0 0 0 0 0 0 0 0 0 0 0 0 0 0 0 0 0 0 0 0 0 0 0 0 0 0 0 0 0 0 0 0 0 0 0 0 0 0 0 0 0 0 0 0 0 0 0 0 0 0 0 0 0 0 0 0 0 0 0 0 0 0 0 0 0 0 0 0 0 0 0 0 0 0 0 0 0 0 0 0 0 0 0 0 0 0 0 0 0 0 0 0 0 0 0 0 0 0 0 0 0 0 0 0 0 0 0 0 0 0 0 0 0 0 0 0 0 0 0 0 0 0 0 0 0 0 0 0 0 0 0 0 0 0 0 0 0 0 0 0 0 0 0 0 0 0 0 0 0 0 0 0 0 0 0 0 0 0 0 0 0 0 0 0 0 0 0 0 0 0 0 0 0 0 0 0 0 0 0 0 0 0 0 0 0 0 0 0 0 0 0 0 0 0 0 0 0 0 0 0 0 0 0 0 0 0 0 0 0 0 0 0 0 0 0 0 0 0 0 0 0 0 0 0 0 0 0 0 0 0 0 0 0 0 0 0 0 0 0 0 0 0 0 0 0 0 0 0 0 0 0 0 0 0 0 0 0 0 0 0 0 0 0 0 0 0 0 0 0 0 0 0 0 0 0 0 0 0 0 0 0 0 0 0 0 0 0 0 0 0 0 0 0 0 0 0 0 0 0 0 0 0 0 0 0 0 0 0 0 0 0 0 0 0 0 0 0 0 0 0 0 0 0 0 0 0 0 0 0 0 0 0 0 0 0 0 0 0 0 0 0 0 0 0 0 0 0 0 0 0 0 0 0 0 0 0 0 0 0 0 0 0 0 0 0 0 0 0 0 0 0 0 0 0 0 0 0 0 0 0 0 0 0 0 0 0 0 0 0 0 0 0 0 0 0 0 0 0 0 0 0 0 0 0 0 0 0 0 0 0 0 0 0 0 0 0 0 0 0 0 0 0 0 0 0 0 0 0 0 0 0 0 0 0 0 0 0 0 0 0 0 0 0 0 0 0 0 0 0 0 0 0 0 0 0 0 0 0 0 0 0 0 0 0 0 0 0 0 0 0 0 0 0 0 0 0 0 0 0 0 0 0 0 0 0 0 0 0 0 0 0 0 0 0 0 0 0 0 0 0 0 0 0 0 0 0 0 0 0 0 0 0 0 0 0 0 0 0 0 0 0 0 0 0 0 0 0 0 0 0 0 0 0 0 0 0 0 0 0 0 0 0 0 0 0 0 0 0 0 0 0 0 0 0 0 0 0 0 0 0 0 0 0 0 0 0 0 0 0 0 0 0 0 0 0 0 0 0 0 0 0 0 0 0 0 0 0 0 0 0 0 0 0 0 0 0 0 0 0 0 0 0 0 0 0 0 0 0 0 0 0 0 0 0 0 0 0 0 0 0 0 0 0 0 0 0 0 0 0 0 0 0 0 0 0 0 0 0 0 0 0 0 0 0 0 0 0 0 0 0 0 0 0 0 0 0 0 0 0 0 0 0 0 0 0 0 0 0 0 0 0 0 0 0 0 0 0 0 0 0 0 0 0 0 0 0 0 0 0 0 0 0 0 0 0 0 0 0 0 0 0 0 0 0 0 0 0 0 0 0 0 0 0 0 0 0 0 0 0 0 0 0 0 0 0 0 0 0 0 0 0 0 0 0 0 0 0 0 0 0 0 0 0 0 0 0 0 0 0 0 0 0 0 0 0 0 0 0 0 0 0 0 0 0 0 0 0 0 0 0 0 0 0 0 0 0 0 0 0 0 0 0 0 0 0 0 0 0 0 0 0 0 0 0 0 0 0 0 0 0 0 0 0 0 0 0 0 0 0 0 0 0 0 0 0 0 0 0 0 0 0 0 0 0 0 0 0 0 0 0 0 0 0 0 0 0 0 0 0 0 0 0 0 0 0 0 0 0 0 0 0 0 0 0 0 0 0 0 0 0 0 0 0 0 0 0 0 0 0 0 0 0 0 0 0 0 0 0 0 0 0 0 0 0 0 0 0 0 0 0 0 0 0 0 0 0 0 0 0 0 0 0 0 0 0 0 0 0 0 0 0 0 0 0 0 0 0 0 0 0 0 0 0 0 0 0 0 0 0 0 0 0 0 0 0 0 0 0 0 0 0 0 0 0 0 0 0 0 0 0 0 0 0 0 0 0 0 0 0 0 0 0 0 0 0 0 0 0 0 0 0 0 0 0 0 0 0 0 0 0 0 0 0 0 0 0 0 0 0 0 0 0 0 0 0 0 0 0 0 0 0 0 0 0 0 0 0 0 0 0 0 0 0 0 0 0 0 0 0 0 0 0 0 0 0 0 0 0 0 0 0 0 0 0 0 0 0 0 0 0 0 0 0 0 0 0 0 0 0 0 0 0 0 0 0 0 0 0 0 0 0 0 0 0 0 0 0 0 0 0 0 0 0 0 0 0 0 0 0 0 0 0 0 0 0 0 0 0 0 0 0 0 0 0 0 0 0 0 0 0 0 0 0 0 0 0 0 0 0 0 0 0 0 0 0 0 0 0 0 0 0 0 0 0 0 0 0 0 0 0 0 0 0 0 0 0 0 0 0 0 0 0 0 0 0 0 0 0 0 0 0 0 0 0 0 0 0 0 0 0 0 0 0 0 0 0 0 0 0 0 0 0 0 0 0 0 0 0 0 0 0 0 0 0 0 0 0 0 0 0 0 0 0 0 0 0 0 0 0 0 0 0 0 0 0 0 0 0 0 0 0 0 0 0 0 0 0 0 0 0 0 0 0 0 0 0 0 0 0 0 0 0 0 0 0 0 0 0 0 0 0 0 0 0 0 0 0 0 0 0 0 0 0 0 0 0 0 0 0 0 0 0 0 0 0 0 0 0 0 0 0 0 0 0 0 0 0 0 0 0 0 0 0 0 0 0 0 0 0 0 0 0 0 0 0 0 0 0 0 0 0 0 0 0 0 0 0 0 0 0 0 0 0 0 0 0 0 0 0 0 0 0 0 0 0 0 0 0 0 0 0 0 0 0 0 0 0 0 0 0 0 0 0 0 0 0 0 0 0 0 0 0 0 0 0 0 0 0 0 0 0 0 0 0 0 0 0 0 0 0 0 0 0 0 0 0 0 0 0 0 0 0 0 0 0 0 0 0 0 0 0 0 0 0 0 0 0 0 0 0 0 0 0 0 0 0 0 0 0 0 0 0 0 0 0 0 0 0 0 0 0 0 0 0 0 0 0 0 0 0 0 0 0 0 0 0 0 0 0 0 0 0 0 0 0 0 0 0 0 0 0 0 0 0 0 0 0 0 0 0 0 0 0 0 0 0 0 0 0 0 0 0 0 0 0 0 0 0 0 0 0 0 0 0 0 0 0 0 0 0 0 0 0 0 0 0 0 0 0 0 0 0 0 0 0 0 0 0 0 0 0 0 0 0 0 0 0 0 0 0 0 0 0 0 0 0 0 0 0 0 0 0 0 0 0 0 0 0 0 0 0 0 0 0 0 0 0 0 0 0 0 0 0 0 0 0 0 0 0 0 0 0 0 0 0 0 0 0 0 0 0 0 0 0 0 0 0 0 0 0 0 0 0 0 0 0 0 0 0 0 0 0 0 0 0 0 0 0 0 0 0 0 0 0 0 0 0 0 0 0 0 0 0 0 0 0 0 0 0 0 0 0 0 0 0 0 0 0 0 0 0 0 0 0 0 0 0 0 0 0 0 0 0 0 0 0 0 0 0 0 0 0 0 0 0 0 0 0 0 0 0 0 0 0 0 0 0 0 0 0 0 0 0 0 0 0 0 0 0 0 0 0 0 0 0 0 0 0 0 0 0 0 0 0 0 0 0 0 0 0 0 0 0 0 0 0 0 0 0 0 0 0 0 0 0 0 0 0 0 0 0 0 0 0 0 0 0 0 0 0 0 0 0 0 0 0 0 0 0 0 0 0 0 0 0 0 0 0 0 0 0 0 0 0 0 0 0 0 0 0 0 0 0 0 0 0 0 0 0 0 0 0 0 0 0 0 0 0 0 0 0 0 0 0 0 0 0 0 0 0 0 0 0 0 0 0 0 0 0 0 0 0 0 0 0 0 0 0 0 0 0 0 0 0 0 0 0 0 0 0 0 0 0 0 0 0 0 0 0 0 0 0 0 0 0 0 0 0 0 0 0 0 0 0 0 0 0 0 0 0 0 0 0 0 0 0 0 0 0 0 0 0 0 0 0 0 0 0 0 0 0 0 0 0 0 0 0 0 0 0 0 0 0 0 0 0 0 0 0 0 0 0 0 0 0 0 0 0 0 0 0 0 0 0 0 0 0 0 0 0 0 0 0 0 0 0 0 0 0 0 0 0 0 0 0 0 0 0 0 0 0 0 0 0 0 0 0 0 0 0 0 0 0 0 0 0 0 0 0 0 0 0 0 0 0 0 0 0 0 0 0 0 0 0 0 0 0 0 0 0 0 0 0 0 0 0 0 0 0 0 0 0 0 0 0 0 0 0 0 0 0 0 0 0 0 0 0 0 0 0 0 0 0 0 0 0 0 0 0 0 0 0 0 0 0 0 0 0 0 0 0 0 0 0 0 0 0 0 0 0 0 0 0 0 0 0 0 0 0 0 0 0 0 0 0 0 0 0 0 0 0 0 0 0 0 0 0 0 0 0 0 0 0 0 0 0 0 0 0 0 0 0 0 0 0 0 0 0 0 0 0 0 0 0 0 0 0 0 0 0 0 0 0 0 0 0 0 0 0 0 0 0 0 0 0 0 0 0 0 0 0 0 0 0 0 0 0 0 0 0 0 0 0 0 0 0 0 0 0 0 0 0 0 0 0 0 0 0 0 0 0 0 0 0 0 0 0 0 0 0 0 0 0 0 0 0 0 0 0 0 0 0 0 0 0 0 0 0 0 0 0 0 0 0 0 0 0 0 0 0 0 0 0 0 0 0 0 0 0 0 0 0 0 0 0 0 0 0 0 0 0 0 0 0 0 0 0 0 0 0 0 0 0 0 0 0 0 0 0 0 0 0 0 0 0 0 0 0 0 0 0 0 0 0 0 0 0 0 0 0 0 0 0 0 0 0 0 0 0 0 0 0 0 0 0 0 0 0 0 0 0 0 0 0 0 0 0 0 0 0 0 0 0 0 0 0 0 0 0 0 0 0 0 0 0 0 0 0 0 0 0 0 0 0 0 0 0 0 0 0 0 0 0 0 0 0 0 0 0 0 0 0 0 0 0 0 0 0 0 0 0 0 0 0 0 0 0 0 0 0 0 0 0 0 0 0 0 0 0 0 0 0 0 0 0 0 0 0 0 0 0 0 0 0 0 0 0 0 0 0 0 0 0 0 0 0 0 0 0 0 0 0 0 0 0 0 0 0 0 0 0 0 0 0 0 0 0 0 0 0 0 0 0 0 0 0 0 0 0 0 0 0 0 0 0 0 0 0 0 0 0 0 0 0 0 0 0 0 0 0 0 0 0 0 0 0 0 0 0 0 0 0 0 0 0 0 0 0 0 0 0 0 0 0 0 0 0 0 0 0 0 0 0 0 0 0 0 0 0 0 0 0 0 0 0 0 0 0 0 0 0 0 0 0 0 0 0 0 0 0 0 0 0 0 0 0 0 0 0 0 0 0 0 0 0 0 0 0 0 0 0 0 0 0 0 0 0 0 0 0 0 0 0 0 0 0 0 0 0 0 0 0 0 0 0 0 0 0 0 0 0 0 0 0 0 0 0 0 0 0 0 0 0 0 0 0 0 0 0 0 0 0 0 0 0 0 0 0 0 0 0 0 0 0 0 0 0 0 0 0 0 0 0 0 0 0 0 0 0 0 0 0 0 0 0 0 0 0 0 0 0 0 0 0 0 0 0 0 0 0 0 0 0 0 0 0 0 0 0 0 0 0 0 0 0 0 0 0 0 0 0 0 0 0 0 0 0 0 0 0 0 0 0 0 0 0 0 0 0 0 0 0 0 0 0 0 0 0 0 0 0 0 0 0 0 0 0 0 0 0 0 0 0 0 0 0 0 0 0 0 0 0 0 0 0 0 0 0 0 0 0 0 0 0 0 0 0 0 0 0 0 0 0 0 0 0 0 0 0 0 0 0 0 0 0 0 0 0 0 0 0 0 0 0 0 0 0 0 0 0 0 0 0 0 0 0 0 0 0 0 0 0 0 0 0 0 0 0 0 0 0 0 0 0 0 0 0 0 0 0 0 0 0 0 0 0 0 0 0 0 0 0 0 0 0 0 0 0 0 0 0 0 0 0 0 0 0 0 0 0 0 0 0 0 0 0 0 0 0 0 0 0 0 0 0 0 0 0 0 0 0 0 0 0 0 0 0 0 0 0 0 0 0 0 0 0 0 0 0 0 0 0 0 0 0 0 0 0 0 0 0 0 0 0 0 0 0 0 0 0 0 0 0 0 0 0 0 0 0 0 0 0 0 0 0 0 0 0 0 0 0 0 0 0 0 0 0 0 0 0 0 0 0 0 0 0 0 0 0 0 0 0 0 0 0 0 0 0 0 0 0 0 0 0 0 0 0 0 0 0 0 0 0 0 0 0 0 0 0 0 0 0 0 0 0 0 0 0 0 0 0 0 0 0 0 0 0 0 0 0 0 0 0 0 0 0 0 0 0 0 0 0 0 0 0 0 0 0 0 0 0 0 0 0 0 0 0 0 0 0 0 0 0 0 0 0 0 0 0 0 0 0 0 0 0 0 0 0 0 0 0 0 0 0 0 0 0 0 0 0 0 0 0 0 0 0 0 0 0 0 0 0 0 0 0 0 0 0 0 0 0 0 0 0 0 0 0 0 0 0 0 0 0 0 0 0 0 0 0 0 0 0 0 0 0 0 0 0 0 0 0 0 0 0 0 </DataArray>
        <DataArray type="Int64" IdType="1" Name="vtkOriginalCellIds" format="ascii" RangeMin="0" RangeMax="13803">0 1 2 3 4 5 6 7 8 9 10 11 12 13 14 15 16 17 18 19 20 21 22 23 24 25 26 27 28 29 30 31 32 33 34 35 36 37 38 39 40 41 42 43 44 45 46 47 48 49 50 51 52 53 54 55 56 57 58 59 60 61 62 63 64 65 66 67 68 69 70 71 72 73 74 75 76 77 78 79 80 81 82 83 84 85 86 87 88 89 90 91 92 93 94 95 96 97 98 99 100 101 102 103 104 105 106 107 108 109 110 111 112 113 114 115 116 117 118 119 120 121 122 123 124 125 126 127 128 129 130 131 132 133 134 135 136 137 138 139 140 141 142 143 144 145 146 147 148 149 150 151 152 153 154 155 156 157 158 159 160 161 162 163 164 165 166 167 168 169 170 171 172 173 174 175 176 177 178 179 180 181 182 183 184 185 186 187 188 189 190 191 192 193 194 195 196 197 198 199 200 201 202 203 204 205 206 207 208 209 210 211 212 213 214 215 216 217 218 219 220 221 222 223 224 225 226 227 228 229 230 231 232 233 234 235 236 237 238 239 240 241 242 243 244 245 246 247 248 249 250 251 252 253 254 255 256 257 258 259 260 261 262 263 264 265 266 267 268 269 270 271 272 273 274 275 276 277 278 279 280 281 282 283 284 285 286 287 288 289 290 291 292 293 294 295 296 297 298 299 300 301 302 303 304 305 306 307 308 309 310 311 312 313 314 315 316 317 318 319 320 321 322 323 324 325 326 327 328 329 330 331 332 333 334 335 336 337 338 339 340 341 342 343 344 345 346 347 348 349 350 351 352 353 354 355 356 357 358 359 360 361 362 363 364 365 366 367 368 369 370 371 372 373 374 375 376 377 378 379 380 381 382 383 384 385 386 387 388 389 390 391 392 393 394 395 396 397 398 399 400 401 402 403 404 405 406 407 408 409 410 411 412 413 414 415 416 417 418 419 420 421 422 423 424 425 426 427 428 429 430 431 432 433 434 435 436 437 438 439 440 441 442 443 444 445 446 447 448 449 450 451 452 453 454 455 456 457 458 459 460 461 462 463 464 465 466 467 468 469 470 471 472 473 474 475 476 477 478 479 480 481 482 483 484 485 486 487 488 489 490 491 492 493 494 495 496 497 498 499 500 501 502 503 504 505 506 507 508 509 510 511 512 513 514 515 516 517 518 519 520 521 522 523 524 525 526 527 528 529 530 531 532 533 534 535 536 537 538 539 540 541 542 543 544 545 546 547 548 549 550 551 552 553 554 555 556 557 558 559 560 561 562 563 564 565 566 567 568 569 570 571 572 573 574 575 576 577 578 579 580 581 582 583 584 585 586 587 588 589 590 591 592 593 594 595 596 597 598 599 600 601 602 603 604 605 606 607 608 609 610 611 612 613 614 615 616 617 618 619 620 621 622 623 624 625 626 627 628 629 630 631 632 633 634 635 636 637 638 639 640 641 642 643 644 645 646 647 648 649 650 651 652 653 654 655 656 657 658 659 660 661 662 663 664 665 666 667 668 669 670 671 672 673 674 675 676 677 678 679 680 681 682 683 684 685 686 687 688 689 690 691 692 693 694 695 696 697 698 699 700 701 702 703 704 705 706 707 708 709 710 711 712 713 714 715 716 717 718 719 720 721 722 723 724 725 726 727 728 729 730 731 732 733 734 735 736 737 738 739 740 741 742 743 744 745 746 747 748 749 750 751 752 753 754 755 756 757 758 759 760 761 762 763 764 765 766 767 768 769 770 771 772 773 774 775 776 777 778 779 780 781 782 783 784 785 786 787 788 789 790 791 792 793 794 795 796 797 798 799 800 801 802 803 804 805 806 807 808 809 810 811 812 813 814 815 816 817 818 819 820 821 822 823 824 825 826 827 828 829 830 831 832 833 834 835 836 837 838 839 840 841 842 843 844 845 846 847 848 849 850 851 852 853 854 855 856 857 858 859 860 861 862 863 864 865 866 867 868 869 870 871 872 873 874 875 876 877 878 879 880 881 882 883 884 885 886 887 888 889 890 891 892 893 894 895 896 897 898 899 900 901 902 903 904 905 906 907 908 909 910 911 912 913 914 915 916 917 918 919 920 921 922 923 924 925 926 927 928 929 930 931 932 933 934 935 936 937 938 939 940 941 942 943 944 945 946 947 948 949 950 951 952 953 954 955 956 957 958 959 960 961 962 963 964 965 966 967 968 969 970 971 972 973 974 975 976 977 978 979 980 981 982 983 984 985 986 987 988 989 990 991 992 993 994 995 996 997 998 999 1000 1001 1002 1003 1004 1005 1006 1007 1008 1009 1010 1011 1012 1013 1014 1015 1016 1017 1018 1019 1020 1021 1022 1023 1024 1025 1026 1027 1028 1029 1030 1031 1032 1033 1034 1035 1036 1037 1038 1039 1040 1041 1042 1043 1044 1045 1046 1047 1048 1049 1050 1051 1052 1053 1054 1055 1056 1057 1058 1059 1060 1061 1062 1063 1064 1065 1066 1067 1068 1069 1070 1071 1072 1073 1074 1075 1076 1077 1078 1079 1080 1081 1082 1083 1084 1085 1086 1087 1088 1089 1090 1091 1092 1093 1094 1095 1096 1097 1098 1099 1100 1101 1102 1103 1104 1105 1106 1107 1108 1109 1110 1111 1112 1113 1114 1115 1116 1117 1118 1119 1120 1121 1122 1123 1124 1125 1126 1127 1128 1129 1130 1131 1132 1133 1134 1135 1136 1137 1138 1139 1140 1141 1142 1143 1144 1145 1146 1147 1148 1149 1150 1151 1152 1153 1154 1155 1156 1157 1158 1159 1160 1161 1162 1163 1164 1165 1166 1167 1168 1169 1170 1171 1172 1173 1174 1175 1176 1177 1178 1179 1180 1181 1182 1183 1184 1185 1186 1187 1188 1189 1190 1191 1192 1193 1194 1195 1196 1197 1198 1199 1200 1201 1202 1203 1204 1205 1206 1207 1208 1209 1210 1211 1212 1213 1214 1215 1216 1217 1218 1219 1220 1221 1222 1223 1224 1225 1226 1227 1228 1229 1230 1231 1232 1233 1234 1235 1236 1237 1238 1239 1240 1241 1242 1243 1244 1245 1246 1247 1248 1249 1250 1251 1252 1253 1254 1255 1256 1257 1258 1259 1260 1261 1262 1263 1264 1265 1266 1267 1268 1269 1270 1271 1272 1273 1274 1275 1276 1277 1278 1279 1280 1281 1282 1283 1284 1285 1286 1287 1288 1289 1290 1291 1292 1293 1294 1295 1296 1297 1298 1299 1300 1301 1302 1303 1304 1305 1306 1307 1308 1309 1310 1311 1312 1313 1314 1315 1316 1317 1318 1319 1320 1321 1322 1323 1324 1325 1326 1327 1328 1329 1330 1331 1332 1333 1334 1335 1336 1337 1338 1339 1340 1341 1342 1343 1344 1345 1346 1347 1348 1349 1350 1351 1352 1353 1354 1355 1356 1357 1358 1359 1360 1361 1362 1363 1364 1365 1366 1367 1368 1369 1370 1371 1372 1373 1374 1375 1376 1377 1378 1379 1380 1381 1382 1383 1384 1385 1386 1387 1388 1389 1390 1391 1392 1393 1394 1395 1396 1397 1398 1399 1400 1401 1402 1403 1404 1405 1406 1407 1408 1409 1410 1411 1412 1413 1414 1415 1416 1417 1418 1419 1420 1421 1422 1423 1424 1425 1426 1427 1428 1429 1430 1431 1432 1433 1434 1435 1436 1437 1438 1439 1440 1441 1442 1443 1444 1445 1446 1447 1448 1449 1450 1451 1452 1453 1454 1455 1456 1457 1458 1459 1460 1461 1462 1463 1464 1465 1466 1467 1468 1469 1470 1471 1472 1473 1474 1475 1476 1477 1478 1479 1480 1481 1482 1483 1484 1485 1486 1487 1488 1489 1490 1491 1492 1493 1494 1495 1496 1497 1498 1499 1500 1501 1502 1503 1504 1505 1506 1507 1508 1509 1510 1511 1512 1513 1514 1515 1516 1517 1518 1519 1520 1521 1522 1523 1524 1525 1526 1527 1528 1529 1530 1531 1532 1533 1534 1535 1536 1537 1538 1539 1540 1541 1542 1543 1544 1545 1546 1547 1548 1549 1550 1551 1552 1553 1554 1555 1556 1557 1558 1559 1560 1561 1562 1563 1564 1565 1566 1567 1568 1569 1570 1571 1572 1573 1574 1575 1576 1577 1578 1579 1580 1581 1582 1583 1584 1585 1586 1587 1588 1589 1590 1591 1592 1593 1594 1595 1596 1597 1598 1599 1600 1601 1602 1603 1604 1605 1606 1607 1608 1609 1610 1611 1612 1613 1614 1615 1616 1617 1618 1619 1620 1621 1622 1623 1624 1625 1626 1627 1628 1629 1630 1631 1632 1633 1634 1635 1636 1637 1638 1639 1640 1641 1642 1643 1644 1645 1646 1647 1648 1649 1650 1651 1652 1653 1654 1655 1656 1657 1658 1659 1660 1661 1662 1663 1664 1665 1666 1667 1668 1669 1670 1671 1672 1673 1674 1675 1676 1677 1678 1679 1680 1681 1682 1683 1684 1685 1686 1687 1688 1689 1690 1691 1692 1693 1694 1695 1696 1697 1698 1699 1700 1701 1702 1703 1704 1705 1706 1707 1708 1709 1710 1711 1712 1713 1714 1715 1716 1717 1718 1719 1720 1721 1722 1723 1724 1725 1726 1727 1728 1729 1730 1731 1732 1733 1734 1735 1736 1737 1738 1739 1740 1741 1742 1743 1744 1745 1746 1747 1748 1749 1750 1751 1752 1753 1754 1755 1756 1757 1758 1759 1760 1761 1762 1763 1764 1765 1766 1767 1768 1769 1770 1771 1772 1773 1774 1775 1776 1777 1778 1779 1780 1781 1782 1783 1784 1785 1786 1787 1788 1789 1790 1791 1792 1793 1794 1795 1796 1797 1798 1799 1800 1801 1802 1803 1804 1805 1806 1807 1808 1809 1810 1811 1812 1813 1814 1815 1816 1817 1818 1819 1820 1821 1822 1823 1824 1825 1826 1827 1828 1829 1830 1831 1832 1833 1834 1835 1836 1837 1838 1839 1840 1841 1842 1843 1844 1845 1846 1847 1848 1849 1850 1851 1852 1853 1854 1855 1856 1857 1858 1859 1860 1861 1862 1863 1864 1865 1866 1867 1868 1869 1870 1871 1872 1873 1874 1875 1876 1877 1878 1879 1880 1881 1882 1883 1884 1885 1886 1887 1888 1889 1890 1891 1892 1893 1894 1895 1896 1897 1898 1899 1900 1901 1902 1903 1904 1905 1906 1907 1908 1909 1910 1911 1912 1913 1914 1915 1916 1917 1918 1919 1920 1921 1922 1923 1924 1925 1926 1927 1928 1929 1930 1931 1932 1933 1934 1935 1936 1937 1938 1939 1940 1941 1942 1943 1944 1945 1946 1947 1948 1949 1950 1951 1952 1953 1954 1955 1956 1957 1958 1959 1960 1961 1962 1963 1964 1965 1966 1967 1968 1969 1970 1971 1972 1973 1974 1975 1976 1977 1978 1979 1980 1981 1982 1983 1984 1985 1986 1987 1988 1989 1990 1991 1992 1993 1994 1995 1996 1997 1998 1999 2000 2001 2002 2003 2004 2005 2006 2007 2008 2009 2010 2011 2012 2013 2014 2015 2016 2017 2018 2019 2020 2021 2022 2023 2024 2025 2026 2027 2028 2029 2030 2031 2032 2033 2034 2035 2036 2037 2038 2039 2040 2041 2042 2043 2044 2045 2046 2047 2048 2049 2050 2051 2052 2053 2054 2055 2056 2057 2058 2059 2060 2061 2062 2063 2064 2065 2066 2067 2068 2069 2070 2071 2072 2073 2074 2075 2076 2077 2078 2079 2080 2081 2082 2083 2084 2085 2086 2087 2088 2089 2090 2091 2092 2093 2094 2095 2096 2097 2098 2099 2100 2101 2102 2103 2104 2105 2106 2107 2108 2109 2110 2111 2112 2113 2114 2115 2116 2117 2118 2119 2120 2121 2122 2123 2124 2125 2126 2127 2128 2129 2130 2131 2132 2133 2134 2135 2136 2137 2138 2139 2140 2141 2142 2143 2144 2145 2146 2147 2148 2149 2150 2151 2152 2153 2154 2155 2156 2157 2158 2159 2160 2161 2162 2163 2164 2165 2166 2167 2168 2169 2170 2171 2172 2173 2174 2175 2176 2177 2178 2179 2180 2181 2182 2183 2184 2185 2186 2187 2188 2189 2190 2191 2192 2193 2194 2195 2196 2197 2198 2199 2200 2201 2202 2203 2204 2205 2206 2207 2208 2209 2210 2211 2212 2213 2214 2215 2216 2217 2218 2219 2220 2221 2222 2223 2224 2225 2226 2227 2228 2229 2230 2231 2232 2233 2234 2235 2236 2237 2238 2239 2240 2241 2242 2243 2244 2245 2246 2247 2248 2249 2250 2251 2252 2253 2254 2255 2256 2257 2258 2259 2260 2261 2262 2263 2264 2265 2266 2267 2268 2269 2270 2271 2272 2273 2274 2275 2276 2277 2278 2279 2280 2281 2282 2283 2284 2285 2286 2287 2288 2289 2290 2291 2292 2293 2294 2295 2296 2297 2298 2299 2300 2301 2302 2303 2304 2305 2306 2307 2308 2309 2310 2311 2312 2313 2314 2315 2316 2317 2318 2319 2320 2321 2322 2323 2324 2325 2326 2327 2328 2329 2330 2331 2332 2333 2334 2335 2336 2337 2338 2339 2340 2341 2342 2343 2344 2345 2346 2347 2348 2349 2350 2351 2352 2353 2354 2355 2356 2357 2358 2359 2360 2361 2362 2363 2364 2365 2366 2367 2368 2369 2370 2371 2372 2373 2374 2375 2376 2377 2378 2379 2380 2381 2382 2383 2384 2385 2386 2387 2388 2389 2390 2391 2392 2393 2394 2395 2396 2397 2398 2399 2400 2401 2402 2403 2404 2405 2406 2407 2408 2409 2410 2411 2412 2413 2414 2415 2416 2417 2418 2419 2420 2421 2422 2423 2424 2425 2426 2427 2428 2429 2430 2431 2432 2433 2434 2435 2436 2437 2438 2439 2440 2441 2442 2443 2444 2445 2446 2447 2448 2449 2450 2451 2452 2453 2454 2455 2456 2457 2458 2459 2460 2461 2462 2463 2464 2465 2466 2467 2468 2469 2470 2471 2472 2473 2474 2475 2476 2477 2478 2479 2480 2481 2482 2483 2484 2485 2486 2487 2488 2489 2490 2491 2492 2493 2494 2495 2496 2497 2498 2499 2500 2501 2502 2503 2504 2505 2506 2507 2508 2509 2510 2511 2512 2513 2514 2515 2516 2517 2518 2519 2520 2521 2522 2523 2524 2525 2526 2527 2528 2529 2530 2531 2532 2533 2534 2535 2536 2537 2538 2539 2540 2541 2542 2543 2544 2545 2546 2547 2548 2549 2550 2551 2552 2553 2554 2555 2556 2557 2558 2559 2560 2561 2562 2563 2564 2565 2566 2567 2568 2569 2570 2571 2572 2573 2574 2575 2576 2577 2578 2579 2580 2581 2582 2583 2584 2585 2586 2587 2588 2589 2590 2591 2592 2593 2594 2595 2596 2597 2598 2599 2600 2601 2602 2603 2604 2605 2606 2607 2608 2609 2610 2611 2612 2613 2614 2615 2616 2617 2618 2619 2620 2621 2622 2623 2624 2625 2626 2627 2628 2629 2630 2631 2632 2633 2634 2635 2636 2637 2638 2639 2640 2641 2642 2643 2644 2645 2646 2647 2648 2649 2650 2651 2652 2653 2654 2655 2656 2657 2658 2659 2660 2661 2662 2663 2664 2665 2666 2667 2668 2669 2670 2671 2672 2673 2674 2675 2676 2677 2678 2679 2680 2681 2682 2683 2684 2685 2686 2687 2688 2689 2690 2691 2692 2693 2694 2695 2696 2697 2698 2699 2700 2701 2702 2703 2704 2705 2706 2707 2708 2709 2710 2711 2712 2713 2714 2715 2716 2717 2718 2719 2720 2721 2722 2723 2724 2725 2726 2727 2728 2729 2730 2731 2732 2733 2734 2735 2736 2737 2738 2739 2740 2741 2742 2743 2744 2745 2746 2747 2748 2749 2750 2751 2752 2753 2754 2755 2756 2757 2758 2759 2760 2761 2762 2763 2764 2765 2766 2767 2768 2769 2770 2771 2772 2773 2774 2775 2776 2777 2778 2779 2780 2781 2782 2783 2784 2785 2786 2787 2788 2789 2790 2791 2792 2793 2794 2795 2796 2797 2798 2799 2800 2801 2802 2803 2804 2805 2806 2807 2808 2809 2810 2811 2812 2813 2814 2815 2816 2817 2818 2819 2820 2821 2822 2823 2824 2825 2826 2827 2828 2829 2830 2831 2832 2833 2834 2835 2836 2837 2838 2839 2840 2841 2842 2843 2844 2845 2846 2847 2848 2849 2850 2851 2852 2853 2854 2855 2856 2857 2858 2859 2860 2861 2862 2863 2864 2865 2866 2867 2868 2869 2870 2871 2872 2873 2874 2875 2876 2877 2878 2879 2880 2881 2882 2883 2884 2885 2886 2887 2888 2889 2890 2891 2892 2893 2894 2895 2896 2897 2898 2899 2900 2901 2902 2903 2904 2905 2906 2907 2908 2909 2910 2911 2912 2913 2914 2915 2916 2917 2918 2919 2920 2921 2922 2923 2924 2925 2926 2927 2928 2929 2930 2931 2932 2933 2934 2935 2936 2937 2938 2939 2940 2941 2942 2943 2944 2945 2946 2947 2948 2949 2950 2951 2952 2953 2954 2955 2956 2957 2958 2959 2960 2961 2962 2963 2964 2965 2966 2967 2968 2969 2970 2971 2972 2973 2974 2975 2976 2977 2978 2979 2980 2981 2982 2983 2984 2985 2986 2987 2988 2989 2990 2991 2992 2993 2994 2995 2996 2997 2998 2999 3000 3001 3002 3003 3004 3005 3006 3007 3008 3009 3010 3011 3012 3013 3014 3015 3016 3017 3018 3019 3020 3021 3022 3023 3024 3025 3026 3027 3028 3029 3030 3031 3032 3033 3034 3035 3036 3037 3038 3039 3040 3041 3042 3043 3044 3045 3046 3047 3048 3049 3050 3051 3052 3053 3054 3055 3056 3057 3058 3059 3060 3061 3062 3063 3064 3065 3066 3067 3068 3069 3070 3071 3072 3073 3074 3075 3076 3077 3078 3079 3080 3081 3082 3083 3084 3085 3086 3087 3088 3089 3090 3091 3092 3093 3094 3095 3096 3097 3098 3099 3100 3101 3102 3103 3104 3105 3106 3107 3108 3109 3110 3111 3112 3113 3114 3115 3116 3117 3118 3119 3120 3121 3122 3123 3124 3125 3126 3127 3128 3129 3130 3131 3132 3133 3134 3135 3136 3137 3138 3139 3140 3141 3142 3143 3144 3145 3146 3147 3148 3149 3150 3151 3152 3153 3154 3155 3156 3157 3158 3159 3160 3161 3162 3163 3164 3165 3166 3167 3168 3169 3170 3171 3172 3173 3174 3175 3176 3177 3178 3179 3180 3181 3182 3183 3184 3185 3186 3187 3188 3189 3190 3191 3192 3193 3194 3195 3196 3197 3198 3199 3200 3201 3202 3203 3204 3205 3206 3207 3208 3209 3210 3211 3212 3213 3214 3215 3216 3217 3218 3219 3220 3221 3222 3223 3224 3225 3226 3227 3228 3229 3230 3231 3232 3233 3234 3235 3236 3237 3238 3239 3240 3241 3242 3243 3244 3245 3246 3247 3248 3249 3250 3251 3252 3253 3254 3255 3256 3257 3258 3259 3260 3261 3262 3263 3264 3265 3266 3267 3268 3269 3270 3271 3272 3273 3274 3275 3276 3277 3278 3279 3280 3281 3282 3283 3284 3285 3286 3287 3288 3289 3290 3291 3292 3293 3294 3295 3296 3297 3298 3299 3300 3301 3302 3303 3304 3305 3306 3307 3308 3309 3310 3311 3312 3313 3314 3315 3316 3317 3318 3319 3320 3321 3322 3323 3324 3325 3326 3327 3328 3329 3330 3331 3332 3333 3334 3335 3336 3337 3338 3339 3340 3341 3342 3343 3344 3345 3346 3347 3348 3349 3350 3351 3352 3353 3354 3355 3356 3357 3358 3359 3360 3361 3362 3363 3364 3365 3366 3367 3368 3369 3370 3371 3372 3373 3374 3375 3376 3377 3378 3379 3380 3381 3382 3383 3384 3385 3386 3387 3388 3389 3390 3391 3392 3393 3394 3395 3396 3397 3398 3399 3400 3401 3402 3403 3404 3405 3406 3407 3408 3409 3410 3411 3412 3413 3414 3415 3416 3417 3418 3419 3420 3421 3422 3423 3424 3425 3426 3427 3428 3429 3430 3431 3432 3433 3434 3435 3436 3437 3438 3439 3440 3441 3442 3443 3444 3445 3446 3447 3448 3449 3450 3451 3452 3453 3454 3455 3456 3457 3458 3459 3460 3461 3462 3463 3464 3465 3466 3467 3468 3469 3470 3471 3472 3473 3474 3475 3476 3477 3478 3479 3480 3481 3482 3483 3484 3485 3486 3487 3488 3489 3490 3491 3492 3493 3494 3495 3496 3497 3498 3499 3500 3501 3502 3503 3504 3505 3506 3507 3508 3509 3510 3511 3512 3513 3514 3515 3516 3517 3518 3519 3520 3521 3522 3523 3524 3525 3526 3527 3528 3529 3530 3531 3532 3533 3534 3535 3536 3537 3538 3539 3540 3541 3542 3543 3544 3545 3546 3547 3548 3549 3550 3551 3552 3553 3554 3555 3556 3557 3558 3559 3560 3561 3562 3563 3564 3565 3566 3567 3568 3569 3570 3571 3572 3573 3574 3575 3576 3577 3578 3579 3580 3581 3582 3583 3584 3585 3586 3587 3588 3589 3590 3591 3592 3593 3594 3595 3596 3597 3598 3599 3600 3601 3602 3603 3604 3605 3606 3607 3608 3609 3610 3611 3612 3613 3614 3615 3616 3617 3618 3619 3620 3621 3622 3623 3624 3625 3626 3627 3628 3629 3630 3631 3632 3633 3634 3635 3636 3637 3638 3639 3640 3641 3642 3643 3644 3645 3646 3647 3648 3649 3650 3651 3652 3653 3654 3655 3656 3657 3658 3659 3660 3661 3662 3663 3664 3665 3666 3667 3668 3669 3670 3671 3672 3673 3674 3675 3676 3677 3678 3679 3680 3681 3682 3683 3684 3685 3686 3687 3688 3689 3690 3691 3692 3693 3694 3695 3696 3697 3698 3699 3700 3701 3702 3703 3704 3705 3706 3707 3708 3709 3710 3711 3712 3713 3714 3715 3716 3717 3718 3719 3720 3721 3722 3723 3724 3725 3726 3727 3728 3729 3730 3731 3732 3733 3734 3735 3736 3737 3738 3739 3740 3741 3742 3743 3744 3745 3746 3747 3748 3749 3750 3751 3752 3753 3754 3755 3756 3757 3758 3759 3760 3761 3762 3763 3764 3765 3766 3767 3768 3769 3770 3771 3772 3773 3774 3775 3776 3777 3778 3779 3780 3781 3782 3783 3784 3785 3786 3787 3788 3789 3790 3791 3792 3793 3794 3795 3796 3797 3798 3799 3800 3801 3802 3803 3804 3805 3806 3807 3808 3809 3810 3811 3812 3813 3814 3815 3816 3817 3818 3819 3820 3821 3822 3823 3824 3825 3826 3827 3828 3829 3830 3831 3832 3833 3834 3835 3836 3837 3838 3839 3840 3841 3842 3843 3844 3845 3846 3847 3848 3849 3850 3851 3852 3853 3854 3855 3856 3857 3858 3859 3860 3861 3862 3863 3864 3865 3866 3867 3868 3869 3870 3871 3872 3873 3874 3875 3876 3877 3878 3879 3880 3881 3882 3883 3884 3885 3886 3887 3888 3889 3890 3891 3892 3893 3894 3895 3896 3897 3898 3899 3900 3901 3902 3903 3904 3905 3906 3907 3908 3909 3910 3911 3912 3913 3914 3915 3916 3917 3918 3919 3920 3921 3922 3923 3924 3925 3926 3927 3928 3929 3930 3931 3932 3933 3934 3935 3936 3937 3938 3939 3940 3941 3942 3943 3944 3945 3946 3947 3948 3949 3950 3951 3952 3953 3954 3955 3956 3957 3958 3959 3960 3961 3962 3963 3964 3965 3966 3967 3968 3969 3970 3971 3972 3973 3974 3975 3976 3977 3978 3979 3980 3981 3982 3983 3984 3985 3986 3987 3988 3989 3990 3991 3992 3993 3994 3995 3996 3997 3998 3999 4000 4001 4002 4003 4004 4005 4006 4007 4008 4009 4010 4011 4012 4013 4014 4015 4016 4017 4018 4019 4020 4021 4022 4023 4024 4025 4026 4027 4028 4029 4030 4031 4032 4033 4034 4035 4036 4037 4038 4039 4040 4041 4042 4043 4044 4045 4046 4047 4048 4049 4050 4051 4052 4053 4054 4055 4056 4057 4058 4059 4060 4061 4062 4063 4064 4065 4066 4067 4068 4069 4070 4071 4072 4073 4074 4075 4076 4077 4078 4079 4080 4081 4082 4083 4084 4085 4086 4087 4088 4089 4090 4091 4092 4093 4094 4095 4096 4097 4098 4099 4100 4101 4102 4103 4104 4105 4106 4107 4108 4109 4110 4111 4112 4113 4114 4115 4116 4117 4118 4119 4120 4121 4122 4123 4124 4125 4126 4127 4128 4129 4130 4131 4132 4133 4134 4135 4136 4137 4138 4139 4140 4141 4142 4143 4144 4145 4146 4147 4148 4149 4150 4151 4152 4153 4154 4155 4156 4157 4158 4159 4160 4161 4162 4163 4164 4165 4166 4167 4168 4169 4170 4171 4172 4173 4174 4175 4176 4177 4178 4179 4180 4181 4182 4183 4184 4185 4186 4187 4188 4189 4190 4191 4192 4193 4194 4195 4196 4197 4198 4199 4200 4201 4202 4203 4204 4205 4206 4207 4208 4209 4210 4211 4212 4213 4214 4215 4216 4217 4218 4219 4220 4221 4222 4223 4224 4225 4226 4227 4228 4229 4230 4231 4232 4233 4234 4235 4236 4237 4238 4239 4240 4241 4242 4243 4244 4245 4246 4247 4248 4249 4250 4251 4252 4253 4254 4255 4256 4257 4258 4259 4260 4261 4262 4263 4264 4265 4266 4267 4268 4269 4270 4271 4272 4273 4274 4275 4276 4277 4278 4279 4280 4281 4282 4283 4284 4285 4286 4287 4288 4289 4290 4291 4292 4293 4294 4295 4296 4297 4298 4299 4300 4301 4302 4303 4304 4305 4306 4307 4308 4309 4310 4311 4312 4313 4314 4315 4316 4317 4318 4319 4320 4321 4322 4323 4324 4325 4326 4327 4328 4329 4330 4331 4332 4333 4334 4335 4336 4337 4338 4339 4340 4341 4342 4343 4344 4345 4346 4347 4348 4349 4350 4351 4352 4353 4354 4355 4356 4357 4358 4359 4360 4361 4362 4363 4364 4365 4366 4367 4368 4369 4370 4371 4372 4373 4374 4375 4376 4377 4378 4379 4380 4381 4382 4383 4384 4385 4386 4387 4388 4389 4390 4391 4392 4393 4394 4395 4396 4397 4398 4399 4400 4401 4402 4403 4404 4405 4406 4407 4408 4409 4410 4411 4412 4413 4414 4415 4416 4417 4418 4419 4420 4421 4422 4423 4424 4425 4426 4427 4428 4429 4430 4431 4432 4433 4434 4435 4436 4437 4438 4439 4440 4441 4442 4443 4444 4445 4446 4447 4448 4449 4450 4451 4452 4453 4454 4455 4456 4457 4458 4459 4460 4461 4462 4463 4464 4465 4466 4467 4468 4469 4470 4471 4472 4473 4474 4475 4476 4477 4478 4479 4480 4481 4482 4483 4484 4485 4486 4487 4488 4489 4490 4491 4492 4493 4494 4495 4496 4497 4498 4499 4500 4501 4502 4503 4504 4505 4506 4507 4508 4509 4510 4511 4512 4513 4514 4515 4516 4517 4518 4519 4520 4521 4522 4523 4524 4525 4526 4527 4528 4529 4530 4531 4532 4533 4534 4535 4536 4537 4538 4539 4540 4541 4542 4543 4544 4545 4546 4547 4548 4549 4550 4551 4552 4553 4554 4555 4556 4557 4558 4559 4560 4561 4562 4563 4564 4565 4566 4567 4568 4569 4570 4571 4572 4573 4574 4575 4576 4577 4578 4579 4580 4581 4582 4583 4584 4585 4586 4587 4588 4589 4590 4591 4592 4593 4594 4595 4596 4597 4598 4599 4600 4601 4602 4603 4604 4605 4606 4607 4608 4609 4610 4611 4612 4613 4614 4615 4616 4617 4618 4619 4620 4621 4622 4623 4624 4625 4626 4627 4628 4629 4630 4631 4632 4633 4634 4635 4636 4637 4638 4639 4640 4641 4642 4643 4644 4645 4646 4647 4648 4649 4650 4651 4652 4653 4654 4655 4656 4657 4658 4659 4660 4661 4662 4663 4664 4665 4666 4667 4668 4669 4670 4671 4672 4673 4674 4675 4676 4677 4678 4679 4680 4681 4682 4683 4684 4685 4686 4687 4688 4689 4690 4691 4692 4693 4694 4695 4696 4697 4698 4699 4700 4701 4702 4703 4704 4705 4706 4707 4708 4709 4710 4711 4712 4713 4714 4715 4716 4717 4718 4719 4720 4721 4722 4723 4724 4725 4726 4727 4728 4729 4730 4731 4732 4733 4734 4735 4736 4737 4738 4739 4740 4741 4742 4743 4744 4745 4746 4747 4748 4749 4750 4751 4752 4753 4754 4755 4756 4757 4758 4759 4760 4761 4762 4763 4764 4765 4766 4767 4768 4769 4770 4771 4772 4773 4774 4775 4776 4777 4778 4779 4780 4781 4782 4783 4784 4785 4786 4787 4788 4789 4790 4791 4792 4793 4794 4795 4796 4797 4798 4799 4800 4801 4802 4803 4804 4805 4806 4807 4808 4809 4810 4811 4812 4813 4814 4815 4816 4817 4818 4819 4820 4821 4822 4823 4824 4825 4826 4827 4828 4829 4830 4831 4832 4833 4834 4835 4836 4837 4838 4839 4840 4841 4842 4843 4844 4845 4846 4847 4848 4849 4850 4851 4852 4853 4854 4855 4856 4857 4858 4859 4860 4861 4862 4863 4864 4865 4866 4867 4868 4869 4870 4871 4872 4873 4874 4875 4876 4877 4878 4879 4880 4881 4882 4883 4884 4885 4886 4887 4888 4889 4890 4891 4892 4893 4894 4895 4896 4897 4898 4899 4900 4901 4902 4903 4904 4905 4906 4907 4908 4909 4910 4911 4912 4913 4914 4915 4916 4917 4918 4919 4920 4921 4922 4923 4924 4925 4926 4927 4928 4929 4930 4931 4932 4933 4934 4935 4936 4937 4938 4939 4940 4941 4942 4943 4944 4945 4946 4947 4948 4949 4950 4951 4952 4953 4954 4955 4956 4957 4958 4959 4960 4961 4962 4963 4964 4965 4966 4967 4968 4969 4970 4971 4972 4973 4974 4975 4976 4977 4978 4979 4980 4981 4982 4983 4984 4985 4986 4987 4988 4989 4990 4991 4992 4993 4994 4995 4996 4997 4998 4999 5000 5001 5002 5003 5004 5005 5006 5007 5008 5009 5010 5011 5012 5013 5014 5015 5016 5017 5018 5019 5020 5021 5022 5023 5024 5025 5026 5027 5028 5029 5030 5031 5032 5033 5034 5035 5036 5037 5038 5039 5040 5041 5042 5043 5044 5045 5046 5047 5048 5049 5050 5051 5052 5053 5054 5055 5056 5057 5058 5059 5060 5061 5062 5063 5064 5065 5066 5067 5068 5069 5070 5071 5072 5073 5074 5075 5076 5077 5078 5079 5080 5081 5082 5083 5084 5085 5086 5087 5088 5089 5090 5091 5092 5093 5094 5095 5096 5097 5098 5099 5100 5101 5102 5103 5104 5105 5106 5107 5108 5109 5110 5111 5112 5113 5114 5115 5116 5117 5118 5119 5120 5121 5122 5123 5124 5125 5126 5127 5128 5129 5130 5131 5132 5133 5134 5135 5136 5137 5138 5139 5140 5141 5142 5143 5144 5145 5146 5147 5148 5149 5150 5151 5152 5153 5154 5155 5156 5157 5158 5159 5160 5161 5162 5163 5164 5165 5166 5167 5168 5169 5170 5171 5172 5173 5174 5175 5176 5177 5178 5179 5180 5181 5182 5183 5184 5185 5186 5187 5188 5189 5190 5191 5192 5193 5194 5195 5196 5197 5198 5199 5200 5201 5202 5203 5204 5205 5206 5207 5208 5209 5210 5211 5212 5213 5214 5215 5216 5217 5218 5219 5220 5221 5222 5223 5224 5225 5226 5227 5228 5229 5230 5231 5232 5233 5234 5235 5236 5237 5238 5239 5240 5241 5242 5243 5244 5245 5246 5247 5248 5249 5250 5251 5252 5253 5254 5255 5256 5257 5258 5259 5260 5261 5262 5263 5264 5265 5266 5267 5268 5269 5270 5271 5272 5273 5274 5275 5276 5277 5278 5279 5280 5281 5282 5283 5284 5285 5286 5287 5288 5289 5290 5291 5292 5293 5294 5295 5296 5297 5298 5299 5300 5301 5302 5303 5304 5305 5306 5307 5308 5309 5310 5311 5312 5313 5314 5315 5316 5317 5318 5319 5320 5321 5322 5323 5324 5325 5326 5327 5328 5329 5330 5331 5332 5333 5334 5335 5336 5337 5338 5339 5340 5341 5342 5343 5344 5345 5346 5347 5348 5349 5350 5351 5352 5353 5354 5355 5356 5357 5358 5359 5360 5361 5362 5363 5364 5365 5366 5367 5368 5369 5370 5371 5372 5373 5374 5375 5376 5377 5378 5379 5380 5381 5382 5383 5384 5385 5386 5387 5388 5389 5390 5391 5392 5393 5394 5395 5396 5397 5398 5399 5400 5401 5402 5403 5404 5405 5406 5407 5408 5409 5410 5411 5412 5413 5414 5415 5416 5417 5418 5419 5420 5421 5422 5423 5424 5425 5426 5427 5428 5429 5430 5431 5432 5433 5434 5435 5436 5437 5438 5439 5440 5441 5442 5443 5444 5445 5446 5447 5448 5449 5450 5451 5452 5453 5454 5455 5456 5457 5458 5459 5460 5461 5462 5463 5464 5465 5466 5467 5468 5469 5470 5471 5472 5473 5474 5475 5476 5477 5478 5479 5480 5481 5482 5483 5484 5485 5486 5487 5488 5489 5490 5491 5492 5493 5494 5495 5496 5497 5498 5499 5500 5501 5502 5503 5504 5505 5506 5507 5508 5509 5510 5511 5512 5513 5514 5515 5516 5517 5518 5519 5520 5521 5522 5523 5524 5525 5526 5527 5528 5529 5530 5531 5532 5533 5534 5535 5536 5537 5538 5539 5540 5541 5542 5543 5544 5545 5546 5547 5548 5549 5550 5551 5552 5553 5554 5555 5556 5557 5558 5559 5560 5561 5562 5563 5564 5565 5566 5567 5568 5569 5570 5571 5572 5573 5574 5575 5576 5577 5578 5579 5580 5581 5582 5583 5584 5585 5586 5587 5588 5589 5590 5591 5592 5593 5594 5595 5596 5597 5598 5599 5600 5601 5602 5603 5604 5605 5606 5607 5608 5609 5610 5611 5612 5613 5614 5615 5616 5617 5618 5619 5620 5621 5622 5623 5624 5625 5626 5627 5628 5629 5630 5631 5632 5633 5634 5635 5636 5637 5638 5639 5640 5641 5642 5643 5644 5645 5646 5647 5648 5649 5650 5651 5652 5653 5654 5655 5656 5657 5658 5659 5660 5661 5662 5663 5664 5665 5666 5667 5668 5669 5670 5671 5672 5673 5674 5675 5676 5677 5678 5679 5680 5681 5682 5683 5684 5685 5686 5687 5688 5689 5690 5691 5692 5693 5694 5695 5696 5697 5698 5699 5700 5701 5702 5703 5704 5705 5706 5707 5708 5709 5710 5711 5712 5713 5714 5715 5716 5717 5718 5719 5720 5721 5722 5723 5724 5725 5726 5727 5728 5729 5730 5731 5732 5733 5734 5735 5736 5737 5738 5739 5740 5741 5742 5743 5744 5745 5746 5747 5748 5749 5750 5751 5752 5753 5754 5755 5756 5757 5758 5759 5760 5761 5762 5763 5764 5765 5766 5767 5768 5769 5770 5771 5772 5773 5774 5775 5776 5777 5778 5779 5780 5781 5782 5783 5784 5785 5786 5787 5788 5789 5790 5791 5792 5793 5794 5795 5796 5797 5798 5799 5800 5801 5802 5803 5804 5805 5806 5807 5808 5809 5810 5811 5812 5813 5814 5815 5816 5817 5818 5819 5820 5821 5822 5823 5824 5825 5826 5827 5828 5829 5830 5831 5832 5833 5834 5835 5836 5837 5838 5839 5840 5841 5842 5843 5844 5845 5846 5847 5848 5849 5850 5851 5852 5853 5854 5855 5856 5857 5858 5859 5860 5861 5862 5863 5864 5865 5866 5867 5868 5869 5870 5871 5872 5873 5874 5875 5876 5877 5878 5879 5880 5881 5882 5883 5884 5885 5886 5887 5888 5889 5890 5891 5892 5893 5894 5895 5896 5897 5898 5899 5900 5901 5902 5903 5904 5905 5906 5907 5908 5909 5910 5911 5912 5913 5914 5915 5916 5917 5918 5919 5920 5921 5922 5923 5924 5925 5926 5927 5928 5929 5930 5931 5932 5933 5934 5935 5936 5937 5938 5939 5940 5941 5942 5943 5944 5945 5946 5947 5948 5949 5950 5951 5952 5953 5954 5955 5956 5957 5958 5959 5960 5961 5962 5963 5964 5965 5966 5967 5968 5969 5970 5971 5972 5973 5974 5975 5976 5977 5978 5979 5980 5981 5982 5983 5984 5985 5986 5987 5988 5989 5990 5991 5992 5993 5994 5995 5996 5997 5998 5999 6000 6001 6002 6003 6004 6005 6006 6007 6008 6009 6010 6011 6012 6013 6014 6015 6016 6017 6018 6019 6020 6021 6022 6023 6024 6025 6026 6027 6028 6029 6030 6031 6032 6033 6034 6035 6036 6037 6038 6039 6040 6041 6042 6043 6044 6045 6046 6047 6048 6049 6050 6051 6052 6053 6054 6055 6056 6057 6058 6059 6060 6061 6062 6063 6064 6065 6066 6067 6068 6069 6070 6071 6072 6073 6074 6075 6076 6077 6078 6079 6080 6081 6082 6083 6084 6085 6086 6087 6088 6089 6090 6091 6092 6093 6094 6095 6096 6097 6098 6099 6100 6101 6102 6103 6104 6105 6106 6107 6108 6109 6110 6111 6112 6113 6114 6115 6116 6117 6118 6119 6120 6121 6122 6123 6124 6125 6126 6127 6128 6129 6130 6131 6132 6133 6134 6135 6136 6137 6138 6139 6140 6141 6142 6143 6144 6145 6146 6147 6148 6149 6150 6151 6152 6153 6154 6155 6156 6157 6158 6159 6160 6161 6162 6163 6164 6165 6166 6167 6168 6169 6170 6171 6172 6173 6174 6175 6176 6177 6178 6179 6180 6181 6182 6183 6184 6185 6186 6187 6188 6189 6190 6191 6192 6193 6194 6195 6196 6197 6198 6199 6200 6201 6202 6203 6204 6205 6206 6207 6208 6209 6210 6211 6212 6213 6214 6215 6216 6217 6218 6219 6220 6221 6222 6223 6224 6225 6226 6227 6228 6229 6230 6231 6232 6233 6234 6235 6236 6237 6238 6239 6240 6241 6242 6243 6244 6245 6246 6247 6248 6249 6250 6251 6252 6253 6254 6255 6256 6257 6258 6259 6260 6261 6262 6263 6264 6265 6266 6267 6268 6269 6270 6271 6272 6273 6274 6275 6276 6277 6278 6279 6280 6281 6282 6283 6284 6285 6286 6287 6288 6289 6290 6291 6292 6293 6294 6295 6296 6297 6298 6299 6300 6301 6302 6303 6304 6305 6306 6307 6308 6309 6310 6311 6312 6313 6314 6315 6316 6317 6318 6319 6320 6321 6322 6323 6324 6325 6326 6327 6328 6329 6330 6331 6332 6333 6334 6335 6336 6337 6338 6339 6340 6341 6342 6343 6344 6345 6346 6347 6348 6349 6350 6351 6352 6353 6354 6355 6356 6357 6358 6359 6360 6361 6362 6363 6364 6365 6366 6367 6368 6369 6370 6371 6372 6373 6374 6375 6376 6377 6378 6379 6380 6381 6382 6383 6384 6385 6386 6387 6388 6389 6390 6391 6392 6393 6394 6395 6396 6397 6398 6399 6400 6401 6402 6403 6404 6405 6406 6407 6408 6409 6410 6411 6412 6413 6414 6415 6416 6417 6418 6419 6420 6421 6422 6423 6424 6425 6426 6427 6428 6429 6430 6431 6432 6433 6434 6435 6436 6437 6438 6439 6440 6441 6442 6443 6444 6445 6446 6447 6448 6449 6450 6451 6452 6453 6454 6455 6456 6457 6458 6459 6460 6461 6462 6463 6464 6465 6466 6467 6468 6469 6470 6471 6472 6473 6474 6475 6476 6477 6478 6479 6480 6481 6482 6483 6484 6485 6486 6487 6488 6489 6490 6491 6492 6493 6494 6495 6496 6497 6498 6499 6500 6501 6502 6503 6504 6505 6506 6507 6508 6509 6510 6511 6512 6513 6514 6515 6516 6517 6518 6519 6520 6521 6522 6523 6524 6525 6526 6527 6528 6529 6530 6531 6532 6533 6534 6535 6536 6537 6538 6539 6540 6541 6542 6543 6544 6545 6546 6547 6548 6549 6550 6551 6552 6553 6554 6555 6556 6557 6558 6559 6560 6561 6562 6563 6564 6565 6566 6567 6568 6569 6570 6571 6572 6573 6574 6575 6576 6577 6578 6579 6580 6581 6582 6583 6584 6585 6586 6587 6588 6589 6590 6591 6592 6593 6594 6595 6596 6597 6598 6599 6600 6601 6602 6603 6604 6605 6606 6607 6608 6609 6610 6611 6612 6613 6614 6615 6616 6617 6618 6619 6620 6621 6622 6623 6624 6625 6626 6627 6628 6629 6630 6631 6632 6633 6634 6635 6636 6637 6638 6639 6640 6641 6642 6643 6644 6645 6646 6647 6648 6649 6650 6651 6652 6653 6654 6655 6656 6657 6658 6659 6660 6661 6662 6663 6664 6665 6666 6667 6668 6669 6670 6671 6672 6673 6674 6675 6676 6677 6678 6679 6680 6681 6682 6683 6684 6685 6686 6687 6688 6689 6690 6691 6692 6693 6694 6695 6696 6697 6698 6699 6700 6701 6702 6703 6704 6705 6706 6707 6708 6709 6710 6711 6712 6713 6714 6715 6716 6717 6718 6719 6720 6721 6722 6723 6724 6725 6726 6727 6728 6729 6730 6731 6732 6733 6734 6735 6736 6737 6738 6739 6740 6741 6742 6743 6744 6745 6746 6747 6748 6749 6750 6751 6752 6753 6754 6755 6756 6757 6758 6759 6760 6761 6762 6763 6764 6765 6766 6767 6768 6769 6770 6771 6772 6773 6774 6775 6776 6777 6778 6779 6780 6781 6782 6783 6784 6785 6786 6787 6788 6789 6790 6791 6792 6793 6794 6795 6796 6797 6798 6799 6800 6801 6802 6803 6804 6805 6806 6807 6808 6809 6810 6811 6812 6813 6814 6815 6816 6817 6818 6819 6820 6821 6822 6823 6824 6825 6826 6827 6828 6829 6830 6831 6832 6833 6834 6835 6836 6837 6838 6839 6840 6841 6842 6843 6844 6845 6846 6847 6848 6849 6850 6851 6852 6853 6854 6855 6856 6857 6858 6859 6860 6861 6862 6863 6864 6865 6866 6867 6868 6869 6870 6871 6872 6873 6874 6875 6876 6877 6878 6879 6880 6881 6882 6883 6884 6885 6886 6887 6888 6889 6890 6891 6892 6893 6894 6895 6896 6897 6898 6899 6900 6901 6902 6903 6904 6905 6906 6907 6908 6909 6910 6911 6912 6913 6914 6915 6916 6917 6918 6919 6920 6921 6922 6923 6924 6925 6926 6927 6928 6929 6930 6931 6932 6933 6934 6935 6936 6937 6938 6939 6940 6941 6942 6943 6944 6945 6946 6947 6948 6949 6950 6951 6952 6953 6954 6955 6956 6957 6958 6959 6960 6961 6962 6963 6964 6965 6966 6967 6968 6969 6970 6971 6972 6973 6974 6975 6976 6977 6978 6979 6980 6981 6982 6983 6984 6985 6986 6987 6988 6989 6990 6991 6992 6993 6994 6995 6996 6997 6998 6999 7000 7001 7002 7003 7004 7005 7006 7007 7008 7009 7010 7011 7012 7013 7014 7015 7016 7017 7018 7019 7020 7021 7022 7023 7024 7025 7026 7027 7028 7029 7030 7031 7032 7033 7034 7035 7036 7037 7038 7039 7040 7041 7042 7043 7044 7045 7046 7047 7048 7049 7050 7051 7052 7053 7054 7055 7056 7057 7058 7059 7060 7061 7062 7063 7064 7065 7066 7067 7068 7069 7070 7071 7072 7073 7074 7075 7076 7077 7078 7079 7080 7081 7082 7083 7084 7085 7086 7087 7088 7089 7090 7091 7092 7093 7094 7095 7096 7097 7098 7099 7100 7101 7102 7103 7104 7105 7106 7107 7108 7109 7110 7111 7112 7113 7114 7115 7116 7117 7118 7119 7120 7121 7122 7123 7124 7125 7126 7127 7128 7129 7130 7131 7132 7133 7134 7135 7136 7137 7138 7139 7140 7141 7142 7143 7144 7145 7146 7147 7148 7149 7150 7151 7152 7153 7154 7155 7156 7157 7158 7159 7160 7161 7162 7163 7164 7165 7166 7167 7168 7169 7170 7171 7172 7173 7174 7175 7176 7177 7178 7179 7180 7181 7182 7183 7184 7185 7186 7187 7188 7189 7190 7191 7192 7193 7194 7195 7196 7197 7198 7199 7200 7201 7202 7203 7204 7205 7206 7207 7208 7209 7210 7211 7212 7213 7214 7215 7216 7217 7218 7219 7220 7221 7222 7223 7224 7225 7226 7227 7228 7229 7230 7231 7232 7233 7234 7235 7236 7237 7238 7239 7240 7241 7242 7243 7244 7245 7246 7247 7248 7249 7250 7251 7252 7253 7254 7255 7256 7257 7258 7259 7260 7261 7262 7263 7264 7265 7266 7267 7268 7269 7270 7271 7272 7273 7274 7275 7276 7277 7278 7279 7280 7281 7282 7283 7284 7285 7286 7287 7288 7289 7290 7291 7292 7293 7294 7295 7296 7297 7298 7299 7300 7301 7302 7303 7304 7305 7306 7307 7308 7309 7310 7311 7312 7313 7314 7315 7316 7317 7318 7319 7320 7321 7322 7323 7324 7325 7326 7327 7328 7329 7330 7331 7332 7333 7334 7335 7336 7337 7338 7339 7340 7341 7342 7343 7344 7345 7346 7347 7348 7349 7350 7351 7352 7353 7354 7355 7356 7357 7358 7359 7360 7361 7362 7363 7364 7365 7366 7367 7368 7369 7370 7371 7372 7373 7374 7375 7376 7377 7378 7379 7380 7381 7382 7383 7384 7385 7386 7387 7388 7389 7390 7391 7392 7393 7394 7395 7396 7397 7398 7399 7400 7401 7402 7403 7404 7405 7406 7407 7408 7409 7410 7411 7412 7413 7414 7415 7416 7417 7418 7419 7420 7421 7422 7423 7424 7425 7426 7427 7428 7429 7430 7431 7432 7433 7434 7435 7436 7437 7438 7439 7440 7441 7442 7443 7444 7445 7446 7447 7448 7449 7450 7451 7452 7453 7454 7455 7456 7457 7458 7459 7460 7461 7462 7463 7464 7465 7466 7467 7468 7469 7470 7471 7472 7473 7474 7475 7476 7477 7478 7479 7480 7481 7482 7483 7484 7485 7486 7487 7488 7489 7490 7491 7492 7493 7494 7495 7496 7497 7498 7499 7500 7501 7502 7503 7504 7505 7506 7507 7508 7509 7510 7511 7512 7513 7514 7515 7516 7517 7518 7519 7520 7521 7522 7523 7524 7525 7526 7527 7528 7529 7530 7531 7532 7533 7534 7535 7536 7537 7538 7539 7540 7541 7542 7543 7544 7545 7546 7547 7548 7549 7550 7551 7552 7553 7554 7555 7556 7557 7558 7559 7560 7561 7562 7563 7564 7565 7566 7567 7568 7569 7570 7571 7572 7573 7574 7575 7576 7577 7578 7579 7580 7581 7582 7583 7584 7585 7586 7587 7588 7589 7590 7591 7592 7593 7594 7595 7596 7597 7598 7599 7600 7601 7602 7603 7604 7605 7606 7607 7608 7609 7610 7611 7612 7613 7614 7615 7616 7617 7618 7619 7620 7621 7622 7623 7624 7625 7626 7627 7628 7629 7630 7631 7632 7633 7634 7635 7636 7637 7638 7639 7640 7641 7642 7643 7644 7645 7646 7647 7648 7649 7650 7651 7652 7653 7654 7655 7656 7657 7658 7659 7660 7661 7662 7663 7664 7665 7666 7667 7668 7669 7670 7671 7672 7673 7674 7675 7676 7677 7678 7679 7680 7681 7682 7683 7684 7685 7686 7687 7688 7689 7690 7691 7692 7693 7694 7695 7696 7697 7698 7699 7700 7701 7702 7703 7704 7705 7706 7707 7708 7709 7710 7711 7712 7713 7714 7715 7716 7717 7718 7719 7720 7721 7722 7723 7724 7725 7726 7727 7728 7729 7730 7731 7732 7733 7734 7735 7736 7737 7738 7739 7740 7741 7742 7743 7744 7745 7746 7747 7748 7749 7750 7751 7752 7753 7754 7755 7756 7757 7758 7759 7760 7761 7762 7763 7764 7765 7766 7767 7768 7769 7770 7771 7772 7773 7774 7775 7776 7777 7778 7779 7780 7781 7782 7783 7784 7785 7786 7787 7788 7789 7790 7791 7792 7793 7794 7795 7796 7797 7798 7799 7800 7801 7802 7803 7804 7805 7806 7807 7808 7809 7810 7811 7812 7813 7814 7815 7816 7817 7818 7819 7820 7821 7822 7823 7824 7825 7826 7827 7828 7829 7830 7831 7832 7833 7834 7835 7836 7837 7838 7839 7840 7841 7842 7843 7844 7845 7846 7847 7848 7849 7850 7851 7852 7853 7854 7855 7856 7857 7858 7859 7860 7861 7862 7863 7864 7865 7866 7867 7868 7869 7870 7871 7872 7873 7874 7875 7876 7877 7878 7879 7880 7881 7882 7883 7884 7885 7886 7887 7888 7889 7890 7891 7892 7893 7894 7895 7896 7897 7898 7899 7900 7901 7902 7903 7904 7905 7906 7907 7908 7909 7910 7911 7912 7913 7914 7915 7916 7917 7918 7919 7920 7921 7922 7923 7924 7925 7926 7927 7928 7929 7930 7931 7932 7933 7934 7935 7936 7937 7938 7939 7940 7941 7942 7943 7944 7945 7946 7947 7948 7949 7950 7951 7952 7953 7954 7955 7956 7957 7958 7959 7960 7961 7962 7963 7964 7965 7966 7967 7968 7969 7970 7971 7972 7973 7974 7975 7976 7977 7978 7979 7980 7981 7982 7983 7984 7985 7986 7987 7988 7989 7990 7991 7992 7993 7994 7995 7996 7997 7998 7999 8000 8001 8002 8003 8004 8005 8006 8007 8008 8009 8010 8011 8012 8013 8014 8015 8016 8017 8018 8019 8020 8021 8022 8023 8024 8025 8026 8027 8028 8029 8030 8031 8032 8033 8034 8035 8036 8037 8038 8039 8040 8041 8042 8043 8044 8045 8046 8047 8048 8049 8050 8051 8052 8053 8054 8055 8056 8057 8058 8059 8060 8061 8062 8063 8064 8065 8066 8067 8068 8069 8070 8071 8072 8073 8074 8075 8076 8077 8078 8079 8080 8081 8082 8083 8084 8085 8086 8087 8088 8089 8090 8091 8092 8093 8094 8095 8096 8097 8098 8099 8100 8101 8102 8103 8104 8105 8106 8107 8108 8109 8110 8111 8112 8113 8114 8115 8116 8117 8118 8119 8120 8121 8122 8123 8124 8125 8126 8127 8128 8129 8130 8131 8132 8133 8134 8135 8136 8137 8138 8139 8140 8141 8142 8143 8144 8145 8146 8147 8148 8149 8150 8151 8152 8153 8154 8155 8156 8157 8158 8159 8160 8161 8162 8163 8164 8165 8166 8167 8168 8169 8170 8171 8172 8173 8174 8175 8176 8177 8178 8179 8180 8181 8182 8183 8184 8185 8186 8187 8188 8189 8190 8191 8192 8193 8194 8195 8196 8197 8198 8199 8200 8201 8202 8203 8204 8205 8206 8207 8208 8209 8210 8211 8212 8213 8214 8215 8216 8217 8218 8219 8220 8221 8222 8223 8224 8225 8226 8227 8228 8229 8230 8231 8232 8233 8234 8235 8236 8237 8238 8239 8240 8241 8242 8243 8244 8245 8246 8247 8248 8249 8250 8251 8252 8253 8254 8255 8256 8257 8258 8259 8260 8261 8262 8263 8264 8265 8266 8267 8268 8269 8270 8271 8272 8273 8274 8275 8276 8277 8278 8279 8280 8281 8282 8283 8284 8285 8286 8287 8288 8289 8290 8291 8292 8293 8294 8295 8296 8297 8298 8299 8300 8301 8302 8303 8304 8305 8306 8307 8308 8309 8310 8311 8312 8313 8314 8315 8316 8317 8318 8319 8320 8321 8322 8323 8324 8325 8326 8327 8328 8329 8330 8331 8332 8333 8334 8335 8336 8337 8338 8339 8340 8341 8342 8343 8344 8345 8346 8347 8348 8349 8350 8351 8352 8353 8354 8355 8356 8357 8358 8359 8360 8361 8362 8363 8364 8365 8366 8367 8368 8369 8370 8371 8372 8373 8374 8375 8376 8377 8378 8379 8380 8381 8382 8383 8384 8385 8386 8387 8388 8389 8390 8391 8392 8393 8394 8395 8396 8397 8398 8399 8400 8401 8402 8403 8404 8405 8406 8407 8408 8409 8410 8411 8412 8413 8414 8415 8416 8417 8418 8419 8420 8421 8422 8423 8424 8425 8426 8427 8428 8429 8430 8431 8432 8433 8434 8435 8436 8437 8438 8439 8440 8441 8442 8443 8444 8445 8446 8447 8448 8449 8450 8451 8452 8453 8454 8455 8456 8457 8458 8459 8460 8461 8462 8463 8464 8465 8466 8467 8468 8469 8470 8471 8472 8473 8474 8475 8476 8477 8478 8479 8480 8481 8482 8483 8484 8485 8486 8487 8488 8489 8490 8491 8492 8493 8494 8495 8496 8497 8498 8499 8500 8501 8502 8503 8504 8505 8506 8507 8508 8509 8510 8511 8512 8513 8514 8515 8516 8517 8518 8519 8520 8521 8522 8523 8524 8525 8526 8527 8528 8529 8530 8531 8532 8533 8534 8535 8536 8537 8538 8539 8540 8541 8542 8543 8544 8545 8546 8547 8548 8549 8550 8551 8552 8553 8554 8555 8556 8557 8558 8559 8560 8561 8562 8563 8564 8565 8566 8567 8568 8569 8570 8571 8572 8573 8574 8575 8576 8577 8578 8579 8580 8581 8582 8583 8584 8585 8586 8587 8588 8589 8590 8591 8592 8593 8594 8595 8596 8597 8598 8599 8600 8601 8602 8603 8604 8605 8606 8607 8608 8609 8610 8611 8612 8613 8614 8615 8616 8617 8618 8619 8620 8621 8622 8623 8624 8625 8626 8627 8628 8629 8630 8631 8632 8633 8634 8635 8636 8637 8638 8639 8640 8641 8642 8643 8644 8645 8646 8647 8648 8649 8650 8651 8652 8653 8654 8655 8656 8657 8658 8659 8660 8661 8662 8663 8664 8665 8666 8667 8668 8669 8670 8671 8672 8673 8674 8675 8676 8677 8678 8679 8680 8681 8682 8683 8684 8685 8686 8687 8688 8689 8690 8691 8692 8693 8694 8695 8696 8697 8698 8699 8700 8701 8702 8703 8704 8705 8706 8707 8708 8709 8710 8711 8712 8713 8714 8715 8716 8717 8718 8719 8720 8721 8722 8723 8724 8725 8726 8727 8728 8729 8730 8731 8732 8733 8734 8735 8736 8737 8738 8739 8740 8741 8742 8743 8744 8745 8746 8747 8748 8749 8750 8751 8752 8753 8754 8755 8756 8757 8758 8759 8760 8761 8762 8763 8764 8765 8766 8767 8768 8769 8770 8771 8772 8773 8774 8775 8776 8777 8778 8779 8780 8781 8782 8783 8784 8785 8786 8787 8788 8789 8790 8791 8792 8793 8794 8795 8796 8797 8798 8799 8800 8801 8802 8803 8804 8805 8806 8807 8808 8809 8810 8811 8812 8813 8814 8815 8816 8817 8818 8819 8820 8821 8822 8823 8824 8825 8826 8827 8828 8829 8830 8831 8832 8833 8834 8835 8836 8837 8838 8839 8840 8841 8842 8843 8844 8845 8846 8847 8848 8849 8850 8851 8852 8853 8854 8855 8856 8857 8858 8859 8860 8861 8862 8863 8864 8865 8866 8867 8868 8869 8870 8871 8872 8873 8874 8875 8876 8877 8878 8879 8880 8881 8882 8883 8884 8885 8886 8887 8888 8889 8890 8891 8892 8893 8894 8895 8896 8897 8898 8899 8900 8901 8902 8903 8904 8905 8906 8907 8908 8909 8910 8911 8912 8913 8914 8915 8916 8917 8918 8919 8920 8921 8922 8923 8924 8925 8926 8927 8928 8929 8930 8931 8932 8933 8934 8935 8936 8937 8938 8939 8940 8941 8942 8943 8944 8945 8946 8947 8948 8949 8950 8951 8952 8953 8954 8955 8956 8957 8958 8959 8960 8961 8962 8963 8964 8965 8966 8967 8968 8969 8970 8971 8972 8973 8974 8975 8976 8977 8978 8979 8980 8981 8982 8983 8984 8985 8986 8987 8988 8989 8990 8991 8992 8993 8994 8995 8996 8997 8998 8999 9000 9001 9002 9003 9004 9005 9006 9007 9008 9009 9010 9011 9012 9013 9014 9015 9016 9017 9018 9019 9020 9021 9022 9023 9024 9025 9026 9027 9028 9029 9030 9031 9032 9033 9034 9035 9036 9037 9038 9039 9040 9041 9042 9043 9044 9045 9046 9047 9048 9049 9050 9051 9052 9053 9054 9055 9056 9057 9058 9059 9060 9061 9062 9063 9064 9065 9066 9067 9068 9069 9070 9071 9072 9073 9074 9075 9076 9077 9078 9079 9080 9081 9082 9083 9084 9085 9086 9087 9088 9089 9090 9091 9092 9093 9094 9095 9096 9097 9098 9099 9100 9101 9102 9103 9104 9105 9106 9107 9108 9109 9110 9111 9112 9113 9114 9115 9116 9117 9118 9119 9120 9121 9122 9123 9124 9125 9126 9127 9128 9129 9130 9131 9132 9133 9134 9135 9136 9137 9138 9139 9140 9141 9142 9143 9144 9145 9146 9147 9148 9149 9150 9151 9152 9153 9154 9155 9156 9157 9158 9159 9160 9161 9162 9163 9164 9165 9166 9167 9168 9169 9170 9171 9172 9173 9174 9175 9176 9177 9178 9179 9180 9181 9182 9183 9184 9185 9186 9187 9188 9189 9190 9191 9192 9193 9194 9195 9196 9197 9198 9199 9200 9201 9202 9203 9204 9205 9206 9207 9208 9209 9210 9211 9212 9213 9214 9215 9216 9217 9218 9219 9220 9221 9222 9223 9224 9225 9226 9227 9228 9229 9230 9231 9232 9233 9234 9235 9236 9237 9238 9239 9240 9241 9242 9243 9244 9245 9246 9247 9248 9249 9250 9251 9252 9253 9254 9255 9256 9257 9258 9259 9260 9261 9262 9263 9264 9265 9266 9267 9268 9269 9270 9271 9272 9273 9274 9275 9276 9277 9278 9279 9280 9281 9282 9283 9284 9285 9286 9287 9288 9289 9290 9291 9292 9293 9294 9295 9296 9297 9298 9299 9300 9301 9302 9303 9304 9305 9306 9307 9308 9309 9310 9311 9312 9313 9314 9315 9316 9317 9318 9319 9320 9321 9322 9323 9324 9325 9326 9327 9328 9329 9330 9331 9332 9333 9334 9335 9336 9337 9338 9339 9340 9341 9342 9343 9344 9345 9346 9347 9348 9349 9350 9351 9352 9353 9354 9355 9356 9357 9358 9359 9360 9361 9362 9363 9364 9365 9366 9367 9368 9369 9370 9371 9372 9373 9374 9375 9376 9377 9378 9379 9380 9381 9382 9383 9384 9385 9386 9387 9388 9389 9390 9391 9392 9393 9394 9395 9396 9397 9398 9399 9400 9401 9402 9403 9404 9405 9406 9407 9408 9409 9410 9411 9412 9413 9414 9415 9416 9417 9418 9419 9420 9421 9422 9423 9424 9425 9426 9427 9428 9429 9430 9431 9432 9433 9434 9435 9436 9437 9438 9439 9440 9441 9442 9443 9444 9445 9446 9447 9448 9449 9450 9451 9452 9453 9454 9455 9456 9457 9458 9459 9460 9461 9462 9463 9464 9465 9466 9467 9468 9469 9470 9471 9472 9473 9474 9475 9476 9477 9478 9479 9480 9481 9482 9483 9484 9485 9486 9487 9488 9489 9490 9491 9492 9493 9494 9495 9496 9497 9498 9499 9500 9501 9502 9503 9504 9505 9506 9507 9508 9509 9510 9511 9512 9513 9514 9515 9516 9517 9518 9519 9520 9521 9522 9523 9524 9525 9526 9527 9528 9529 9530 9531 9532 9533 9534 9535 9536 9537 9538 9539 9540 9541 9542 9543 9544 9545 9546 9547 9548 9549 9550 9551 9552 9553 9554 9555 9556 9557 9558 9559 9560 9561 9562 9563 9564 9565 9566 9567 9568 9569 9570 9571 9572 9573 9574 9575 9576 9577 9578 9579 9580 9581 9582 9583 9584 9585 9586 9587 9588 9589 9590 9591 9592 9593 9594 9595 9596 9597 9598 9599 9600 9601 9602 9603 9604 9605 9606 9607 9608 9609 9610 9611 9612 9613 9614 9615 9616 9617 9618 9619 9620 9621 9622 9623 9624 9625 9626 9627 9628 9629 9630 9631 9632 9633 9634 9635 9636 9637 9638 9639 9640 9641 9642 9643 9644 9645 9646 9647 9648 9649 9650 9651 9652 9653 9654 9655 9656 9657 9658 9659 9660 9661 9662 9663 9664 9665 9666 9667 9668 9669 9670 9671 9672 9673 9674 9675 9676 9677 9678 9679 9680 9681 9682 9683 9684 9685 9686 9687 9688 9689 9690 9691 9692 9693 9694 9695 9696 9697 9698 9699 9700 9701 9702 9703 9704 9705 9706 9707 9708 9709 9710 9711 9712 9713 9714 9715 9716 9717 9718 9719 9720 9721 9722 9723 9724 9725 9726 9727 9728 9729 9730 9731 9732 9733 9734 9735 9736 9737 9738 9739 9740 9741 9742 9743 9744 9745 9746 9747 9748 9749 9750 9751 9752 9753 9754 9755 9756 9757 9758 9759 9760 9761 9762 9763 9764 9765 9766 9767 9768 9769 9770 9771 9772 9773 9774 9775 9776 9777 9778 9779 9780 9781 9782 9783 9784 9785 9786 9787 9788 9789 9790 9791 9792 9793 9794 9795 9796 9797 9798 9799 9800 9801 9802 9803 9804 9805 9806 9807 9808 9809 9810 9811 9812 9813 9814 9815 9816 9817 9818 9819 9820 9821 9822 9823 9824 9825 9826 9827 9828 9829 9830 9831 9832 9833 9834 9835 9836 9837 9838 9839 9840 9841 9842 9843 9844 9845 9846 9847 9848 9849 9850 9851 9852 9853 9854 9855 9856 9857 9858 9859 9860 9861 9862 9863 9864 9865 9866 9867 9868 9869 9870 9871 9872 9873 9874 9875 9876 9877 9878 9879 9880 9881 9882 9883 9884 9885 9886 9887 9888 9889 9890 9891 9892 9893 9894 9895 9896 9897 9898 9899 9900 9901 9902 9903 9904 9905 9906 9907 9908 9909 9910 9911 9912 9913 9914 9915 9916 9917 9918 9919 9920 9921 9922 9923 9924 9925 9926 9927 9928 9929 9930 9931 9932 9933 9934 9935 9936 9937 9938 9939 9940 9941 9942 9943 9944 9945 9946 9947 9948 9949 9950 9951 9952 9953 9954 9955 9956 9957 9958 9959 9960 9961 9962 9963 9964 9965 9966 9967 9968 9969 9970 9971 9972 9973 9974 9975 9976 9977 9978 9979 9980 9981 9982 9983 9984 9985 9986 9987 9988 9989 9990 9991 9992 9993 9994 9995 9996 9997 9998 9999 10000 10001 10002 10003 10004 10005 10006 10007 10008 10009 10010 10011 10012 10013 10014 10015 10016 10017 10018 10019 10020 10021 10022 10023 10024 10025 10026 10027 10028 10029 10030 10031 10032 10033 10034 10035 10036 10037 10038 10039 10040 10041 10042 10043 10044 10045 10046 10047 10048 10049 10050 10051 10052 10053 10054 10055 10056 10057 10058 10059 10060 10061 10062 10063 10064 10065 10066 10067 10068 10069 10070 10071 10072 10073 10074 10075 10076 10077 10078 10079 10080 10081 10082 10083 10084 10085 10086 10087 10088 10089 10090 10091 10092 10093 10094 10095 10096 10097 10098 10099 10100 10101 10102 10103 10104 10105 10106 10107 10108 10109 10110 10111 10112 10113 10114 10115 10116 10117 10118 10119 10120 10121 10122 10123 10124 10125 10126 10127 10128 10129 10130 10131 10132 10133 10134 10135 10136 10137 10138 10139 10140 10141 10142 10143 10144 10145 10146 10147 10148 10149 10150 10151 10152 10153 10154 10155 10156 10157 10158 10159 10160 10161 10162 10163 10164 10165 10166 10167 10168 10169 10170 10171 10172 10173 10174 10175 10176 10177 10178 10179 10180 10181 10182 10183 10184 10185 10186 10187 10188 10189 10190 10191 10192 10193 10194 10195 10196 10197 10198 10199 10200 10201 10202 10203 10204 10205 10206 10207 10208 10209 10210 10211 10212 10213 10214 10215 10216 10217 10218 10219 10220 10221 10222 10223 10224 10225 10226 10227 10228 10229 10230 10231 10232 10233 10234 10235 10236 10237 10238 10239 10240 10241 10242 10243 10244 10245 10246 10247 10248 10249 10250 10251 10252 10253 10254 10255 10256 10257 10258 10259 10260 10261 10262 10263 10264 10265 10266 10267 10268 10269 10270 10271 10272 10273 10274 10275 10276 10277 10278 10279 10280 10281 10282 10283 10284 10285 10286 10287 10288 10289 10290 10291 10292 10293 10294 10295 10296 10297 10298 10299 10300 10301 10302 10303 10304 10305 10306 10307 10308 10309 10310 10311 10312 10313 10314 10315 10316 10317 10318 10319 10320 10321 10322 10323 10324 10325 10326 10327 10328 10329 10330 10331 10332 10333 10334 10335 10336 10337 10338 10339 10340 10341 10342 10343 10344 10345 10346 10347 10348 10349 10350 10351 10352 10353 10354 10355 10356 10357 10358 10359 10360 10361 10362 10363 10364 10365 10366 10367 10368 10369 10370 10371 10372 10373 10374 10375 10376 10377 10378 10379 10380 10381 10382 10383 10384 10385 10386 10387 10388 10389 10390 10391 10392 10393 10394 10395 10396 10397 10398 10399 10400 10401 10402 10403 10404 10405 10406 10407 10408 10409 10410 10411 10412 10413 10414 10415 10416 10417 10418 10419 10420 10421 10422 10423 10424 10425 10426 10427 10428 10429 10430 10431 10432 10433 10434 10435 10436 10437 10438 10439 10440 10441 10442 10443 10444 10445 10446 10447 10448 10449 10450 10451 10452 10453 10454 10455 10456 10457 10458 10459 10460 10461 10462 10463 10464 10465 10466 10467 10468 10469 10470 10471 10472 10473 10474 10475 10476 10477 10478 10479 10480 10481 10482 10483 10484 10485 10486 10487 10488 10489 10490 10491 10492 10493 10494 10495 10496 10497 10498 10499 10500 10501 10502 10503 10504 10505 10506 10507 10508 10509 10510 10511 10512 10513 10514 10515 10516 10517 10518 10519 10520 10521 10522 10523 10524 10525 10526 10527 10528 10529 10530 10531 10532 10533 10534 10535 10536 10537 10538 10539 10540 10541 10542 10543 10544 10545 10546 10547 10548 10549 10550 10551 10552 10553 10554 10555 10556 10557 10558 10559 10560 10561 10562 10563 10564 10565 10566 10567 10568 10569 10570 10571 10572 10573 10574 10575 10576 10577 10578 10579 10580 10581 10582 10583 10584 10585 10586 10587 10588 10589 10590 10591 10592 10593 10594 10595 10596 10597 10598 10599 10600 10601 10602 10603 10604 10605 10606 10607 10608 10609 10610 10611 10612 10613 10614 10615 10616 10617 10618 10619 10620 10621 10622 10623 10624 10625 10626 10627 10628 10629 10630 10631 10632 10633 10634 10635 10636 10637 10638 10639 10640 10641 10642 10643 10644 10645 10646 10647 10648 10649 10650 10651 10652 10653 10654 10655 10656 10657 10658 10659 10660 10661 10662 10663 10664 10665 10666 10667 10668 10669 10670 10671 10672 10673 10674 10675 10676 10677 10678 10679 10680 10681 10682 10683 10684 10685 10686 10687 10688 10689 10690 10691 10692 10693 10694 10695 10696 10697 10698 10699 10700 10701 10702 10703 10704 10705 10706 10707 10708 10709 10710 10711 10712 10713 10714 10715 10716 10717 10718 10719 10720 10721 10722 10723 10724 10725 10726 10727 10728 10729 10730 10731 10732 10733 10734 10735 10736 10737 10738 10739 10740 10741 10742 10743 10744 10745 10746 10747 10748 10749 10750 10751 10752 10753 10754 10755 10756 10757 10758 10759 10760 10761 10762 10763 10764 10765 10766 10767 10768 10769 10770 10771 10772 10773 10774 10775 10776 10777 10778 10779 10780 10781 10782 10783 10784 10785 10786 10787 10788 10789 10790 10791 10792 10793 10794 10795 10796 10797 10798 10799 10800 10801 10802 10803 10804 10805 10806 10807 10808 10809 10810 10811 10812 10813 10814 10815 10816 10817 10818 10819 10820 10821 10822 10823 10824 10825 10826 10827 10828 10829 10830 10831 10832 10833 10834 10835 10836 10837 10838 10839 10840 10841 10842 10843 10844 10845 10846 10847 10848 10849 10850 10851 10852 10853 10854 10855 10856 10857 10858 10859 10860 10861 10862 10863 10864 10865 10866 10867 10868 10869 10870 10871 10872 10873 10874 10875 10876 10877 10878 10879 10880 10881 10882 10883 10884 10885 10886 10887 10888 10889 10890 10891 10892 10893 10894 10895 10896 10897 10898 10899 10900 10901 10902 10903 10904 10905 10906 10907 10908 10909 10910 10911 10912 10913 10914 10915 10916 10917 10918 10919 10920 10921 10922 10923 10924 10925 10926 10927 10928 10929 10930 10931 10932 10933 10934 10935 10936 10937 10938 10939 10940 10941 10942 10943 10944 10945 10946 10947 10948 10949 10950 10951 10952 10953 10954 10955 10956 10957 10958 10959 10960 10961 10962 10963 10964 10965 10966 10967 10968 10969 10970 10971 10972 10973 10974 10975 10976 10977 10978 10979 10980 10981 10982 10983 10984 10985 10986 10987 10988 10989 10990 10991 10992 10993 10994 10995 10996 10997 10998 10999 11000 11001 11002 11003 11004 11005 11006 11007 11008 11009 11010 11011 11012 11013 11014 11015 11016 11017 11018 11019 11020 11021 11022 11023 11024 11025 11026 11027 11028 11029 11030 11031 11032 11033 11034 11035 11036 11037 11038 11039 11040 11041 11042 11043 11044 11045 11046 11047 11048 11049 11050 11051 11052 11053 11054 11055 11056 11057 11058 11059 11060 11061 11062 11063 11064 11065 11066 11067 11068 11069 11070 11071 11072 11073 11074 11075 11076 11077 11078 11079 11080 11081 11082 11083 11084 11085 11086 11087 11088 11089 11090 11091 11092 11093 11094 11095 11096 11097 11098 11099 11100 11101 11102 11103 11104 11105 11106 11107 11108 11109 11110 11111 11112 11113 11114 11115 11116 11117 11118 11119 11120 11121 11122 11123 11124 11125 11126 11127 11128 11129 11130 11131 11132 11133 11134 11135 11136 11137 11138 11139 11140 11141 11142 11143 11144 11145 11146 11147 11148 11149 11150 11151 11152 11153 11154 11155 11156 11157 11158 11159 11160 11161 11162 11163 11164 11165 11166 11167 11168 11169 11170 11171 11172 11173 11174 11175 11176 11177 11178 11179 11180 11181 11182 11183 11184 11185 11186 11187 11188 11189 11190 11191 11192 11193 11194 11195 11196 11197 11198 11199 11200 11201 11202 11203 11204 11205 11206 11207 11208 11209 11210 11211 11212 11213 11214 11215 11216 11217 11218 11219 11220 11221 11222 11223 11224 11225 11226 11227 11228 11229 11230 11231 11232 11233 11234 11235 11236 11237 11238 11239 11240 11241 11242 11243 11244 11245 11246 11247 11248 11249 11250 11251 11252 11253 11254 11255 11256 11257 11258 11259 11260 11261 11262 11263 11264 11265 11266 11267 11268 11269 11270 11271 11272 11273 11274 11275 11276 11277 11278 11279 11280 11281 11282 11283 11284 11285 11286 11287 11288 11289 11290 11291 11292 11293 11294 11295 11296 11297 11298 11299 11300 11301 11302 11303 11304 11305 11306 11307 11308 11309 11310 11311 11312 11313 11314 11315 11316 11317 11318 11319 11320 11321 11322 11323 11324 11325 11326 11327 11328 11329 11330 11331 11332 11333 11334 11335 11336 11337 11338 11339 11340 11341 11342 11343 11344 11345 11346 11347 11348 11349 11350 11351 11352 11353 11354 11355 11356 11357 11358 11359 11360 11361 11362 11363 11364 11365 11366 11367 11368 11369 11370 11371 11372 11373 11374 11375 11376 11377 11378 11379 11380 11381 11382 11383 11384 11385 11386 11387 11388 11389 11390 11391 11392 11393 11394 11395 11396 11397 11398 11399 11400 11401 11402 11403 11404 11405 11406 11407 11408 11409 11410 11411 11412 11413 11414 11415 11416 11417 11418 11419 11420 11421 11422 11423 11424 11425 11426 11427 11428 11429 11430 11431 11432 11433 11434 11435 11436 11437 11438 11439 11440 11441 11442 11443 11444 11445 11446 11447 11448 11449 11450 11451 11452 11453 11454 11455 11456 11457 11458 11459 11460 11461 11462 11463 11464 11465 11466 11467 11468 11469 11470 11471 11472 11473 11474 11475 11476 11477 11478 11479 11480 11481 11482 11483 11484 11485 11486 11487 11488 11489 11490 11491 11492 11493 11494 11495 11496 11497 11498 11499 11500 11501 11502 11503 11504 11505 11506 11507 11508 11509 11510 11511 11512 11513 11514 11515 11516 11517 11518 11519 11520 11521 11522 11523 11524 11525 11526 11527 11528 11529 11530 11531 11532 11533 11534 11535 11536 11537 11538 11539 11540 11541 11542 11543 11544 11545 11546 11547 11548 11549 11550 11551 11552 11553 11554 11555 11556 11557 11558 11559 11560 11561 11562 11563 11564 11565 11566 11567 11568 11569 11570 11571 11572 11573 11574 11575 11576 11577 11578 11579 11580 11581 11582 11583 11584 11585 11586 11587 11588 11589 11590 11591 11592 11593 11594 11595 11596 11597 11598 11599 11600 11601 11602 11603 11604 11605 11606 11607 11608 11609 11610 11611 11612 11613 11614 11615 11616 11617 11618 11619 11620 11621 11622 11623 11624 11625 11626 11627 11628 11629 11630 11631 11632 11633 11634 11635 11636 11637 11638 11639 11640 11641 11642 11643 11644 11645 11646 11647 11648 11649 11650 11651 11652 11653 11654 11655 11656 11657 11658 11659 11660 11661 11662 11663 11664 11665 11666 11667 11668 11669 11670 11671 11672 11673 11674 11675 11676 11677 11678 11679 11680 11681 11682 11683 11684 11685 11686 11687 11688 11689 11690 11691 11692 11693 11694 11695 11696 11697 11698 11699 11700 11701 11702 11703 11704 11705 11706 11707 11708 11709 11710 11711 11712 11713 11714 11715 11716 11717 11718 11719 11720 11721 11722 11723 11724 11725 11726 11727 11728 11729 11730 11731 11732 11733 11734 11735 11736 11737 11738 11739 11740 11741 11742 11743 11744 11745 11746 11747 11748 11749 11750 11751 11752 11753 11754 11755 11756 11757 11758 11759 11760 11761 11762 11763 11764 11765 11766 11767 11768 11769 11770 11771 11772 11773 11774 11775 11776 11777 11778 11779 11780 11781 11782 11783 11784 11785 11786 11787 11788 11789 11790 11791 11792 11793 11794 11795 11796 11797 11798 11799 11800 11801 11802 11803 11804 11805 11806 11807 11808 11809 11810 11811 11812 11813 11814 11815 11816 11817 11818 11819 11820 11821 11822 11823 11824 11825 11826 11827 11828 11829 11830 11831 11832 11833 11834 11835 11836 11837 11838 11839 11840 11841 11842 11843 11844 11845 11846 11847 11848 11849 11850 11851 11852 11853 11854 11855 11856 11857 11858 11859 11860 11861 11862 11863 11864 11865 11866 11867 11868 11869 11870 11871 11872 11873 11874 11875 11876 11877 11878 11879 11880 11881 11882 11883 11884 11885 11886 11887 11888 11889 11890 11891 11892 11893 11894 11895 11896 11897 11898 11899 11900 11901 11902 11903 11904 11905 11906 11907 11908 11909 11910 11911 11912 11913 11914 11915 11916 11917 11918 11919 11920 11921 11922 11923 11924 11925 11926 11927 11928 11929 11930 11931 11932 11933 11934 11935 11936 11937 11938 11939 11940 11941 11942 11943 11944 11945 11946 11947 11948 11949 11950 11951 11952 11953 11954 11955 11956 11957 11958 11959 11960 11961 11962 11963 11964 11965 11966 11967 11968 11969 11970 11971 11972 11973 11974 11975 11976 11977 11978 11979 11980 11981 11982 11983 11984 11985 11986 11987 11988 11989 11990 11991 11992 11993 11994 11995 11996 11997 11998 11999 12000 12001 12002 12003 12004 12005 12006 12007 12008 12009 12010 12011 12012 12013 12014 12015 12016 12017 12018 12019 12020 12021 12022 12023 12024 12025 12026 12027 12028 12029 12030 12031 12032 12033 12034 12035 12036 12037 12038 12039 12040 12041 12042 12043 12044 12045 12046 12047 12048 12049 12050 12051 12052 12053 12054 12055 12056 12057 12058 12059 12060 12061 12062 12063 12064 12065 12066 12067 12068 12069 12070 12071 12072 12073 12074 12075 12076 12077 12078 12079 12080 12081 12082 12083 12084 12085 12086 12087 12088 12089 12090 12091 12092 12093 12094 12095 12096 12097 12098 12099 12100 12101 12102 12103 12104 12105 12106 12107 12108 12109 12110 12111 12112 12113 12114 12115 12116 12117 12118 12119 12120 12121 12122 12123 12124 12125 12126 12127 12128 12129 12130 12131 12132 12133 12134 12135 12136 12137 12138 12139 12140 12141 12142 12143 12144 12145 12146 12147 12148 12149 12150 12151 12152 12153 12154 12155 12156 12157 12158 12159 12160 12161 12162 12163 12164 12165 12166 12167 12168 12169 12170 12171 12172 12173 12174 12175 12176 12177 12178 12179 12180 12181 12182 12183 12184 12185 12186 12187 12188 12189 12190 12191 12192 12193 12194 12195 12196 12197 12198 12199 12200 12201 12202 12203 12204 12205 12206 12207 12208 12209 12210 12211 12212 12213 12214 12215 12216 12217 12218 12219 12220 12221 12222 12223 12224 12225 12226 12227 12228 12229 12230 12231 12232 12233 12234 12235 12236 12237 12238 12239 12240 12241 12242 12243 12244 12245 12246 12247 12248 12249 12250 12251 12252 12253 12254 12255 12256 12257 12258 12259 12260 12261 12262 12263 12264 12265 12266 12267 12268 12269 12270 12271 12272 12273 12274 12275 12276 12277 12278 12279 12280 12281 12282 12283 12284 12285 12286 12287 12288 12289 12290 12291 12292 12293 12294 12295 12296 12297 12298 12299 12300 12301 12302 12303 12304 12305 12306 12307 12308 12309 12310 12311 12312 12313 12314 12315 12316 12317 12318 12319 12320 12321 12322 12323 12324 12325 12326 12327 12328 12329 12330 12331 12332 12333 12334 12335 12336 12337 12338 12339 12340 12341 12342 12343 12344 12345 12346 12347 12348 12349 12350 12351 12352 12353 12354 12355 12356 12357 12358 12359 12360 12361 12362 12363 12364 12365 12366 12367 12368 12369 12370 12371 12372 12373 12374 12375 12376 12377 12378 12379 12380 12381 12382 12383 12384 12385 12386 12387 12388 12389 12390 12391 12392 12393 12394 12395 12396 12397 12398 12399 12400 12401 12402 12403 12404 12405 12406 12407 12408 12409 12410 12411 12412 12413 12414 12415 12416 12417 12418 12419 12420 12421 12422 12423 12424 12425 12426 12427 12428 12429 12430 12431 12432 12433 12434 12435 12436 12437 12438 12439 12440 12441 12442 12443 12444 12445 12446 12447 12448 12449 12450 12451 12452 12453 12454 12455 12456 12457 12458 12459 12460 12461 12462 12463 12464 12465 12466 12467 12468 12469 12470 12471 12472 12473 12474 12475 12476 12477 12478 12479 12480 12481 12482 12483 12484 12485 12486 12487 12488 12489 12490 12491 12492 12493 12494 12495 12496 12497 12498 12499 12500 12501 12502 12503 12504 12505 12506 12507 12508 12509 12510 12511 12512 12513 12514 12515 12516 12517 12518 12519 12520 12521 12522 12523 12524 12525 12526 12527 12528 12529 12530 12531 12532 12533 12534 12535 12536 12537 12538 12539 12540 12541 12542 12543 12544 12545 12546 12547 12548 12549 12550 12551 12552 12553 12554 12555 12556 12557 12558 12559 12560 12561 12562 12563 12564 12565 12566 12567 12568 12569 12570 12571 12572 12573 12574 12575 12576 12577 12578 12579 12580 12581 12582 12583 12584 12585 12586 12587 12588 12589 12590 12591 12592 12593 12594 12595 12596 12597 12598 12599 12600 12601 12602 12603 12604 12605 12606 12607 12608 12609 12610 12611 12612 12613 12614 12615 12616 12617 12618 12619 12620 12621 12622 12623 12624 12625 12626 12627 12628 12629 12630 12631 12632 12633 12634 12635 12636 12637 12638 12639 12640 12641 12642 12643 12644 12645 12646 12647 12648 12649 12650 12651 12652 12653 12654 12655 12656 12657 12658 12659 12660 12661 12662 12663 12664 12665 12666 12667 12668 12669 12670 12671 12672 12673 12674 12675 12676 12677 12678 12679 12680 12681 12682 12683 12684 12685 12686 12687 12688 12689 12690 12691 12692 12693 12694 12695 12696 12697 12698 12699 12700 12701 12702 12703 12704 12705 12706 12707 12708 12709 12710 12711 12712 12713 12714 12715 12716 12717 12718 12719 12720 12721 12722 12723 12724 12725 12726 12727 12728 12729 12730 12731 12732 12733 12734 12735 12736 12737 12738 12739 12740 12741 12742 12743 12744 12745 12746 12747 12748 12749 12750 12751 12752 12753 12754 12755 12756 12757 12758 12759 12760 12761 12762 12763 12764 12765 12766 12767 12768 12769 12770 12771 12772 12773 12774 12775 12776 12777 12778 12779 12780 12781 12782 12783 12784 12785 12786 12787 12788 12789 12790 12791 12792 12793 12794 12795 12796 12797 12798 12799 12800 12801 12802 12803 12804 12805 12806 12807 12808 12809 12810 12811 12812 12813 12814 12815 12816 12817 12818 12819 12820 12821 12822 12823 12824 12825 12826 12827 12828 12829 12830 12831 12832 12833 12834 12835 12836 12837 12838 12839 12840 12841 12842 12843 12844 12845 12846 12847 12848 12849 12850 12851 12852 12853 12854 12855 12856 12857 12858 12859 12860 12861 12862 12863 12864 12865 12866 12867 12868 12869 12870 12871 12872 12873 12874 12875 12876 12877 12878 12879 12880 12881 12882 12883 12884 12885 12886 12887 12888 12889 12890 12891 12892 12893 12894 12895 12896 12897 12898 12899 12900 12901 12902 12903 12904 12905 12906 12907 12908 12909 12910 12911 12912 12913 12914 12915 12916 12917 12918 12919 12920 12921 12922 12923 12924 12925 12926 12927 12928 12929 12930 12931 12932 12933 12934 12935 12936 12937 12938 12939 12940 12941 12942 12943 12944 12945 12946 12947 12948 12949 12950 12951 12952 12953 12954 12955 12956 12957 12958 12959 12960 12961 12962 12963 12964 12965 12966 12967 12968 12969 12970 12971 12972 12973 12974 12975 12976 12977 12978 12979 12980 12981 12982 12983 12984 12985 12986 12987 12988 12989 12990 12991 12992 12993 12994 12995 12996 12997 12998 12999 13000 13001 13002 13003 13004 13005 13006 13007 13008 13009 13010 13011 13012 13013 13014 13015 13016 13017 13018 13019 13020 13021 13022 13023 13024 13025 13026 13027 13028 13029 13030 13031 13032 13033 13034 13035 13036 13037 13038 13039 13040 13041 13042 13043 13044 13045 13046 13047 13048 13049 13050 13051 13052 13053 13054 13055 13056 13057 13058 13059 13060 13061 13062 13063 13064 13065 13066 13067 13068 13069 13070 13071 13072 13073 13074 13075 13076 13077 13078 13079 13080 13081 13082 13083 13084 13085 13086 13087 13088 13089 13090 13091 13092 13093 13094 13095 13096 13097 13098 13099 13100 13101 13102 13103 13104 13105 13106 13107 13108 13109 13110 13111 13112 13113 13114 13115 13116 13117 13118 13119 13120 13121 13122 13123 13124 13125 13126 13127 13128 13129 13130 13131 13132 13133 13134 13135 13136 13137 13138 13139 13140 13141 13142 13143 13144 13145 13146 13147 13148 13149 13150 13151 13152 13153 13154 13155 13156 13157 13158 13159 13160 13161 13162 13163 13164 13165 13166 13167 13168 13169 13170 13171 13172 13173 13174 13175 13176 13177 13178 13179 13180 13181 13182 13183 13184 13185 13186 13187 13188 13189 13190 13191 13192 13193 13194 13195 13196 13197 13198 13199 13200 13201 13202 13203 13204 13205 13206 13207 13208 13209 13210 13211 13212 13213 13214 13215 13216 13217 13218 13219 13220 13221 13222 13223 13224 13225 13226 13227 13228 13229 13230 13231 13232 13233 13234 13235 13236 13237 13238 13239 13240 13241 13242 13243 13244 13245 13246 13247 13248 13249 13250 13251 13252 13253 13254 13255 13256 13257 13258 13259 13260 13261 13262 13263 13264 13265 13266 13267 13268 13269 13270 13271 13272 13273 13274 13275 13276 13277 13278 13279 13280 13281 13282 13283 13284 13285 13286 13287 13288 13289 13290 13291 13292 13293 13294 13295 13296 13297 13298 13299 13300 13301 13302 13303 13304 13305 13306 13307 13308 13309 13310 13311 13312 13313 13314 13315 13316 13317 13318 13319 13320 13321 13322 13323 13324 13325 13326 13327 13328 13329 13330 13331 13332 13333 13334 13335 13336 13337 13338 13339 13340 13341 13342 13343 13344 13345 13346 13347 13348 13349 13350 13351 13352 13353 13354 13355 13356 13357 13358 13359 13360 13361 13362 13363 13364 13365 13366 13367 13368 13369 13370 13371 13372 13373 13374 13375 13376 13377 13378 13379 13380 13381 13382 13383 13384 13385 13386 13387 13388 13389 13390 13391 13392 13393 13394 13395 13396 13397 13398 13399 13400 13401 13402 13403 13404 13405 13406 13407 13408 13409 13410 13411 13412 13413 13414 13415 13416 13417 13418 13419 13420 13421 13422 13423 13424 13425 13426 13427 13428 13429 13430 13431 13432 13433 13434 13435 13436 13437 13438 13439 13440 13441 13442 13443 13444 13445 13446 13447 13448 13449 13450 13451 13452 13453 13454 13455 13456 13457 13458 13459 13460 13461 13462 13463 13464 13465 13466 13467 13468 13469 13470 13471 13472 13473 13474 13475 13476 13477 13478 13479 13480 13481 13482 13483 13484 13485 13486 13487 13488 13489 13490 13491 13492 13493 13494 13495 13496 13497 13498 13499 13500 13501 13502 13503 13504 13505 13506 13507 13508 13509 13510 13511 13512 13513 13514 13515 13516 13517 13518 13519 13520 13521 13522 13523 13524 13525 13526 13527 13528 13529 13530 13531 13532 13533 13534 13535 13536 13537 13538 13539 13540 13541 13542 13543 13544 13545 13546 13547 13548 13549 13550 13551 13552 13553 13554 13555 13556 13557 13558 13559 13560 13561 13562 13563 13564 13565 13566 13567 13568 13569 13570 13571 13572 13573 13574 13575 13576 13577 13578 13579 13580 13581 13582 13583 13584 13585 13586 13587 13588 13589 13590 13591 13592 13593 13594 13595 13596 13597 13598 13599 13600 13601 13602 13603 13604 13605 13606 13607 13608 13609 13610 13611 13612 13613 13614 13615 13616 13617 13618 13619 13620 13621 13622 13623 13624 13625 13626 13627 13628 13629 13630 13631 13632 13633 13634 13635 13636 13637 13638 13639 13640 13641 13642 13643 13644 13645 13646 13647 13648 13649 13650 13651 13652 13653 13654 13655 13656 13657 13658 13659 13660 13661 13662 13663 13664 13665 13666 13667 13668 13669 13670 13671 13672 13673 13674 13675 13676 13677 13678 13679 13680 13681 13682 13683 13684 13685 13686 13687 13688 13689 13690 13691 13692 13693 13694 13695 13696 13697 13698 13699 13700 13701 13702 13703 13704 13705 13706 13707 13708 13709 13710 13711 13712 13713 13714 13715 13716 13717 13718 13719 13720 13721 13722 13723 13724 13725 13726 13727 13728 13729 13730 13731 13732 13733 13734 13735 13736 13737 13738 13739 13740 13741 13742 13743 13744 13745 13746 13747 13748 13749 13750 13751 13752 13753 13754 13755 13756 13757 13758 13759 13760 13761 13762 13763 13764 13765 13766 13767 13768 13769 13770 13771 13772 13773 13774 13775 13776 13777 13778 13779 13780 13781 13782 13783 13784 13785 13786 13787 13788 13789 13790 13791 13792 13793 13794 13795 13796 13797 13798 13799 13800 13801 13802 13803 </DataArray>
        <DataArray type="Float64" Name="stress" format="ascii" NumberOfComponents="9">74346184.83281916 -234613.8380196639 -234613.8380196639 3795412.88812582 0 0 0 0 0 74229793.53897829 -328535.3123356977 -328535.3123356977 3563546.866459922 0 0 0 0 0 73960883.41938777 -234450.7438137404 -234450.7438137404 3728987.166256494 0 0 0 0 0 74576779.49846272 -627409.2093235758 -627409.2093235758 3816842.368911996 0 0 0 0 0 73703336.65089454 -251120.8806006652 -251120.8806006652 3742359.294660066 0 0 0 0 0 73904596.81527823 -655472.9312527124 -655472.9312527124 3651346.208085417 0 0 0 0 0 74191661.61703207 -889533.1694251345 -889533.1694251345 3520067.457577548 0 0 0 0 0 73438930.98469704 -252999.5250354327 -252999.5250354327 3780910.677725018 0 0 0 0 0 73720561.22873127 -672497.6150375023 -672497.6150375023 3748775.829031105 0 0 0 0 0 74699846.42990594 -1215606.437740241 -1215606.437740241 3832382.573686462 0 0 0 0 0 73053862.20089486 -273583.2638405183 -273583.2638405183 3777861.952679091 0 0 0 0 0 73356485.92681797 -722237.5749156447 -722237.5749156447 3761825.973681199 0 0 0 0 0 73798747.97433406 -1148236.99044873 -1148236.99044873 3790932.274917304 0 0 0 0 0 74252242.87819301 -1479174.474623476 -1479174.474623476 3474320.075910997 0 0 0 0 0 73763228.75125179 -1215150.175483725 -1215150.175483725 3567152.512446601 0 0 0 0 0 72762430.4092301 -281008.1835070883 -281008.1835070883 3813126.129470504 0 0 0 0 0 73127429.85951947 -707613.2547118629 -707613.2547118629 3802285.49474316 0 0 0 0 0 73245365.37747343 -1127814.937534516 -1127814.937534516 3685564.923990339 0 0 0 0 0 74810967.79686102 -1809146.38316787 -1809146.38316787 3779353.63542491 0 0 0 0 0 74353423.65214352 -2069588.833175836 -2069588.833175836 3409185.075832005 0 0 0 0 0 74220497.79795857 -1677391.446627437 -1677391.446627437 3800829.961221401 0 0 0 0 0 72393190.75570028 -292733.7567828609 -292733.7567828609 3828432.766812948 0 0 0 0 0 72669118.37211837 -806590.4694171882 -806590.4694171882 3769694.508849473 0 0 0 0 0 73166384.36800076 -1108720.125774854 -1108720.125774854 3823875.990491937 0 0 0 0 0 73525393.52738254 -1569819.917195229 -1569819.917195229 3804064.025284957 0 0 0 0 0 73936571.1346906 -1829561.537336758 -1829561.537336758 3523051.506538067 0 0 0 0 0 74932008.96638104 -2383654.945089923 -2383654.945089923 3671470.197261686 0 0 0 0 0 74502374.00969495 -2637869.177488292 -2637869.177488292 3327281.79563734 0 0 0 0 0 73395714.34624261 -1667418.571532872 -1667418.571532872 3575202.682341494 0 0 0 0 0 71946969.10042253 -276992.5397373809 -276992.5397373809 3787908.908083816 0 0 0 0 0 72833690.38730764 -904108.1207114877 -904108.1207114877 3970054.810586554 0 0 0 0 0 72589853.08459657 -1038403.419074043 -1038403.419074043 3736363.145915737 0 0 0 0 0 72855296.29678521 -1573292.199348657 -1573292.199348657 3646082.47117003 0 0 0 0 0 74438015.55924632 -2224560.630496686 -2224560.630496686 3748629.369003959 0 0 0 0 0 74034771.70128325 -2439576.826509004 -2439576.826509004 3396940.561582837 0 0 0 0 0 75114603.51674235 -2991007.865878689 -2991007.865878689 3644920.297178195 0 0 0 0 0 74748690.57687567 -3221624.183993776 -3221624.183993776 3244107.412715378 0 0 0 0 0 73814861.52866292 -2129366.441672942 -2129366.441672942 3719446.728787637 0 0 0 0 0 71699447.09450488 -279049.3347662894 -279049.3347662894 3842643.293299552 0 0 0 0 0 72267199.12556224 -759459.6078932694 -759459.6078932694 4033898.112962431 0 0 0 0 0 71989374.02909435 -921886.0858941632 -921886.0858941632 3716198.688264722 0 0 0 0 0 72881615.36283758 -1512486.483096304 -1512486.483096304 3849335.71450456 0 0 0 0 0 73133805.45162141 -2090560.506709784 -2090560.506709784 3766030.577187415 0 0 0 0 0 73711682.39852491 -2209301.616686903 -2209301.616686903 3544173.054824886 0 0 0 0 0 74533538.62432517 -2660995.760428029 -2660995.760428029 3644756.657053216 0 0 0 0 0 74145683.04627478 -3015419.216242632 -3015419.216242632 3353103.560533115 0 0 0 0 0 75319505.12070288 -3548118.91500373 -3548118.91500373 3526675.671250084 0 0 0 0 0 73158250.82141052 -2151019.751203073 -2151019.751203073 3572068.173501674 0 0 0 0 0 71657652.89660732 -339273.0852072833 -339273.0852072833 3993249.082736806 0 0 0 0 0 71184557.71080151 -770116.503402053 -770116.503402053 3711048.229765856 0 0 0 0 0 72417359.52572092 -1343238.851258537 -1343238.851258537 3965754.415215759 0 0 0 0 0 72139899.72308156 -1500075.263718221 -1500075.263718221 3659627.659761216 0 0 0 0 0 72452406.67197791 -2088948.323040588 -2088948.323040588 3605284.328008449 0 0 0 0 0 73943419.94583181 -2675449.823817845 -2675449.823817845 3553531.63780748 0 0 0 0 0 74702043.61021528 -3293015.320953233 -3293015.320953233 3600084.382946216 0 0 0 0 0 74950025.98113911 -3789779.461306195 -3789779.461306195 3117720.541493441 0 0 0 0 0 74332195.40118033 -3543345.214986838 -3543345.214986838 3230511.71880187 0 0 0 0 0 73458112.28344841 -2674938.717488313 -2674938.717488313 3679329.278857834 0 0 0 0 0 71053595.98998559 -348471.2862350954 -348471.2862350954 3905583.136664316 0 0 0 0 0 71746075.89090149 -1148144.19265773 -1148144.19265773 4028521.315592952 0 0 0 0 0 71413790.17597157 -1333329.148813984 -1333329.148813984 3684657.749420232 0 0 0 0 0 72556392.8758025 -1996604.073035721 -1996604.073035721 3854340.692352561 0 0 0 0 0 72865262.93604501 -2592334.361269992 -2592334.361269992 3756390.064692058 0 0 0 0 0 73541423.05404867 -2705066.334042689 -2705066.334042689 3537306.421826276 0 0 0 0 0 73802956.02479605 -3303537.10714445 -3303537.10714445 3340095.354284139 0 0 0 0 0 75543097.17149769 -4107054.434754787 -4107054.434754787 3347000.01774699 0 0 0 0 0 75009604.36711796 -3877406.28820016 -3877406.28820016 3462192.519818764 0 0 0 0 0 75214712.46789919 -4327240.457556186 -4327240.457556186 2981521.904577358 0 0 0 0 0 75579563.53529163 -4855439.088701898 -4855439.088701898 2847587.315162866 0 0 0 0 0 72827523.97743501 -2657243.185478359 -2657243.185478359 3533659.027484431 0 0 0 0 0 70642040.21218587 -360895.1180074532 -360895.1180074532 3922142.902886829 0 0 0 0 0 70752158.03215922 -1160950.814404773 -1160950.814404773 3752591.649892209 0 0 0 0 0 71888723.99883421 -1877276.027701735 -1877276.027701735 3920916.729243833 0 0 0 0 0 71758408.81126384 -1980119.556075885 -1980119.556075885 3656314.696424839 0 0 0 0 0 72126630.0267611 -2575232.735390237 -2575232.735390237 3581729.290361172 0 0 0 0 0 73878614.59230483 -3227041.751373157 -3227041.751373157 3577617.195780385 0 0 0 0 0 74319677.5502084 -3771671.397526969 -3771671.397526969 3458133.582101675 0 0 0 0 0 74606024.5672918 -4143486.986079399 -4143486.986079399 3073114.469014085 0 0 0 0 0 74097578.6065127 -3901020.463741057 -3901020.463741057 3200131.81400172 0 0 0 0 0 75775948.80078241 -4731373.528957062 -4731373.528957062 3159496.234822984 0 0 0 0 0 76124162.90982784 -5242933.97123566 -5242933.97123566 2998972.628947564 0 0 0 0 0 75928264.52435665 -5367060.560222807 -5367060.560222807 2682176.348758502 0 0 0 0 0 73204150.70980091 -3165211.09188323 -3165211.09188323 3646596.858392198 0 0 0 0 0 70340110.59081641 -338344.9576091674 -338344.9576091674 3991255.202068872 0 0 0 0 0 70836689.27321535 -1062682.331513517 -1062682.331513517 4006682.960169839 0 0 0 0 0 71239260.78031012 -1748940.758183706 -1748940.758183706 3977353.86901529 0 0 0 0 0 71069858.23202738 -1863563.516546753 -1863563.516546753 3718162.350508226 0 0 0 0 0 72192255.6699843 -2496926.536704902 -2496926.536704902 3823132.246027587 0 0 0 0 0 72537299.64012514 -3095249.394350862 -3095249.394350862 3714129.489943537 0 0 0 0 0 73190172.53559721 -3226459.546961227 -3226459.546961227 3420965.372478427 0 0 0 0 0 73615644.34352762 -3775974.484227263 -3775974.484227263 3308499.764505556 0 0 0 0 0 74871103.15741464 -4263561.041637268 -4263561.041637268 3271006.38786149 0 0 0 0 0 74619959.81741609 -4265440.535982357 -4265440.535982357 3317634.17045364 0 0 0 0 0 75113563.78237313 -4785435.712358639 -4785435.712358639 2989097.662359007 0 0 0 0 0 75399913.89068459 -5299578.314498387 -5299578.314498387 2789007.79549322 0 0 0 0 0 76535517.89240202 -5734383.674410466 -5734383.674410466 2857014.736176041 0 0 0 0 0 76319471.88511451 -5871669.583416627 -5871669.583416627 2504152.728653477 0 0 0 0 0 76751824.27951653 -6375291.086273111 -6375291.086273111 2314477.491139101 0 0 0 0 0 72517066.36809088 -3157219.076884812 -3157219.076884812 3491570.794157788 0 0 0 0 0 69819163.82416885 -334564.0856685982 -334564.0856685982 3935879.653036872 0 0 0 0 0 70040610.93243143 -1046210.691565976 -1046210.691565976 3831749.759562518 0 0 0 0 0 70342112.57660887 -1732878.372399881 -1732878.372399881 3756813.764319 0 0 0 0 0 71488785.03271559 -2401993.784158363 -2401993.784158363 3889224.661865629 0 0 0 0 0 71427056.61409765 -2483257.125585515 -2483257.125585515 3644922.537354045 0 0 0 0 0 71820497.49983637 -3086676.352151818 -3086676.352151818 3551844.693177775 0 0 0 0 0 73599418.53562441 -3725107.62507227 -3725107.62507227 3522991.651871535 0 0 0 0 0 73998190.06335656 -4271707.46606539 -4271707.46606539 3382448.705131467 0 0 0 0 0 74940624.77043368 -4773129.31118998 -4773129.31118998 3186123.592069324 0 0 0 0 0 74067902.85255304 -4296584.383638613 -4296584.383638613 3206877.820817341 0 0 0 0 0 75471790.75924675 -5238637.813648866 -5238637.813648866 2989656.358546099 0 0 0 0 0 75969641.31829223 -5607631.787103402 -5607631.787103402 3009480.685050367 0 0 0 0 0 75667311.13853516 -5817125.123258832 -5817125.123258832 2592382.518517318 0 0 0 0 0 76945152.46478376 -6250837.316883069 -6250837.316883069 2700066.09420164 0 0 0 0 0 77359897.23495586 -6742619.646241331 -6742619.646241331 2452133.769798963 0 0 0 0 0 77198710.01863168 -6846899.274872992 -6846899.274872992 2106628.404751988 0 0 0 0 0 72914881.55864172 -3675902.981944396 -3675902.981944396 3588133.342358937 0 0 0 0 0 69595652.974738 -322897.943888464 -322897.943888464 4034813.946078066 0 0 0 0 0 70029502.64629345 -979364.2533043342 -979364.2533043342 4029338.061580784 0 0 0 0 0 70449297.72338146 -1631055.228089286 -1631055.228089286 4021648.173077354 0 0 0 0 0 70796887.53610376 -2300206.382458367 -2300206.382458367 3947626.01638566 0 0 0 0 0 70697148.95047857 -2390199.110118201 -2390199.110118201 3705988.796631459 0 0 0 0 0 71837141.53362235 -3024016.404297061 -3024016.404297061 3774929.424992952 0 0 0 0 0 72222920.74300706 -3627427.514937166 -3627427.514937166 3651686.564671673 0 0 0 0 0 72942182.99460419 -3726016.991925003 -3726016.991925003 3376168.343161005 0 0 0 0 0 73397214.94954538 -4280645.621907072 -4280645.621907072 3248599.471732997 0 0 0 0 0 74529099.15055771 -4796346.697009703 -4796346.697009703 3098293.265832178 0 0 0 0 0 74451794.5628548 -4792469.75788267 -4792469.75788267 3223137.872731389 0 0 0 0 0 75219037.43608852 -5262413.079915163 -5262413.079915163 2966091.44949103 0 0 0 0 0 75103863.72138076 -5652143.525088214 -5652143.525088214 2752975.02711994 0 0 0 0 0 76288366.15271935 -6089906.033183309 -6089906.033183309 2789640.14123728 0 0 0 0 0 76008203.76319638 -6306460.348012642 -6306460.348012642 2418356.634572015 0 0 0 0 0 76518551.71176624 -6773850.564476762 -6773850.564476762 2200258.503965213 0 0 0 0 0 77795943.34094369 -7201204.963945422 -7201204.963945422 2205751.794747582 0 0 0 0 0 72249448.09828395 -3676247.178195502 -3676247.178195502 3443020.85454769 0 0 0 0 0 69080489.62583581 -303051.5541203894 -303051.5541203894 3966439.906296802 0 0 0 0 0 69353787.74273628 -944501.9538325686 -944501.9538325686 3910463.945753863 0 0 0 0 0 69583505.95572226 -1608759.419871664 -1608759.419871664 3813616.861730256 0 0 0 0 0 69924516.85484791 -2288082.656484149 -2288082.656484149 3732881.273922537 0 0 0 0 0 71106364.52945051 -2958159.858448995 -2958159.858448995 3836021.714428477 0 0 0 0 0 71108913.88028724 -3018008.366578147 -3018008.366578147 3612354.091553932 0 0 0 0 0 71534627.81444585 -3626164.505637087 -3626164.505637087 3502267.386808165 0 0 0 0 0 73346848.35176052 -4242608.668121416 -4242608.668121416 3451469.831562642 0 0 0 0 0 73792470.10584174 -4787082.978142704 -4787082.978142704 3290765.603870636 0 0 0 0 0 74813837.13474825 -5288026.462095135 -5288026.462095135 3038083.743186558 0 0 0 0 0 73867141.99804351 -4808186.903888749 -4808186.903888749 3098123.431445532 0 0 0 0 0 75600606.95144059 -5835240.144034415 -5835240.144034415 2931779.055666864 0 0 0 0 0 75327243.29740962 -6137018.920820226 -6137018.920820226 2517666.038363629 0 0 0 0 0 76671003.9732058 -6675635.488825259 -6675635.488825259 2531323.394012622 0 0 0 0 0 77164071.28036258 -7167068.716165722 -7167068.716165722 2299949.691083531 0 0 0 0 0 77654178.99020153 -7293909.899266539 -7293909.899266539 1880362.220597706 0 0 0 0 0 77093325.30899675 -7232754.407652544 -7232754.407652544 1998951.022904428 0 0 0 0 0 72660872.17943674 -4212554.33936182 -4212554.33936182 3511910.664607634 0 0 0 0 0 68812085.83948556 -318889.2454338302 -318889.2454338302 4027902.085323823 0 0 0 0 0 69198054.4859205 -919384.6154329102 -919384.6154329102 4053503.77121655 0 0 0 0 0 69668424.74308683 -1519176.115294393 -1519176.115294393 4069240.094748796 0 0 0 0 0 70052995.27029029 -2179483.137427647 -2179483.137427647 4017181.47070415 0 0 0 0 0 70380197.58775416 -2875506.454321886 -2875506.454321886 3910722.438212588 0 0 0 0 0 70332601.69199975 -2946541.935246601 -2946541.935246601 3665141.597892845 0 0 0 0 0 71500553.54593574 -3580468.101408013 -3580468.101408013 3710308.72036932 0 0 0 0 0 71948862.89543585 -4183385.476133035 -4183385.476133035 3578365.572089253 0 0 0 0 0 72712998.29878567 -4250735.426637834 -4250735.426637834 3307814.130830443 0 0 0 0 0 73224913.30647206 -4793301.974465134 -4793301.974465134 3169732.148158644 0 0 0 0 0 74324030.67767568 -5328088.375161532 -5328088.375161532 2958493.327195563 0 0 0 0 0 74275470.09382577 -5301738.496512566 -5301738.496512566 3134056.887640346 0 0 0 0 0 74726676.08149748 -5862252.187757806 -5862252.187757806 2668791.54544544 0 0 0 0 0 75547544.89855894 -6234405.661652796 -6234405.661652796 2675153.850470702 0 0 0 0 0 75950542.61843957 -6720139.642823169 -6720139.642823169 2338409.418272368 0 0 0 0 0 76516245.75812684 -7205547.027104411 -7205547.027104411 2133256.127430894 0 0 0 0 0 78286988.84189934 -7639610.607640591 -7639610.607640591 1966472.39111633 0 0 0 0 0 77722685.30806021 -7586440.547266762 -7586440.547266762 2069540.800877913 0 0 0 0 0 78169414.10358548 -7717496.02126726 -7717496.02126726 1652644.395047428 0 0 0 0 0 78730923.23146017 -8099482.707373491 -8099482.707373491 1421094.712566431 0 0 0 0 0 71990354.52889527 -4227342.234280792 -4227342.234280792 3362002.981130334 0 0 0 0 0 68429224.25087239 -333364.2385550081 -333364.2385550081 4044600.835141376 0 0 0 0 0 68700411.57397097 -893924.2223487986 -893924.2223487986 4002699.592528324 0 0 0 0 0 68860683.36183397 -1498521.505299282 -1498521.505299282 3889232.707811131 0 0 0 0 0 69131194.8234168 -2169081.59813532 -2169081.59813532 3788698.121307021 0 0 0 0 0 69533039.22553976 -2871649.317739357 -2871649.317739357 3698211.590937207 0 0 0 0 0 70739758.86989504 -3536421.232175023 -3536421.232175023 3763686.718898539 0 0 0 0 0 70789795.08077131 -3571798.642295439 -3571798.642295439 3553186.695958372 0 0 0 0 0 71245587.75906585 -4189752.925403253 -4189752.925403253 3417085.683593085 0 0 0 0 0 73098881.03554675 -4784729.722265666 -4784729.722265666 3343553.11715305 0 0 0 0 0 73561671.62798016 -5317632.946568497 -5317632.946568497 3166631.408596703 0 0 0 0 0 74843825.92603126 -5775007.308149234 -5775007.308149234 2955993.240730029 0 0 0 0 0 73731904.39895169 -5305803.226582575 -5305803.226582575 3020068.358327809 0 0 0 0 0 75249728.35444339 -6252941.247089017 -6252941.247089017 2734829.006463929 0 0 0 0 0 75781313.59277804 -6726375.741911162 -6726375.741911162 2528281.484986279 0 0 0 0 0 76482409.94614834 -7178772.690301105 -7178772.690301105 2324180.807494477 0 0 0 0 0 77047231.05288175 -7606279.064813242 -7606279.064813242 2073370.548229986 0 0 0 0 0 77545184.6712303 -7701688.538825908 -7701688.538825908 1735557.220021911 0 0 0 0 0 77160836.55085343 -7614537.828456313 -7614537.828456313 1919691.030504118 0 0 0 0 0 78717238.36854562 -8085599.846725171 -8085599.846725171 1612488.414648953 0 0 0 0 0 79392938.3035862 -8381587.744451375 -8381587.744451375 1584862.366652854 0 0 0 0 0 79196742.63879785 -8501929.477900084 -8501929.477900084 1144836.23845691 0 0 0 0 0 72411204.26297837 -4776127.135289493 -4776127.135289493 3411546.46811467 0 0 0 0 0 67986120.75528271 -342911.4106798887 -342911.4106798887 4059896.846045686 0 0 0 0 0 68264043.65748717 -953143.6153383673 -953143.6153383673 3953103.985345252 0 0 0 0 0 68943519.16036543 -1408966.331037852 -1408966.331037852 4163784.925117972 0 0 0 0 0 69256618.53559989 -2063995.691322318 -2063995.691322318 4058453.995951636 0 0 0 0 0 69616476.96324013 -2781037.187347936 -2781037.187347936 3955093.996007259 0 0 0 0 0 69971792.35104205 -3473331.854064473 -3473331.854064473 3825808.106258139 0 0 0 0 0 70024233.4200875 -3519130.140953789 -3519130.140953789 3619831.427560823 0 0 0 0 0 71199545.29557511 -4148560.272255161 -4148560.272255161 3632169.435364169 0 0 0 0 0 71684585.94823907 -4762084.551426893 -4762084.551426893 3477465.468440072 0 0 0 0 0 72498695.08848736 -4798379.290602921 -4798379.290602921 3218176.128992036 0 0 0 0 0 73041783.40237108 -5333263.952592283 -5333263.952592283 3065431.623281729 0 0 0 0 0 74214080.34097962 -5817345.427127767 -5817345.427127767 2816118.662671003 0 0 0 0 0 74054615.28266399 -5817540.292168051 -5817540.292168051 2984122.014162722 0 0 0 0 0 74792828.47145233 -6302550.332247686 -6302550.332247686 2664604.041534112 0 0 0 0 0 75392983.16901287 -6768864.673420824 -6768864.673420824 2465947.27699758 0 0 0 0 0 75961758.4129007 -7214597.069152084 -7214597.069152084 2209283.177720425 0 0 0 0 0 76583248.67867659 -7660524.55892549 -7660524.55892549 1988122.919333889 0 0 0 0 0 78036053.84355281 -7849249.500483907 -7849249.500483907 1861303.081917512 0 0 0 0 0 77473814.85611077 -7962622.978911679 -7962622.978911679 1767198.818671538 0 0 0 0 0 78622570.83959298 -8155961.942525148 -8155961.942525148 1637082.151832232 0 0 0 0 0 78511705.38900062 -8473668.581764918 -8473668.581764918 1302837.484061522 0 0 0 0 0 79886685.05302756 -8774494.086908346 -8774494.086908346 1252751.33066995 0 0 0 0 0 79743970.58113249 -8852770.672622077 -8852770.672622077 878743.3353779619 0 0 0 0 0 81101799.555535 -9499337.184177922 -9499337.184177922 389870.2314493532 0 0 0 0 0 80443878.09118645 -9181780.463350156 -9181780.463350156 645962.9734270513 0 0 0 0 0 71776414.86491406 -4788885.733659309 -4788885.733659309 3273390.655313995 0 0 0 0 0 67746205.03415191 -374746.937102343 -374746.937102343 4126593.357773359 0 0 0 0 0 68410354.68849851 -1059663.108044427 -1059663.108044427 4180857.793625636 0 0 0 0 0 67944981.54722267 -1393119.667779122 -1393119.667779122 3892678.504432528 0 0 0 0 0 68298030.51028101 -2035658.170386169 -2035658.170386169 3807187.812688978 0 0 0 0 0 68716722.37413804 -2768945.841915941 -2768945.841915941 3731366.319144219 0 0 0 0 0 69201879.39050111 -3468396.558180824 -3468396.558180824 3649314.38143248 0 0 0 0 0 70408075.27792841 -4132155.780536307 -4132155.780536307 3680599.175052018 0 0 0 0 0 70512638.14785081 -4154748.602208799 -4154748.602208799 3487093.730599177 0 0 0 0 0 71006639.49897674 -4780907.225129822 -4780907.225129822 3327780.116293697 0 0 0 0 0 72890056.75552674 -5337777.657859727 -5337777.657859727 3230502.668115236 0 0 0 0 0 73383759.13780431 -5862929.408400885 -5862929.408400885 3037994.770453731 0 0 0 0 0 74611623.37112854 -6309730.059959223 -6309730.059959223 2799916.334549354 0 0 0 0 0 73589978.54833136 -5841952.731006894 -5841952.731006894 2900295.966765505 0 0 0 0 0 75201637.5244851 -6792514.696506591 -6792514.696506591 2587286.496673097 0 0 0 0 0 75742037.41628905 -7240339.046338566 -7240339.046338566 2354268.960026545 0 0 0 0 0 76388077.70139252 -7675076.172842454 -7675076.172842454 2117656.81759511 0 0 0 0 0 77026869.02876066 -8077371.899487937 -8077371.899487937 1871354.2103291 0 0 0 0 0 77978098.78357372 -8263281.614276027 -8263281.614276027 1579225.282948204 0 0 0 0 0 77310054.73075674 -8022090.589350156 -8022090.589350156 1787616.695246991 0 0 0 0 0 79178519.47299528 -8666926.505306166 -8666926.505306166 1419048.904328608 0 0 0 0 0 78958182.45768999 -8853905.827654112 -8853905.827654112 969085.4774576072 0 0 0 0 0 80388237.79200833 -9213559.830118736 -9213559.830118736 879649.1917386468 0 0 0 0 0 81012113.28870739 -9524873.808037579 -9524873.808037579 603268.5753955618 0 0 0 0 0 81646442.58224621 -9780757.641532432 -9780757.641532432 344274.0730692029 0 0 0 0 0 81636556.7315132 -9783216.72943024 -9783216.72943024 87884.19346428261 0 0 0 0 0 72164444.8947902 -5357639.785567818 -5357639.785567818 3288404.321976792 0 0 0 0 0 67164122.19404496 -391145.5306291564 -391145.5306291564 4068170.605948516 0 0 0 0 0 67529824.80256897 -1089414.348987775 -1089414.348987775 3992883.072958641 0 0 0 0 0 68478674.17280006 -1910576.959672851 -1910576.959672851 4114358.997145208 0 0 0 0 0 68814497.24272746 -2667086.648978546 -2667086.648978546 4018463.05129053 0 0 0 0 0 69219048.75511844 -3400534.147313332 -3400534.147313332 3895521.984673809 0 0 0 0 0 69621732.7835748 -4098761.897959836 -4098761.897959836 3739684.884201488 0 0 0 0 0 69705271.21016367 -4130028.094330768 -4130028.094330768 3529971.009967128 0 0 0 0 0 70899573.80275197 -4758782.315109409 -4758782.315109409 3522639.757002484 0 0 0 0 0 71443552.36867653 -5369270.862883474 -5369270.862883474 3355450.714512343 0 0 0 0 0 72323964.95355949 -5354737.744604838 -5354737.744604838 3117391.732083935 0 0 0 0 0 72902724.45061488 -5883336.584163303 -5883336.584163303 2952609.692660112 0 0 0 0 0 74149147.80287895 -6335452.838116966 -6335452.838116966 2705416.453259647 0 0 0 0 0 73935816.4272463 -6362248.878613153 -6362248.878613153 2846789.347259039 0 0 0 0 0 74756037.31379768 -6824938.238317153 -6824938.238317153 2499808.547701337 0 0 0 0 0 75390774.74151486 -7282999.328028948 -7282999.328028948 2298299.395028212 0 0 0 0 0 76033186.90818772 -7715595.906739507 -7715595.906739507 2060954.75267368 0 0 0 0 0 76688644.43462329 -8124865.919026126 -8124865.919026126 1819314.055319066 0 0 0 0 0 77988201.81070268 -8323558.662320504 -8323558.662320504 1633951.641045906 0 0 0 0 0 77555903.04660124 -8439175.012092967 -8439175.012092967 1608375.209762051 0 0 0 0 0 78503264.26020792 -8730252.959425066 -8730252.959425066 1213402.898255993 0 0 0 0 0 79439879.28281879 -8985788.678796561 -8985788.678796561 1149655.148686057 0 0 0 0 0 79958494.91347383 -9261200.885949077 -9261200.885949077 775385.0174881226 0 0 0 0 0 80664360.6137591 -9572889.02145933 -9572889.02145933 518560.7883655987 0 0 0 0 0 81396517.96994966 -9813193.782393817 -9813193.782393817 284007.6405474591 0 0 0 0 0 82164358.8156545 -9941921.697837871 -9941921.697837871 156106.6925712265 0 0 0 0 0 71579998.56882672 -5376190.361360491 -5376190.361360491 3168525.376408152 0 0 0 0 0 66768682.6407573 -397806.7377040021 -397806.7377040021 4096931.324622893 0 0 0 0 0 67317349.0503864 -1111035.223280424 -1111035.223280424 4090246.507870391 0 0 0 0 0 67531682.4875308 -1898785.565403052 -1898785.565403052 3876074.294415547 0 0 0 0 0 67884796.0908656 -2658746.780995827 -2658746.780995827 3790786.538895794 0 0 0 0 0 68336275.53520115 -3395850.859104995 -3395850.859104995 3679951.617388636 0 0 0 0 0 68875560.18347435 -4096855.550837915 -4096855.550837915 3574312.962056913 0 0 0 0 0 70114801.0559494 -4756701.123472675 -4756701.123472675 3579843.586711345 0 0 0 0 0 70251386.37601222 -4766549.977624227 -4766549.977624227 3387881.126750048 0 0 0 0 0 70793800.45355932 -5389553.627001118 -5389553.627001118 3210447.20586079 0 0 0 0 0 72687176.47900981 -5910985.394182179 -5910985.394182179 3092755.114988276 0 0 0 0 0 73237054.69019632 -6431096.827165399 -6431096.827165399 2887763.803589871 0 0 0 0 0 74519224.57547246 -6857815.970229269 -6857815.970229269 2628248.641865035 0 0 0 0 0 73477908.38961495 -6393879.534357838 -6393879.534357838 2757722.31114593 0 0 0 0 0 75115964.56665787 -7332557.13395426 -7332557.13395426 2394797.972849284 0 0 0 0 0 75710823.63210489 -7773897.869991541 -7773897.869991541 2150014.906937191 0 0 0 0 0 76368179.48014529 -8192215.495860209 -8192215.495860209 1902072.677625192 0 0 0 0 0 77040203.23808011 -8578218.182951856 -8578218.182951856 1646800.296915184 0 0 0 0 0 78272037.24629436 -8773992.429948818 -8773992.429948818 1361173.708584122 0 0 0 0 0 77404140.50985442 -8483190.33272722 -8483190.33272722 1606311.576703702 0 0 0 0 0 78908651.27919051 -9085841.10006213 -9085841.10006213 1061622.667423577 0 0 0 0 0 79559106.98549265 -9370791.446161073 -9370791.446161073 840828.4011957184 0 0 0 0 0 80374586.10275732 -9658607.552100964 -9658607.552100964 583712.8377212975 0 0 0 0 0 81032802.90530837 -9912300.783768272 -9912300.783768272 296858.1759592455 0 0 0 0 0 81523624.53744456 -10086057.19848608 -10086057.19848608 -21211.62377114651 0 0 0 0 0 82058445.02078995 -10197723.96843393 -10197723.96843393 -206265.90400812 0 0 0 0 0 82545656.80609681 -10031887.68393318 -10031887.68393318 -108983.4800752376 0 0 0 0 0 71952379.74271153 -5956513.497834109 -5956513.497834109 3143290.017321027 0 0 0 0 0 66283928.58877202 -395995.4604907897 -395995.4604907897 4082137.957529765 0 0 0 0 0 66872012.96335867 -1131915.823008535 -1131915.823008535 4090828.484178616 0 0 0 0 0 67494463.38121675 -1835668.393510239 -1835668.393510239 4117693.966260984 0 0 0 0 0 67994703.3408698 -2555351.844273916 -2555351.844273916 4071227.000154707 0 0 0 0 0 68402497.74947043 -3306196.9355975 -3306196.9355975 3954520.77156139 0 0 0 0 0 68841152.22834523 -4046511.514249192 -4046511.514249192 3806993.842613104 0 0 0 0 0 69292977.45526169 -4748719.75863451 -4748719.75863451 3631012.384032309 0 0 0 0 0 69422045.83700888 -4765095.325519741 -4765095.325519741 3430314.512023267 0 0 0 0 0 70634152.24517986 -5387867.335431425 -5387867.335431425 3391593.572028703 0 0 0 0 0 71221474.63436839 -5993019.367364369 -5993019.367364369 3206437.882065617 0 0 0 0 0 72171758.61621267 -5932590.562335833 -5932590.562335833 2995341.111920527 0 0 0 0 0 72778487.0063979 -6459032.278617064 -6459032.278617064 2808415.383107411 0 0 0 0 0 74087752.14174251 -6893968.802394344 -6893968.802394344 2549957.981351602 0 0 0 0 0 73831092.34899972 -6932541.713611458 -6932541.713611458 2677683.780636621 0 0 0 0 0 74738180.78401558 -7371634.942945511 -7371634.942945511 2331318.767498809 0 0 0 0 0 75408287.46866432 -7819130.412129907 -7819130.412129907 2108661.639648347 0 0 0 0 0 76097071.74617739 -8234034.080058224 -8234034.080058224 1865940.581107429 0 0 0 0 0 76800276.04792593 -8622324.186538126 -8622324.186538126 1618263.600424394 0 0 0 0 0 78060878.6189151 -8839487.848537678 -8839487.848537678 1344395.267984594 0 0 0 0 0 77682842.50281863 -8933901.511110961 -8933901.511110961 1381710.749039635 0 0 0 0 0 78783307.22555162 -9149517.132073762 -9149517.132073762 1082620.001299435 0 0 0 0 0 79508490.98045853 -9430215.33824284 -9430215.33824284 872208.5084760449 0 0 0 0 0 80164961.29635605 -9706891.59137078 -9706891.59137078 555119.0286722194 0 0 0 0 0 80896717.67030048 -9962970.706424907 -9962970.706424907 292139.9634750254 0 0 0 0 0 81688083.67059122 -10142950.42717539 -10142950.42717539 63471.54010007351 0 0 0 0 0 82545249.21418576 -10285527.74364274 -10285527.74364274 -53443.47718695551 0 0 0 0 0 82890804.81592464 -10383199.97679365 -10383199.97679365 -267216.0114769258 0 0 0 0 0 83088331.49747667 -10294700.67451273 -10294700.67451273 -421227.11735114 0 0 0 0 0 71427667.34063148 -5978431.648751556 -5978431.648751556 3045150.26779656 0 0 0 0 0 65922694.83993984 -414747.0225765721 -414747.0225765721 4154672.313157142 0 0 0 0 0 66431947.4643119 -1117779.545096745 -1117779.545096745 4116163.718931586 0 0 0 0 0 66633264.57197464 -1800289.172632581 -1800289.172632581 3958937.571575077 0 0 0 0 0 67010020.37047696 -2534020.238652122 -2534020.238652122 3830734.724261489 0 0 0 0 0 67471074.8420736 -3300351.082715653 -3300351.082715653 3728218.688982389 0 0 0 0 0 67985694.5318305 -4049203.859061346 -4049203.859061346 3602694.286913338 0 0 0 0 0 68563826.78661223 -4755050.102421585 -4755050.102421585 3471586.103827129 0 0 0 0 0 69832503.30828527 -5410578.601282731 -5410578.601282731 3447151.473860939 0 0 0 0 0 70030661.03933915 -5401049.467725254 -5401049.467725254 3274716.570294565 0 0 0 0 0 70619772.60033815 -6019590.461221006 -6019590.461221006 3079443.425294374 0 0 0 0 0 72525195.39987926 -6501189.442864861 -6501189.442864861 2940558.159784463 0 0 0 0 0 73121771.52367704 -7016920.075914827 -7016920.075914827 2717358.119075871 0 0 0 0 0 74455066.66649388 -7422210.300968109 -7422210.300968109 2441313.17195357 0 0 0 0 0 73389262.77159394 -6966988.189548707 -6966988.189548707 2595665.885138247 0 0 0 0 0 75088915.84426659 -7886336.840155116 -7886336.840155116 2193654.563235673 0 0 0 0 0 75738040.60850981 -8316330.094547511 -8316330.094547511 1935572.014392046 0 0 0 0 0 76411123.52246602 -8717579.467175677 -8717579.467175677 1670283.314514066 0 0 0 0 0 77109305.79071625 -9091737.304859031 -9091737.304859031 1400727.052997823 0 0 0 0 0 78348105.88716702 -9253230.480491396 -9253230.480491396 1110060.939741519 0 0 0 0 0 77520352.51816386 -8982403.248720631 -8982403.248720631 1377290.56683497 0 0 0 0 0 79081507.35362239 -9562280.950367426 -9562280.950367426 849781.1340989198 0 0 0 0 0 79746774.24762557 -9827851.072449924 -9827851.072449924 580919.103801416 0 0 0 0 0 80516786.67153496 -10079564.36002746 -10079564.36002746 311029.7391741016 0 0 0 0 0 81212022.92374077 -10296422.77117996 -10296422.77117996 29284.15220525644 0 0 0 0 0 81824242.53362282 -10463708.6239954 -10463708.6239954 -250708.7542276182 0 0 0 0 0 82399170.72970216 -10446062.8109367 -10446062.8109367 -429264.0997609021 0 0 0 0 0 83427856.65022174 -10556421.32352933 -10556421.32352933 -684461.2099391501 0 0 0 0 0 83645479.34911244 -10494419.14288442 -10494419.14288442 -732874.0143838854 0 0 0 0 0 71779825.223011 -6576280.835532826 -6576280.835532826 2984370.637730218 0 0 0 0 0 65379027.47691543 -422384.9871475428 -422384.9871475428 4155386.31235957 0 0 0 0 0 65776200.16742535 -1181004.97578862 -1181004.97578862 4039789.133844549 0 0 0 0 0 66696261.83587183 -1722287.422608496 -1722287.422608496 4195950.465942438 0 0 0 0 0 67155170.29821546 -2420395.534094689 -2420395.534094689 4122851.785856947 0 0 0 0 0 67549019.25410949 -3206449.408084723 -3206449.408084723 4006573.265593641 0 0 0 0 0 68004209.97988342 -3976578.960789508 -3976578.960789508 3864320.980149666 0 0 0 0 0 68495747.30064431 -4716664.018619427 -4716664.018619427 3697488.077596675 0 0 0 0 0 69010726.84237443 -5420435.48839592 -5420435.48839592 3502010.45826957 0 0 0 0 0 69172377.41830015 -5424277.217571996 -5424277.217571996 3308065.59000059 0 0 0 0 0 70398655.6777039 -6042838.655238786 -6042838.655238786 3244824.98931648 0 0 0 0 0 71028616.62145962 -6641585.499494183 -6641585.499494183 3031262.140962598 0 0 0 0 0 72044986.59552659 -6528114.126051522 -6528114.126051522 2850137.114739101 0 0 0 0 0 72705594.88124467 -7046831.302968131 -7046831.302968131 2650044.290739546 0 0 0 0 0 74057943.50573699 -7459766.196821775 -7459766.196821775 2372141.159877731 0 0 0 0 0 73768168.47587796 -7510643.820889324 -7510643.820889324 2488211.06560383 0 0 0 0 0 74751052.06960119 -7927599.070899067 -7927599.070899067 2141157.047441266 0 0 0 0 0 75461583.13157748 -8362388.746910961 -8362388.746910961 1901000.371892316 0 0 0 0 0 76189745.59254068 -8764599.73210307 -8764599.73210307 1649526.746399834 0 0 0 0 0 76930256.37889779 -9138687.950198563 -9138687.950198563 1390001.17183935 0 0 0 0 0 78245897.1287708 -9304865.909843741 -9304865.909843741 1120865.557176201 0 0 0 0 0 77795233.66492145 -9429719.307332356 -9429719.307332356 1125741.01975342 0 0 0 0 0 78980820.30384286 -9604016.357814342 -9604016.357814342 853512.6891463355 0 0 0 0 0 79721364.36417499 -9877793.432041703 -9877793.432041703 608466.4250725156 0 0 0 0 0 80444800.24605642 -10127760.29303944 -10127760.29303944 323830.5706708537 0 0 0 0 0 81190173.86170451 -10347339.23948555 -10347339.23948555 60454.44672250656 0 0 0 0 0 81963802.05035505 -10511156.37269974 -10511156.37269974 -179509.7989460418 0 0 0 0 0 83053072.90288861 -10633561.71502295 -10633561.71502295 -427194.9726984532 0 0 0 0 0 83713513.60839105 -10609509.90903894 -10609509.90903894 -581055.4621876088 0 0 0 0 0 84299758.04970412 -10701730.33556519 -10701730.33556519 -779188.3778663158 0 0 0 0 0 82900509.32132745 -10749702.18693406 -10749702.18693406 -796248.1192617649 0 0 0 0 0 84354717.03042361 -10677031.80227167 -10677031.80227167 -1000978.01873528 0 0 0 0 0 85106291.63415031 -10819963.67109172 -10819963.67109172 -1256854.067424206 0 0 0 0 0 71281186.75266044 -6605964.685652945 -6605964.685652945 2886904.883861325 0 0 0 0 0 64745362.62263117 -404761.9252293512 -404761.9252293512 4097317.767981638 0 0 0 0 0 66100662.09720612 -1346757.883720718 -1346757.883720718 4321220.767591272 0 0 0 0 0 65638384.14120249 -1607703.725436855 -1607703.725436855 3935357.561222842 0 0 0 0 0 66109923.57650451 -2388341.421405743 -2388341.421405743 3856960.863055245 0 0 0 0 0 66579624.61446594 -3193331.801851622 -3193331.801851622 3766265.484532698 0 0 0 0 0 67098850.88065659 -3972362.353724552 -3972362.353724552 3645025.904305874 0 0 0 0 0 67671631.61253664 -4721756.894013656 -4721756.894013656 3502652.874249895 0 0 0 0 0 68298983.8958775 -5436322.780207104 -5436322.780207104 3345505.105088611 0 0 0 0 0 69584629.49771583 -6085339.324986877 -6085339.324986877 3287634.53362192 0 0 0 0 0 69823360.75028141 -6060370.335677295 -6060370.335677295 3131022.503841618 0 0 0 0 0 70486671.69256003 -6669055.210596275 -6669055.210596275 2926237.378995768 0 0 0 0 0 72372730.44599669 -7112802.920464878 -7112802.920464878 2748647.139710862 0 0 0 0 0 73031578.56899306 -7615419.067453918 -7615419.067453918 2516642.32803106 0 0 0 0 0 74423922.13331497 -7994597.998742419 -7994597.998742419 2234708.072274856 0 0 0 0 0 73363743.39658946 -7552071.071207557 -7552071.071207557 2419930.056971399 0 0 0 0 0 75097135.48394924 -8446083.721432945 -8446083.721432945 1971036.779665221 0 0 0 0 0 75788144.45596051 -8864146.532456685 -8864146.532456685 1698691.113554885 0 0 0 0 0 76499116.04133387 -9251449.772296933 -9251449.772296933 1420176.474583479 0 0 0 0 0 77221488.0005566 -9607936.533359488 -9607936.533359488 1137879.441064115 0 0 0 0 0 78505744.2808473 -9738967.519146901 -9738967.519146901 846311.4596625447 0 0 0 0 0 77681325.91048913 -9480537.751132211 -9480537.751132211 1133173.94556073 0 0 0 0 0 79234075.17926672 -10024840.71477376 -10024840.71477376 567515.4222906207 0 0 0 0 0 79933042.66347083 -10274000.39846422 -10274000.39846422 286071.916963531 0 0 0 0 0 80683975.91454659 -10502602.83992631 -10502602.83992631 7411.640016753659 0 0 0 0 0 81409424.29520427 -10696085.37629668 -10696085.37629668 -268330.2352995766 0 0 0 0 0 82221500.39116307 -10868476.31214928 -10868476.31214928 -528285.5705088031 0 0 0 0 0 82566689.62943725 -10717534.5405916 -10717534.5405916 -586982.4410728763 0 0 0 0 0 83580030.202995 -10837010.96486387 -10837010.96486387 -1043159.340159797 0 0 0 0 0 83474408.37878473 -10833544.88812977 -10833544.88812977 -639862.7117025815 0 0 0 0 0 84808363.2535326 -10949322.01592869 -10949322.01592869 -1234764.924167758 0 0 0 0 0 85445173.52053319 -11074850.42559473 -11074850.42559473 -1535754.613618121 0 0 0 0 0 85756021.73942296 -10952126.82876939 -10952126.82876939 -1542203.307240061 0 0 0 0 0 71633064.94910432 -7206835.191037816 -7206835.191037816 2791283.830694024 0 0 0 0 0 64460225.0141248 -405576.074036224 -405576.074036224 4227300.667098268 0 0 0 0 0 65068638.42424204 -1233464.265934275 -1233464.265934275 4269521.705387096 0 0 0 0 0 64917466.59703449 -1348907.368444603 -1348907.368444603 3967947.72468301 0 0 0 0 0 66231259.01359165 -2279774.748863848 -2279774.748863848 4152806.939283215 0 0 0 0 0 66676505.69617739 -3092323.437694551 -3092323.437694551 4051640.242025033 0 0 0 0 0 67132803.70183168 -3892704.609111607 -3892704.609111607 3915845.465201802 0 0 0 0 0 67637217.72912115 -4666963.334964064 -4666963.334964064 3749665.428163604 0 0 0 0 0 68178855.86509553 -5410685.023224713 -5410685.023224713 3557469.236756115 0 0 0 0 0 68756853.53346214 -6113545.176711356 -6113545.176711356 3345373.345534983 0 0 0 0 0 68970256.14134783 -6102130.352254022 -6102130.352254022 3169211.252509798 0 0 0 0 0 70208821.52437396 -6706330.127779524 -6706330.127779524 3072381.841736441 0 0 0 0 0 70877497.25368933 -7299791.154491206 -7299791.154491206 2837562.164501396 0 0 0 0 0 71971241.24427187 -7141796.836231724 -7141796.836231724 2691333.771604987 0 0 0 0 0 72670197.74260475 -7652505.994003616 -7652505.994003616 2464231.929473955 0 0 0 0 0 74069182.72243375 -8037085.159315463 -8037085.159315463 2179032.972564045 0 0 0 0 0 73732055.85991827 -8106215.632692579 -8106215.632692579 2272419.201538467 0 0 0 0 0 74801247.290705 -8491138.08427061 -8491138.08427061 1931062.971655864 0 0 0 0 0 75552480.12720712 -8911950.093084706 -8911950.093084706 1675034.92740338 0 0 0 0 0 76317830.14870231 -9300782.415884644 -9300782.415884644 1410523.792960316 0 0 0 0 0 77094591.26888436 -9657547.451748095 -9657547.451748095 1141402.496374536 0 0 0 0 0 78441144.76830493 -9790249.737545807 -9790249.737545807 865860.858652233 0 0 0 0 0 77951975.89687203 -9930899.119588787 -9930899.119588787 851510.5731965628 0 0 0 0 0 79205680.56528771 -10073353.64690781 -10073353.64690781 593909.5682038977 0 0 0 0 0 79971217.2360439 -10326302.90249554 -10326302.90249554 330847.2843399046 0 0 0 0 0 80736043.29339178 -10550251.52381527 -10550251.52381527 52303.54005807402 0 0 0 0 0 81504485.45239522 -10744119.73482266 -10744119.73482266 -212909.0893174013 0 0 0 0 0 82259650.74503453 -10919289.39152235 -10919289.39152235 -484437.1880958409 0 0 0 0 0 82888800.73228937 -11013173.91492583 -11013173.91492583 -830231.8600629617 0 0 0 0 0 84189352.10191974 -10909178.59071354 -10909178.59071354 -914979.2177039321 0 0 0 0 0 83438414.91370577 -11093592.18396768 -11093592.18396768 -1110152.956124416 0 0 0 0 0 84782530.42780231 -11000777.5641183 -11000777.5641183 -1236977.866795711 0 0 0 0 0 85473988.45383072 -11138227.47376445 -11138227.47376445 -1513931.434237633 0 0 0 0 0 86149642.85556304 -11186824.14703739 -11186824.14703739 -1794422.540958807 0 0 0 0 0 86492194.68273427 -11061759.3416054 -11061759.3416054 -1799050.535653564 0 0 0 0 0 87085583.76878645 -11163433.15938802 -11163433.15938802 -2094744.825222146 0 0 0 0 0 71201304.39392227 -7239896.35013606 -7239896.35013606 2720732.528200568 0 0 0 0 0 63782605.84193943 -352017.1084872975 -352017.1084872975 4086160.902140219 0 0 0 0 0 63899155.39271235 -1249959.538568949 -1249959.538568949 3957357.630090234 0 0 0 0 0 65376139.49078224 -2121425.365795997 -2121425.365795997 4205038.312811225 0 0 0 0 0 65223300.10005275 -2247015.021722338 -2247015.021722338 3889692.414830148 0 0 0 0 0 65661040.93633165 -3070524.614110129 -3070524.614110129 3794410.587378015 0 0 0 0 0 66180635.93392854 -3883939.064409165 -3883939.064409165 3682625.545419852 0 0 0 0 0 66759339.37425801 -4669150.034697264 -4669150.034697264 3541597.856474305 0 0 0 0 0 67389473.4958417 -5423326.470122808 -5423326.470122808 3377715.96522198 0 0 0 0 0 68066487.73807096 -6128128.240688481 -6128128.240688481 3195811.582916699 0 0 0 0 0 69389185.85428889 -6766278.126569356 -6766278.126569356 3117334.768848208 0 0 0 0 0 69649121.58308287 -6730494.678354916 -6730494.678354916 2965293.095861047 0 0 0 0 0 70374698.0816355 -7326559.366607761 -7326559.366607761 2743420.00960485 0 0 0 0 0 72295731.51198743 -7733874.846860357 -7733874.846860357 2548128.451693924 0 0 0 0 0 72992162.45101383 -8234088.477436459 -8234088.477436459 2293994.491574506 0 0 0 0 0 74428450.94662872 -8576157.297813062 -8576157.297813062 2005541.159909478 0 0 0 0 0 73375525.30303235 -8149274.654487109 -8149274.654487109 2215362.939100712 0 0 0 0 0 75142655.47775424 -9013220.853263155 -9013220.853263155 1726359.912744504 0 0 0 0 0 75874378.89514706 -9416994.563451992 -9416994.563451992 1440585.561706143 0 0 0 0 0 76620561.91030307 -9787957.233586822 -9787957.233586822 1149712.797730953 0 0 0 0 0 77378028.51077804 -10126314.78936576 -10126314.78936576 855446.9137770984 0 0 0 0 0 78694596.01537043 -10224337.71401696 -10224337.71401696 562764.5102689683 0 0 0 0 0 77879752.8885372 -9982340.864245638 -9982340.864245638 869309.8233792107 0 0 0 0 0 79440999.72261608 -10489117.16232495 -10489117.16232495 274676.0978924245 0 0 0 0 0 80186049.40525228 -10721297.82814616 -10721297.82814616 -14128.23327202907 0 0 0 0 0 80935351.09460624 -10926290.98196778 -10926290.98196778 -300891.8681585064 0 0 0 0 0 81689058.08485937 -11105231.62234733 -11105231.62234733 -583950.7073681633 0 0 0 0 0 82421971.48618557 -11253298.50849335 -11253298.50849335 -862688.9065808015 0 0 0 0 0 83002116.52682818 -11066322.84305907 -11066322.84305907 -769492.9866111783 0 0 0 0 0 84216659.37590648 -11211706.07441266 -11211706.07441266 -1316471.073755244 0 0 0 0 0 83788500.49768764 -11168947.79373477 -11168947.79373477 -974103.4646282871 0 0 0 0 0 85006655.10118189 -11317557.65795987 -11317557.65795987 -1582307.877367964 0 0 0 0 0 85706116.87620911 -11387147.46664101 -11387147.46664101 -1832687.264105686 0 0 0 0 0 85991655.29952046 -11270660.60564062 -11270660.60564062 -1847147.81815414 0 0 0 0 0 86822497.01295701 -11321158.57761566 -11321158.57761566 -2049726.999382742 0 0 0 0 0 87454821.63789299 -11398650.6927269 -11398650.6927269 -2356008.21555089 0 0 0 0 0 87732109.04360285 -11227429.8005256 -11227429.8005256 -2369166.238291434 0 0 0 0 0 71538738.10116594 -7852982.298042559 -7852982.298042559 2579464.887652079 0 0 0 0 0 63441513.75099415 -396189.0545711869 -396189.0545711869 4089213.117546947 0 0 0 0 0 64172867.69841599 -1064825.681809009 -1064825.681809009 4383418.308511306 0 0 0 0 0 64550006.12450178 -1917836.130519 -1917836.130519 4273005.038022536 0 0 0 0 0 64236247.79617016 -2093405.156954173 -2093405.156954173 3932891.395955074 0 0 0 0 0 65770033.18876005 -2959340.114801213 -2959340.114801213 4105056.266731503 0 0 0 0 0 66233204.71808937 -3795036.51527631 -3795036.51527631 3969112.587426825 0 0 0 0 0 66744055.76333712 -4604934.480854386 -4604934.480854386 3805991.08686264 0 0 0 0 0 67307860.32820614 -5384184.140610927 -5384184.140610927 3616830.126028025 0 0 0 0 0 67914679.64955464 -6121629.448018615 -6121629.448018615 3403874.69068877 0 0 0 0 0 68542925.7508764 -6807957.628594292 -6807957.628594292 3165504.281384242 0 0 0 0 0 68791267.96024619 -6779286.1910603 -6779286.1910603 2999811.365505234 0 0 0 0 0 70077429.76375696 -7373430.628667728 -7373430.628667728 2880026.203718371 0 0 0 0 0 70790885.33958922 -7959550.188163078 -7959550.188163078 2628794.594098395 0 0 0 0 0 71924301.22842117 -7771816.650021551 -7771816.650021551 2495996.44981904 0 0 0 0 0 72661988.77938777 -8275019.012187658 -8275019.012187658 2251349.698037526 0 0 0 0 0 74115781.74242853 -8621604.61715311 -8621604.61715311 1961646.154247328 0 0 0 0 0 73728960.46765721 -8711171.96238959 -8711171.96238959 2036076.513363913 0 0 0 0 0 74891187.96510787 -9060746.966009358 -9060746.966009358 1698711.463572592 0 0 0 0 0 75681825.33029565 -9466461.858433854 -9466461.858433854 1428326.008532112 0 0 0 0 0 76485172.19532649 -9838581.864028208 -9838581.864028208 1151883.57892734 0 0 0 0 0 77297428.1274932 -10177620.05151223 -10177620.05151223 871156.8089028657 0 0 0 0 0 78670313.40837282 -10276090.31677707 -10276090.31677707 592272.0903733094 0 0 0 0 0 78143497.04527676 -10432141.06749078 -10432141.06749078 558837.9777559707 0 0 0 0 0 79463749.49603561 -10539538.6725717 -10539538.6725717 314515.4354439634 0 0 0 0 0 80256597.6181374 -10773136.4785291 -10773136.4785291 38032.29931024486 0 0 0 0 0 81049208.52745105 -10975667.95060632 -10975667.95060632 -240067.3120327856 0 0 0 0 0 81835910.55931391 -11153071.14110291 -11153071.14110291 -516249.537721424 0 0 0 0 0 82617158.98510045 -11299441.40454194 -11299441.40454194 -784616.3289226419 0 0 0 0 0 83167018.45225269 -11379009.97367592 -11379009.97367592 -1137322.893051392 0 0 0 0 0 84524713.30012563 -11247899.9642068 -11247899.9642068 -1218396.522281039 0 0 0 0 0 83900459.50781746 -11473482.22488863 -11473482.22488863 -1394497.055441015 0 0 0 0 0 85234470.85156146 -11332356.50223984 -11332356.50223984 -1513801.552897537 0 0 0 0 0 85987364.09938823 -11410497.63680107 -11410497.63680107 -1746943.877749375 0 0 0 0 0 86586553.24054568 -11455213.99079056 -11455213.99079056 -1941077.361494506 0 0 0 0 0 86610008.81934133 -11376419.23590005 -11376419.23590005 -2130365.587892009 0 0 0 0 0 87354256.30281475 -11428672.46567825 -11428672.46567825 -2383594.237224413 0 0 0 0 0 88132079.63946846 -11445915.90662316 -11445915.90662316 -2620582.149597872 0 0 0 0 0 71153148.66349745 -7887636.704905679 -7887636.704905679 2521779.984543827 0 0 0 0 0 63423639.82713287 -478774.4758450984 -478774.4758450984 4300241.424100944 0 0 0 0 0 62752633.06201825 -1065182.215056082 -1065182.215056082 3975773.199497414 0 0 0 0 0 63164482.75728565 -1848536.937393077 -1848536.937393077 3882424.740866502 0 0 0 0 0 64833594.33063029 -2827473.927261412 -2827473.927261412 4144266.286608174 0 0 0 0 0 64698029.60585696 -2942619.651879505 -2942619.651879505 3841131.299245517 0 0 0 0 0 65228149.22927637 -3783548.661595085 -3783548.661595085 3722003.340807477 0 0 0 0 0 65815377.45936655 -4602206.802487663 -4602206.802487663 3582469.459660607 0 0 0 0 0 66456721.36588897 -5389877.328845441 -5389877.328845441 3417534.400762142 0 0 0 0 0 67148401.64380634 -6133908.193457642 -6133908.193457642 3230374.117043667 0 0 0 0 0 67894991.66795082 -6821751.32133851 -6821751.32133851 3035364.589091879 0 0 0 0 0 69231717.93652341 -7445642.736604864 -7445642.736604864 2923644.95254889 0 0 0 0 0 69535813.66825895 -7397654.961561545 -7397654.961561545 2780291.135561919 0 0 0 0 0 70298150.78748789 -7993883.460983947 -7993883.460983947 2535745.078042607 0 0 0 0 0 72257729.82917377 -8371975.21375904 -8371975.21375904 2325440.638469574 0 0 0 0 0 72993319.5535896 -8857592.370589107 -8857592.370589107 2054703.088343019 0 0 0 0 0 74470972.64186737 -9164254.637705348 -9164254.637705348 1752232.740428482 0 0 0 0 0 73403653.03610376 -8753696.833142029 -8753696.833142029 1987300.369396697 0 0 0 0 0 75226637.762968 -9585746.030512497 -9585746.030512497 1459506.161032651 0 0 0 0 0 75997464.42534786 -9972595.228109596 -9972595.228109596 1160926.318238773 0 0 0 0 0 76780355.13750771 -10325580.22562233 -10325580.22562233 858244.382173006 0 0 0 0 0 77572457.06061369 -10644882.37209303 -10644882.37209303 553135.2339425387 0 0 0 0 0 78915242.25250891 -10706754.7462798 -10706754.7462798 261563.4724021289 0 0 0 0 0 78115583.1775188 -10484042.95578157 -10484042.95578157 587526.4340287666 0 0 0 0 0 79689658.80555652 -10950619.32355592 -10950619.32355592 -34720.0070855654 0 0 0 0 0 80463013.55845781 -11163105.8752681 -11163105.8752681 -329708.955571891 0 0 0 0 0 81239520.07557449 -11347548.66770132 -11347548.66770132 -621237.0244705142 0 0 0 0 0 82006542.18231988 -11502690.19050442 -11502690.19050442 -908124.6250276718 0 0 0 0 0 82768610.9011734 -11627941.66953877 -11627941.66953877 -1190715.307718947 0 0 0 0 0 83397212.26951762 -11417251.43232162 -11417251.43232162 -1056309.306984413 0 0 0 0 0 84625413.86156134 -11548573.78868988 -11548573.78868988 -1656794.996314018 0 0 0 0 0 84170385.86823431 -11513225.57804777 -11513225.57804777 -1302869.806629202 0 0 0 0 0 85340264.36077137 -11612029.36969845 -11612029.36969845 -1917619.711035845 0 0 0 0 0 85936996.03555426 -11597525.4216019 -11597525.4216019 -2184090.693044088 0 0 0 0 0 87064068.83820848 -11608714.574467 -11608714.574467 -2360664.112054796 0 0 0 0 0 87720485.17684695 -11650937.06169612 -11650937.06169612 -2641921.193834652 0 0 0 0 0 88438415.80719967 -11266734.87184664 -11266734.87184664 -2619056.382689319 0 0 0 0 0 88033575.07832538 -11488278.87267338 -11488278.87267338 -2651673.322952081 0 0 0 0 0 71496283.07789908 -8514146.08700214 -8514146.08700214 2352120.700974382 0 0 0 0 0 62509106.08336546 -500973.4295714581 -500973.4295714581 4133776.93597499 0 0 0 0 0 63554104.36723981 -1626960.979133472 -1626960.979133472 4319118.137426014 0 0 0 0 0 63877670.74202568 -2657915.276684686 -2657915.276684686 4187270.93974598 0 0 0 0 0 63709725.74202746 -2790181.989641355 -2790181.989641355 3853779.98010191 0 0 0 0 0 65296945.54019015 -3688428.170390171 -3688428.170390171 4016149.686808761 0 0 0 0 0 65814208.70600978 -4531784.561009337 -4531784.561009337 3855668.684666547 0 0 0 0 0 66386554.13287596 -5344592.097894606 -5344592.097894606 3668356.830363508 0 0 0 0 0 67007933.86968795 -6118992.352147241 -6118992.352147241 3455894.911894742 0 0 0 0 0 67655372.51027797 -6845295.313610727 -6845295.313610727 3211855.053838476 0 0 0 0 0 68355132.03432438 -7515567.609164816 -7515567.609164816 2960319.10166958 0 0 0 0 0 68661525.70735642 -7465296.933042984 -7465296.933042984 2815887.704067274 0 0 0 0 0 69976549.75660259 -8052916.354136413 -8052916.354136413 2668570.478844383 0 0 0 0 0 70740713.87737232 -8636427.421225417 -8636427.421225417 2391927.371426968 0 0 0 0 0 71908606.09731843 -8410145.915311338 -8410145.915311338 2273045.609726142 0 0 0 0 0 72706402.37005486 -8897774.35873414 -8897774.35873414 2023314.013229343 0 0 0 0 0 74203746.35669357 -9210370.140955755 -9210370.140955755 1719836.179957415 0 0 0 0 0 73772862.2074278 -9315781.578373114 -9315781.578373114 1777322.23353941 0 0 0 0 0 75022171.65097161 -9634718.095114918 -9634718.095114918 1444048.063147925 0 0 0 0 0 75852416.79877886 -10023423.0615212 -10023423.0615212 1160921.944080549 0 0 0 0 0 76692757.5421831 -10377269.36207223 -10377269.36207223 872536.8759274638 0 0 0 0 0 77540023.15409003 -10696906.18789773 -10696906.18789773 580831.0868254844 0 0 0 0 0 78937108.92127061 -10758314.58627218 -10758314.58627218 301946.2250283094 0 0 0 0 0 78370520.88032033 -10930972.52951903 -10930972.52951903 247158.2211586374 0 0 0 0 0 79759039.42448679 -11001265.82801804 -11001265.82801804 16355.99567430869 0 0 0 0 0 80579820.15679628 -11213102.25247445 -11213102.25247445 -267758.128075167 0 0 0 0 0 81395714.92059495 -11395572.21882246 -11395572.21882246 -551211.9480049112 0 0 0 0 0 82206630.58616814 -11548294.3147567 -11548294.3147567 -829256.2901091992 0 0 0 0 0 83012027.24863639 -11671618.05636203 -11671618.05636203 -1102842.038651763 0 0 0 0 0 83538353.76866351 -11732204.98491797 -11732204.98491797 -1465443.114298999 0 0 0 0 0 84927187.05452946 -11587093.59407684 -11587093.59407684 -1558132.539524672 0 0 0 0 0 84292675.85692258 -11808927.50448067 -11808927.50448067 -1736009.308452342 0 0 0 0 0 85670007.05222426 -11638436.91663361 -11638436.91663361 -1822226.188008662 0 0 0 0 0 86436684.15504897 -11643255.83046754 -11643255.83046754 -2076088.410323612 0 0 0 0 0 87063931.07761881 -11653011.19978944 -11653011.19978944 -2354745.172361322 0 0 0 0 0 87759462.52377959 -11700725.58324865 -11700725.58324865 -2620098.221208477 0 0 0 0 0 88803745.22546685 -11494712.18916943 -11494712.18916943 -2903556.379809517 0 0 0 0 0 88477117.29957269 -11697083.35466868 -11697083.35466868 -2868283.240808659 0 0 0 0 0 89165569.50513411 -11284359.13267507 -11284359.13267507 -2854913.230074702 0 0 0 0 0 89844128.17803738 -11286851.55155672 -11286851.55155672 -3096471.865249711 0 0 0 0 0 71122454.48888154 -8552784.628271803 -8552784.628271803 2290302.669964278 0 0 0 0 0 62011900.07453699 -499815.165635329 -499815.165635329 4169995.473058621 0 0 0 0 0 62202908.7067652 -1615311.65905401 -1615311.65905401 3963315.105260058 0 0 0 0 0 62691213.56892066 -2625599.364042109 -2625599.364042109 3886908.642394748 0 0 0 0 0 64333564.01344346 -3566255.820079465 -3566255.820079465 4060927.843548902 0 0 0 0 0 64243391.10942523 -3671219.866472835 -3671219.866472835 3752957.265701833 0 0 0 0 0 64837573.93880581 -4524932.953281706 -4524932.953281706 3617874.710685524 0 0 0 0 0 65489340.15897111 -5346304.906206469 -5346304.906206469 3455319.888871836 0 0 0 0 0 66196749.01990425 -6129060.380614695 -6129060.380614695 3267295.08391472 0 0 0 0 0 66979016.96786688 -6859631.621411416 -6859631.621411416 3070413.838170303 0 0 0 0 0 67781658.32428591 -7533423.67706833 -7533423.67706833 2853415.136996502 0 0 0 0 0 69116689.91376284 -8143000.34373749 -8143000.34373749 2698550.799189942 0 0 0 0 0 69459925.42839283 -8081324.83413158 -8081324.83413158 2570220.213559076 0 0 0 0 0 70282128.68150799 -8675451.911358211 -8675451.911358211 2307159.171727887 0 0 0 0 0 72229733.01163445 -9018504.855389629 -9018504.855389629 2064966.906059196 0 0 0 0 0 73021002.13398297 -9483405.484781405 -9483405.484781405 1783178.388715641 0 0 0 0 0 74554307.10964552 -9756650.679216221 -9756650.679216221 1477821.169197995 0 0 0 0 0 73499501.93527047 -9364524.607931165 -9364524.607931165 1745258.075007503 0 0 0 0 0 75350224.82248718 -10161075.93963809 -10161075.93963809 1170803.550881674 0 0 0 0 0 76159916.49812764 -10529623.47790944 -10529623.47790944 859591.9411086598 0 0 0 0 0 76979452.08120914 -10862763.66381756 -10862763.66381756 545849.2860140174 0 0 0 0 0 77805563.19548331 -11161244.09114699 -11161244.09114699 230733.4196470896 0 0 0 0 0 79172289.99214821 -11184745.23746043 -11184745.23746043 -58132.64570359277 0 0 0 0 0 78390948.28495918 -10982869.06409306 -10982869.06409306 287396.1311505217 0 0 0 0 0 79974721.51921599 -11406742.12964847 -11406742.12964847 -361548.6479467202 0 0 0 0 0 80775943.14382099 -11597842.76827253 -11597842.76827253 -661979.5034084496 0 0 0 0 0 81573294.47847076 -11758958.93153364 -11758958.93153364 -957933.1040896469 0 0 0 0 0 82364696.12715176 -11890471.22724399 -11890471.22724399 -1248889.839031019 0 0 0 0 0 83153982.51935115 -11994954.63797801 -11994954.63797801 -1534495.725554794 0 0 0 0 0 83810688.61250956 -11769861.8103033 -11769861.8103033 -1374760.733717578 0 0 0 0 0 85030291.53037389 -11859441.73834151 -11859441.73834151 -2005125.175699972 0 0 0 0 0 84595832.62105373 -11847002.3919709 -11847002.3919709 -1637678.845463561 0 0 0 0 0 85751944.76611391 -11884390.38897509 -11884390.38897509 -2266506.30966043 0 0 0 0 0 86510015.70220652 -11900863.02539673 -11900863.02539673 -2472506.405972596 0 0 0 0 0 87275209.92037781 -11912448.61081841 -11912448.61081841 -2724843.092509622 0 0 0 0 0 88011695.38351512 -11905920.52844265 -11905920.52844265 -2956024.347336897 0 0 0 0 0 88704000.60853304 -11546793.39724744 -11546793.39724744 -2949650.649499575 0 0 0 0 0 88273252.11485621 -11752829.00874839 -11752829.00874839 -2940816.248597267 0 0 0 0 0 89356666.5826906 -11523129.040058 -11523129.040058 -3249493.269149982 0 0 0 0 0 90065407.57046677 -11485604.49396253 -11485604.49396253 -3454242.686294406 0 0 0 0 0 90468867.01047368 -11270656.5355045 -11270656.5355045 -3344288.833785582 0 0 0 0 0 71474047.91225688 -9177808.99051372 -9177808.99051372 2084947.512541586 0 0 0 0 0 61472354.62181466 -500186.9148736414 -500186.9148736414 4180530.806441396 0 0 0 0 0 62209678.83343272 -1522164.920691542 -1522164.920691542 4228684.004072498 0 0 0 0 0 62901172.69689533 -2481427.032948579 -2481427.032948579 4214244.651632336 0 0 0 0 0 63340763.34179381 -3430907.439906668 -3430907.439906668 4101540.826475694 0 0 0 0 0 63222619.09231563 -3546303.921104462 -3546303.921104462 3782040.133655066 0 0 0 0 0 64853634.4493131 -4446777.179009118 -4446777.179009118 3902351.843513144 0 0 0 0 0 65431821.97618746 -5295340.926637775 -5295340.926637775 3714402.899489045 0 0 0 0 0 66064165.19005677 -6106608.431340385 -6106608.431340385 3498689.807689676 0 0 0 0 0 66736058.64269283 -6877679.759306697 -6877679.759306697 3258047.172853736 0 0 0 0 0 67432825.53605352 -7596594.34497925 -7596594.34497925 2988133.13121221 0 0 0 0 0 68197228.11092989 -8256734.695813111 -8256734.695813111 2719324.65969359 0 0 0 0 0 68601337.09197606 -8173685.468781918 -8173685.468781918 2607000.997046626 0 0 0 0 0 69907241.99744925 -8750396.029635949 -8750396.029635949 2423128.072369476 0 0 0 0 0 70716944.48894405 -9329541.692003777 -9329541.692003777 2120310.362587677 0 0 0 0 0 71959301.0718454 -9057342.444916537 -9057342.444916537 2042059.248564245 0 0 0 0 0 72798472.91287953 -9528770.278738149 -9528770.278738149 1767769.028138334 0 0 0 0 0 74335684.18431431 -9805996.93388856 -9805996.93388856 1459193.117022438 0 0 0 0 0 73854747.58525153 -9931898.177471731 -9931898.177471731 1491837.157700756 0 0 0 0 0 75194963.43938805 -10211989.0188187 -10211989.0188187 1168407.988491882 0 0 0 0 0 76064749.25264381 -10581495.76207296 -10581495.76207296 872203.3636642128 0 0 0 0 0 76941617.63400786 -10914951.63012723 -10914951.63012723 572339.4640208139 0 0 0 0 0 77824054.0916916 -11213279.56197117 -11213279.56197117 270603.0685066794 0 0 0 0 0 79242655.49155292 -11235867.90975431 -11235867.90975431 -6506.459974172976 0 0 0 0 0 78635726.6822806 -11425650.25981972 -11425650.25981972 -83690.75538229018 0 0 0 0 0 80092791.86428221 -11456686.71281409 -11456686.71281409 -299349.5064606618 0 0 0 0 0 80939198.69009112 -11646191.42151976 -11646191.42151976 -590047.5515089654 0 0 0 0 0 81779752.00441411 -11805069.56591403 -11805069.56591403 -877215.5320189547 0 0 0 0 0 82613641.76879106 -11934233.10215046 -11934233.10215046 -1159638.690328985 0 0 0 0 0 83438914.95935893 -12036197.09735785 -12036197.09735785 -1438365.24033843 0 0 0 0 0 83938902.33094548 -12076145.38114489 -12076145.38114489 -1812622.435079133 0 0 0 0 0 85363105.67642269 -11900317.4602454 -11900317.4602454 -1897806.184777707 0 0 0 0 0 84706800.70673877 -12132033.3059487 -12132033.3059487 -2082651.977558205 0 0 0 0 0 86117790.62071818 -11926056.29660386 -11926056.29660386 -2150768.149880507 0 0 0 0 0 86869797.40841275 -11921688.80546591 -11921688.80546591 -2375018.841563622 0 0 0 0 0 87575837.6371167 -11915869.73784043 -11915869.73784043 -2642051.008071936 0 0 0 0 0 88291665.95100038 -11916764.11199831 -11916764.11199831 -2874645.671000591 0 0 0 0 0 89263041.59484635 -11713266.33471878 -11713266.33471878 -3095412.540881176 0 0 0 0 0 88832304.97222687 -11908360.82159345 -11908360.82159345 -3060524.747749387 0 0 0 0 0 89774758.30136165 -11515032.96110212 -11515032.96110212 -3138984.025039788 0 0 0 0 0 90295125.82202768 -11474792.06492606 -11474792.06492606 -3385109.165132758 0 0 0 0 0 90727702.46604551 -11453134.01711436 -11453134.01711436 -3659870.222104305 0 0 0 0 0 91078124.21523388 -11239933.08327399 -11239933.08327399 -3585939.353465626 0 0 0 0 0 91703279.39143291 -11185453.62864065 -11185453.62864065 -3811174.089998442 0 0 0 0 0 71173453.48020646 -9220567.499202985 -9220567.499202985 2049605.809540435 0 0 0 0 0 60846088.53959461 -485693.159008927 -485693.159008927 4134587.70443568 0 0 0 0 0 61236998.37626957 -1472099.396655613 -1472099.396655613 4037592.91955307 0 0 0 0 0 61645337.60694411 -2440050.890864069 -2440050.890864069 3899638.248927569 0 0 0 0 0 62169201.34859244 -3409612.367920425 -3409612.367920425 3810469.632665345 0 0 0 0 0 63857273.48417857 -4350269.404739957 -4350269.404739957 3946237.652545063 0 0 0 0 0 63822607.85875302 -4436795.904021925 -4436795.904021925 3649358.731902621 0 0 0 0 0 64486136.21364164 -5295013.686450909 -5295013.686450909 3488363.83164035 0 0 0 0 0 65207426.6645337 -6115814.567306526 -6115814.567306526 3300175.337945772 0 0 0 0 0 65982120.43989923 -6896530.090594164 -6896530.090594164 3089356.104737984 0 0 0 0 0 66836762.39038241 -7616464.746164719 -7616464.746164719 2871370.557140802 0 0 0 0 0 67687972.82419831 -8285080.398727299 -8285080.398727299 2629727.830857586 0 0 0 0 0 69019109.59142505 -8879745.263153875 -8879745.263153875 2435985.389468081 0 0 0 0 0 69434290.02617747 -8789565.883784417 -8789565.883784417 2336009.142075716 0 0 0 0 0 70316009.47564976 -9372425.088609079 -9372425.088609079 2052177.981631452 0 0 0 0 0 72273503.55316272 -9667893.373899393 -9667893.373899393 1790830.304749883 0 0 0 0 0 73105984.93123646 -10124565.87528577 -10124565.87528577 1487522.415756738 0 0 0 0 0 74678834.12397714 -10353258.08544701 -10353258.08544701 1179855.189267941 0 0 0 0 0 73639544.97328153 -9981243.741160963 -9981243.741160963 1472747.410745992 0 0 0 0 0 75515572.47364818 -10738411.9949581 -10738411.9949581 859385.7556115424 0 0 0 0 0 76363647.14205097 -11086066.87994586 -11086066.87994586 536488.6015294365 0 0 0 0 0 77219472.8835582 -11397372.1662014 -11397372.1662014 212441.1136042481 0 0 0 0 0 78079137.07206112 -11673311.10776988 -11673311.10776988 -111689.7067530317 0 0 0 0 0 79467140.06396513 -11656868.1860531 -11656868.1860531 -396195.4267946999 0 0 0 0 0 78706999.84156509 -11477009.53087082 -11477009.53087082 -31695.8849851986 0 0 0 0 0 80297734.83679934 -11855804.62753942 -11855804.62753942 -705593.317434512 0 0 0 0 0 81123958.55826153 -12023230.87288864 -12023230.87288864 -1010752.502879426 0 0 0 0 0 81945261.38193154 -12160356.07017257 -12160356.07017257 -1310666.893241746 0 0 0 0 0 82761186.68666834 -12268891.74008316 -12268891.74008316 -1604614.92409923 0 0 0 0 0 83570053.37115283 -12351125.32025257 -12351125.32025257 -1891499.016980164 0 0 0 0 0 84252095.59429657 -12113795.14970759 -12113795.14970759 -1712183.708296203 0 0 0 0 0 85456840.7270285 -12161658.96417369 -12161658.96417369 -2343860.363166378 0 0 0 0 0 85049638.85617675 -12167126.71115374 -12167126.71115374 -1976890.502167288 0 0 0 0 0 86198148.51829097 -12168244.74008692 -12168244.74008692 -2595579.189200684 0 0 0 0 0 86937488.33684683 -12154417.43894724 -12154417.43894724 -2833186.191406717 0 0 0 0 0 87663780.68193762 -12139551.89812344 -12139551.89812344 -3068299.367829493 0 0 0 0 0 88247383.33598155 -12058309.49789518 -12058309.49789518 -3301325.311524149 0 0 0 0 0 89171314.75161111 -11716822.22995742 -11716822.22995742 -3410121.393511789 0 0 0 0 0 88851287.34558401 -11802509.91939067 -11802509.91939067 -3255789.304676705 0 0 0 0 0 89712089.77541548 -11729859.39663048 -11729859.39663048 -3643451.74291922 0 0 0 0 0 90472707.88266475 -11681559.969118 -11681559.969118 -3694073.882209648 0 0 0 0 0 90774806.31632863 -11471436.4261249 -11471436.4261249 -3649049.1467212 0 0 0 0 0 91321063.63245295 -11412559.60934891 -11412559.60934891 -3922268.874844996 0 0 0 0 0 91930278.66624637 -11341232.75424847 -11341232.75424847 -4147497.468307097 0 0 0 0 0 92327591.53372096 -11114607.43048145 -11114607.43048145 -4024267.390300523 0 0 0 0 0 71501588.20153485 -9856233.737666234 -9856233.737666234 1796414.71507317 0 0 0 0 0 60373211.53064344 -490560.084965309 -490560.084965309 4159311.089775675 0 0 0 0 0 61071453.99589274 -1433110.436390338 -1433110.436390338 4206390.572378365 0 0 0 0 0 61702268.45943025 -2340197.382943266 -2340197.382943266 4191357.882197135 0 0 0 0 0 62313096.02543307 -3286597.252434296 -3286597.252434296 4125694.550749772 0 0 0 0 0 62826749.51021006 -4245008.35622178 -4245008.35622178 3979584.851797021 0 0 0 0 0 62770649.25090238 -4338680.304214359 -4338680.304214359 3679698.136662264 0 0 0 0 0 64442241.15397988 -5237269.880807528 -5237269.880807528 3758730.069292883 0 0 0 0 0 65086404.45799851 -6086715.552232862 -6086715.552232862 3542718.67914028 0 0 0 0 0 65785599.91965222 -6896109.186427281 -6896109.186427281 3300543.007543547 0 0 0 0 0 66526658.16278322 -7660507.173696698 -7660507.173696698 3033743.328260391 0 0 0 0 0 67273741.65358336 -8370178.528444781 -8370178.528444781 2744408.377444795 0 0 0 0 0 68113716.73843218 -9018119.036706548 -9018119.036706548 2451796.386106913 0 0 0 0 0 68570581.38418642 -8909947.417727051 -8909947.417727051 2361614.638811599 0 0 0 0 0 69884153.86798638 -9469170.547241861 -9469170.547241861 2144610.365774598 0 0 0 0 0 70745713.93430711 -10033234.91743859 -10033234.91743859 1819519.006038676 0 0 0 0 0 72045544.62879477 -9714974.339216871 -9714974.339216871 1776848.643747844 0 0 0 0 0 72924250.89657387 -10172764.61550934 -10172764.61550934 1483263.39041336 0 0 0 0 0 74511386.84187092 -10404852.95415571 -10404852.95415571 1174967.883495493 0 0 0 0 0 73974564.81721498 -10552718.18782742 -10552718.18782742 1183315.232406754 0 0 0 0 0 75412498.24383417 -10790385.24809085 -10790385.24809085 870183.8881244409 0 0 0 0 0 76321169.14426377 -11138393.1742859 -11138393.1742859 561982.3866724521 0 0 0 0 0 77233907.2975833 -11449638.46138988 -11449638.46138988 251448.3368289499 0 0 0 0 0 78150318.39972281 -11724791.91737478 -11724791.91737478 -59640.03158136126 0 0 0 0 0 79588335.82782839 -11706988.2559008 -11706988.2559008 -333122.253713048 0 0 0 0 0 78940554.43494202 -11914297.80698551 -11914297.80698551 -433816.1803844188 0 0 0 0 0 80465786.63578075 -11904276.88241634 -11904276.88241634 -632448.9036675839 0 0 0 0 0 81337400.2180043 -12069692.24235629 -12069692.24235629 -928132.0238623782 0 0 0 0 0 82201180.81570709 -12204399.03968235 -12204399.03968235 -1219559.650680351 0 0 0 0 0 83055289.33319195 -12310311.23364337 -12310311.23364337 -1506171.199724121 0 0 0 0 0 83897398.61768195 -12389418.19362788 -12389418.19362788 -1787242.642654999 0 0 0 0 0 84367264.43012613 -12408246.46067075 -12408246.46067075 -2169716.701931308 0 0 0 0 0 85831532.12410922 -12193274.13335402 -12193274.13335402 -2232846.416995454 0 0 0 0 0 85147320.01830721 -12438973.94256696 -12438973.94256696 -2438559.724074997 0 0 0 0 0 86603559.79494935 -12194173.58513954 -12194173.58513954 -2481210.312095234 0 0 0 0 0 87358880.00503516 -12176452.78088674 -12176452.78088674 -2717401.839994955 0 0 0 0 0 88086655.27961977 -12146441.45531855 -12146441.45531855 -2959796.256177351 0 0 0 0 0 88820156.23197225 -12086935.69609435 -12086935.69609435 -3195128.594219556 0 0 0 0 0 89722915.44522643 -11733470.66011079 -11733470.66011079 -3299883.472062382 0 0 0 0 0 89201107.61071074 -11982722.71837897 -11982722.71837897 -3482180.027441911 0 0 0 0 0 90368058.17097542 -11715309.71815861 -11715309.71815861 -3463533.821873737 0 0 0 0 0 90271854.70855908 -11737254.81771732 -11737254.81771732 -3777348.483100744 0 0 0 0 0 91117870.26017846 -11660942.94986004 -11660942.94986004 -3952874.944409065 0 0 0 0 0 91444557.61004549 -11420685.69329226 -11420685.69329226 -3884837.358893813 0 0 0 0 0 92169641.43088351 -11338917.66631538 -11338917.66631538 -4076874.618243483 0 0 0 0 0 92565251.06371059 -11246092.78254947 -11246092.78254947 -4336742.454350792 0 0 0 0 0 92937314.793056 -11028082.22272525 -11028082.22272525 -4228681.593241862 0 0 0 0 0 93541198.92484118 -10922135.75964574 -10922135.75964574 -4421215.389717144 0 0 0 0 0 71267745.14593798 -9900226.308762133 -9900226.308762133 1778935.446911852 0 0 0 0 0 59797354.02888288 -456338.0469202739 -456338.0469202739 4124771.28172586 0 0 0 0 0 60201406.41142379 -1375020.047901293 -1375020.047901293 4046242.925257696 0 0 0 0 0 60608212.66572181 -2286886.727205019 -2286886.727205019 3934104.823952475 0 0 0 0 0 61073252.59310825 -3252710.825196132 -3252710.825196132 3808212.339359296 0 0 0 0 0 61678008.83596481 -4225163.466448724 -4225163.466448724 3692719.895464024 0 0 0 0 0 63414936.38459685 -5170586.454796415 -5170586.454796415 3796174.311004933 0 0 0 0 0 63444290.93989962 -5234304.700691872 -5234304.700691872 3518455.304189529 0 0 0 0 0 64180234.17138858 -6092383.269101767 -6092383.269101767 3330260.379351469 0 0 0 0 0 64972607.09148012 -6910319.737687211 -6910319.737687211 3116140.21425077 0 0 0 0 0 65816561.08304048 -7684624.909499986 -7684624.909499986 2878943.513706973 0 0 0 0 0 66718900.49783022 -8392646.246200463 -8392646.246200463 2639299.224723384 0 0 0 0 0 67634499.70187172 -9049650.725829663 -9049650.725829663 2367277.164802058 0 0 0 0 0 68980145.03092729 -9625976.597844688 -9625976.597844688 2154200.284210537 0 0 0 0 0 69451697.03130436 -9511067.054195406 -9511067.054195406 2068127.268389757 0 0 0 0 0 70399300.19333921 -10078073.49538967 -10078073.49538967 1766516.194962972 0 0 0 0 0 72364001.56988898 -10331137.86034764 -10331137.86034764 1490304.220329949 0 0 0 0 0 73237603.80230337 -10766127.40728731 -10766127.40728731 1174418.335740944 0 0 0 0 0 74846204.37972839 -10952398.34039921 -10952398.34039921 856233.2760622039 0 0 0 0 0 73801571.52388245 -10601009.09773592 -10601009.09773592 1174785.176846329 0 0 0 0 0 75723887.98340498 -11315141.99592288 -11315141.99592288 524723.1974527265 0 0 0 0 0 76609649.95201632 -11639919.72346742 -11639919.72346742 191304.997653516 0 0 0 0 0 77501816.51385309 -11927551.81848243 -11927551.81848243 -141948.0655677267 0 0 0 0 0 78394589.740447 -12179045.93956948 -12179045.93956948 -474129.638571144 0 0 0 0 0 79801171.1732284 -12121384.78943982 -12121384.78943982 -752586.8487950105 0 0 0 0 0 79064945.09178922 -11964556.18660783 -11964556.18660783 -369886.7943770935 0 0 0 0 0 80658104.60752703 -12295719.55431012 -12295719.55431012 -1067040.623791959 0 0 0 0 0 81509592.47331916 -12438428.67890967 -12438428.67890967 -1376056.926772686 0 0 0 0 0 82354512.01468036 -12551101.17631654 -12551101.17631654 -1678663.703732914 0 0 0 0 0 83191083.51629549 -12635534.62311967 -12635534.62311967 -1973906.470189794 0 0 0 0 0 84016304.2399634 -12693213.28514439 -12693213.28514439 -2260600.760540539 0 0 0 0 0 84724852.77804567 -12442813.71782674 -12442813.71782674 -2060798.556045942 0 0 0 0 0 85914675.15452005 -12444284.58902634 -12444284.58902634 -2699046.36439203 0 0 0 0 0 85535977.24343215 -12470157.87658571 -12470157.87658571 -2324615.258122631 0 0 0 0 0 86672755.58665523 -12429781.21156551 -12429781.21156551 -2951306.302522901 0 0 0 0 0 87410908.10230811 -12394808.61268938 -12394808.61268938 -3196107.279784894 0 0 0 0 0 88107686.00469266 -12335606.71432347 -12335606.71432347 -3439923.987430417 0 0 0 0 0 88817841.92574072 -12265486.39744549 -12265486.39744549 -3620424.358919812 0 0 0 0 0 89768186.79592092 -11911219.36081791 -11911219.36081791 -3682715.010039437 0 0 0 0 0 89467039.24613854 -11998361.82916562 -11998361.82916562 -3400880.01557232 0 0 0 0 0 90847891.4917683 -11828696.30361683 -11828696.30361683 -3875102.696911805 0 0 0 0 0 90912655.82916392 -11698489.07635561 -11698489.07635561 -4025025.620749914 0 0 0 0 0 91670473.97082008 -11588055.65233319 -11588055.65233319 -4259970.112389058 0 0 0 0 0 92304702.51362649 -11467592.0821906 -11467592.0821906 -4441711.34616872 0 0 0 0 0 92738033.612913 -11245811.26225157 -11245811.26225157 -4284907.181344832 0 0 0 0 0 93167457.13133316 -11148975.59061402 -11148975.59061402 -4547322.601317194 0 0 0 0 0 93726082.15520258 -11025447.13944635 -11025447.13944635 -4761737.204335062 0 0 0 0 0 94182831.03266373 -10798088.17072856 -10798088.17072856 -4588299.3037624 0 0 0 0 0 71594606.46794283 -10546114.40403705 -10546114.40403705 1487662.065597993 0 0 0 0 0 59228997.79551344 -497398.0304128029 -497398.0304128029 4101085.455236474 0 0 0 0 0 59891065.80380439 -1393216.757964313 -1393216.757964313 4180458.951143801 0 0 0 0 0 60576093.52859226 -2225775.65546019 -2225775.65546019 4175495.094643422 0 0 0 0 0 61192716.72350306 -3133324.873514257 -3133324.873514257 4139540.431960917 0 0 0 0 0 61763027.43711442 -4120766.285306454 -4120766.285306454 4002777.559482526 0 0 0 0 0 62351717.46437648 -5091700.761306833 -5091700.761306833 3824252.570351264 0 0 0 0 0 62362779.0201834 -5162376.206004906 -5162376.206004906 3539443.502797427 0 0 0 0 0 64070576.97723379 -6057941.653549249 -6057941.653549249 3581703.678991894 0 0 0 0 0 64786039.40399424 -6904640.731762179 -6904640.731762179 3339630.989118484 0 0 0 0 0 65555276.4928926 -7707847.761074098 -7707847.761074098 3071685.269436534 0 0 0 0 0 66365105.03819999 -8462491.872302769 -8462491.872302769 2788256.67285131 0 0 0 0 0 67176551.78769957 -9163021.522830585 -9163021.522830585 2479497.686529583 0 0 0 0 0 68041693.91469301 -9793547.678599043 -9793547.678599043 2145918.68268586 0 0 0 0 0 68567210.9097196 -9656503.714048665 -9656503.714048665 2088997.06728669 0 0 0 0 0 69909029.51298358 -10198188.75600297 -10198188.75600297 1834568.448322651 0 0 0 0 0 70829739.89830136 -10743910.66982177 -10743910.66982177 1495832.435295933 0 0 0 0 0 72171366.65468527 -10376706.80760018 -10376706.80760018 1479065.009492073 0 0 0 0 0 73110697.40020646 -10813427.12338348 -10813427.12338348 1183352.486918307 0 0 0 0 0 74734909.35479112 -11003014.13306857 -11003014.13306857 864090.5301749704 0 0 0 0 0 74150287.02472231 -11169519.05849 -11169519.05849 851660.9360013116 0 0 0 0 0 75676692.04070032 -11367017.04096901 -11367017.04096901 548784.3750682679 0 0 0 0 0 76623921.436711 -11692006.80950825 -11692006.80950825 230193.2623186279 0 0 0 0 0 77572051.28146568 -11979220.74755325 -11979220.74755325 -90031.87472445218 0 0 0 0 0 78521055.70910104 -12229512.15205576 -12229512.15205576 -409589.0612097058 0 0 0 0 0 79974905.39957607 -12170016.15131782 -12170016.15131782 -677979.4613904161 0 0 0 0 0 79286351.595852 -12394947.86269099 -12394947.86269099 -802847.6853575208 0 0 0 0 0 80878707.725117 -12342268.87811736 -12342268.87811736 -982656.9198299199 0 0 0 0 0 81774203.42162156 -12482535.54415111 -12482535.54415111 -1282831.019542326 0 0 0 0 0 82659113.39424139 -12592414.191559 -12592414.191559 -1577788.246179705 0 0 0 0 0 83531438.33384769 -12673701.10582254 -12673701.10582254 -1866627.888644163 0 0 0 0 0 84389071.50938337 -12727775.02767501 -12727775.02767501 -2148036.675575851 0 0 0 0 0 84826641.91095206 -12724714.40242981 -12724714.40242981 -2537797.733182797 0 0 0 0 0 86331073.28963247 -12472603.34731337 -12472603.34731337 -2580379.893396542 0 0 0 0 0 85620547.61270966 -12730462.23223135 -12730462.23223135 -2805262.347407705 0 0 0 0 0 87111355.60928532 -12454521.68595025 -12454521.68595025 -2829707.810863872 0 0 0 0 0 87868176.9622387 -12419407.58723929 -12419407.58723929 -3070427.328618834 0 0 0 0 0 88605298.97190684 -12360473.78781862 -12360473.78781862 -3304102.028609099 0 0 0 0 0 89338013.73578787 -12271733.29532512 -12271733.29532512 -3498002.211087773 0 0 0 0 0 90189766.95523526 -11921255.71017957 -11921255.71017957 -3572512.452596691 0 0 0 0 0 89510392.99948126 -12183675.37872935 -12183675.37872935 -3853555.743034082 0 0 0 0 0 90813561.2739031 -11860226.28867041 -11860226.28867041 -3892378.300846165 0 0 0 0 0 91527284.7429359 -11778155.43843781 -11778155.43843781 -4027480.786325395 0 0 0 0 0 92076329.09987462 -11589454.68347324 -11589454.68347324 -4150946.704709672 0 0 0 0 0 92663522.56672984 -11461698.36550915 -11461698.36550915 -4338700.895859751 0 0 0 0 0 92958744.11127162 -11371219.58454822 -11371219.58454822 -4600104.990556256 0 0 0 0 0 93320314.29605077 -11153203.88641234 -11153203.88641234 -4501889.216316577 0 0 0 0 0 93931288.36145812 -11035052.44010144 -11035052.44010144 -4701026.346628712 0 0 0 0 0 94220402.24575397 -10886106.47500015 -10886106.47500015 -4975486.980690204 0 0 0 0 0 94669918.00703207 -10682850.80796063 -10682850.80796063 -4787208.529899157 0 0 0 0 0 71385059.36791942 -10591917.6495817 -10591917.6495817 1469703.028516404 0 0 0 0 0 58664702.97778209 -489269.9545574716 -489269.9545574716 4133647.909297081 0 0 0 0 0 59143873.80226298 -1317462.489543986 -1317462.489543986 4055658.063332173 0 0 0 0 0 59530636.63212838 -2156012.786957205 -2156012.786957205 3948790.10344348 0 0 0 0 0 59927324.66346189 -3094666.351718077 -3094666.351718077 3816708.618087467 0 0 0 0 0 60538776.03121578 -4091124.764195065 -4091124.764195065 3690426.657832791 0 0 0 0 0 61239059.66513318 -5076069.397876239 -5076069.397876239 3547814.051016537 0 0 0 0 0 63016160.45190504 -6019195.799890844 -6019195.799890844 3612780.958243044 0 0 0 0 0 63113261.08277252 -6059045.074793302 -6059045.074793302 3353882.772217993 0 0 0 0 0 63923846.56546608 -6914289.056088527 -6914289.056088527 3140280.23233091 0 0 0 0 0 64790333.70742446 -7725739.815845946 -7725739.815845946 2901190.406489414 0 0 0 0 0 65687020.54468227 -8487249.613719001 -8487249.613719001 2636861.243469194 0 0 0 0 0 66645555.43781906 -9190376.041072864 -9190376.041072864 2374093.653033468 0 0 0 0 0 67687387.44869745 -9819289.200568363 -9819289.200568363 2102540.398112673 0 0 0 0 0 69012278.69426073 -10370440.35225284 -10370440.35225284 1839559.083912798 0 0 0 0 0 69539975.02609186 -10240188.71738281 -10240188.71738281 1774610.699258689 0 0 0 0 0 70541851.5202215 -10788582.43032217 -10788582.43032217 1456141.244160519 0 0 0 0 0 72472990.87077218 -10997515.60564057 -10997515.60564057 1152076.485270283 0 0 0 0 0 73400282.75082733 -11404736.60952315 -11404736.60952315 823837.6612419273 0 0 0 0 0 75059489.19023834 -11549478.06881231 -11549478.06881231 510501.9724914851 0 0 0 0 0 74042132.61469494 -11222467.68963072 -11222467.68963072 861771.683708112 0 0 0 0 0 75976935.43765172 -11889074.60246104 -11889074.60246104 167317.1979735915 0 0 0 0 0 76899747.8493761 -12189358.64079675 -12189358.64079675 -176190.9369946724 0 0 0 0 0 77827117.77740926 -12451495.54096433 -12451495.54096433 -517700.0782957351 0 0 0 0 0 78752402.75560623 -12676731.83892527 -12676731.83892527 -856512.8979284927 0 0 0 0 0 80175000.9101029 -12576453.55547727 -12576453.55547727 -1126906.394290143 0 0 0 0 0 79465520.26762465 -12443660.21386065 -12443660.21386065 -726887.8400140036 0 0 0 0 0 81058042.86453004 -12724956.50517612 -12724956.50517612 -1445299.223314926 0 0 0 0 0 81933519.93805525 -12841895.57212358 -12841895.57212358 -1756940.878072023 0 0 0 0 0 82799717.93569876 -12928920.54401695 -12928920.54401695 -2060842.928533741 0 0 0 0 0 83654289.10451612 -12987653.45310703 -12987653.45310703 -2355985.51404339 0 0 0 0 0 84494569.35107727 -13019441.0822399 -13019441.0822399 -2641646.64909435 0 0 0 0 0 85230494.49748957 -12755500.50282573 -12755500.50282573 -2420515.136783078 0 0 0 0 0 86402988.0230661 -12713908.26707542 -12713908.26707542 -3063529.723989808 0 0 0 0 0 86054325.16687343 -12757821.25684182 -12757821.25684182 -2683269.282200559 0 0 0 0 0 87168207.1455266 -12677366.01743156 -12677366.01743156 -3311502.996739465 0 0 0 0 0 87907991.92026116 -12618754.5088784 -12618754.5088784 -3547764.596778122 0 0 0 0 0 88632075.42338607 -12539263.47783233 -12539263.47783233 -3772225.882574398 0 0 0 0 0 89346958.06318517 -12439396.50766161 -12439396.50766161 -3982811.652763051 0 0 0 0 0 90297656.53354649 -12089463.4008169 -12089463.4008169 -4037922.582504869 0 0 0 0 0 90040565.68540463 -12174221.48141828 -12174221.48141828 -3727590.356652543 0 0 0 0 0 90898011.08320966 -11968122.27530074 -11968122.27530074 -4287035.528648335 0 0 0 0 0 91436155.44260776 -11807856.77759218 -11807856.77759218 -4389426.592716909 0 0 0 0 0 92072640.49612622 -11686662.89628725 -11686662.89628725 -4575080.952390119 0 0 0 0 0 92693785.23266876 -11575135.02993553 -11575135.02993553 -4758854.149166463 0 0 0 0 0 93089391.35680608 -11362105.44851943 -11362105.44851943 -4559745.053569644 0 0 0 0 0 93541975.98609079 -11266022.5274264 -11266022.5274264 -4809652.646234965 0 0 0 0 0 94290328.98646642 -11133173.45598161 -11133173.45598161 -4984424.234424219 0 0 0 0 0 94757601.00018306 -10866418.1849431 -10866418.1849431 -4885991.602622661 0 0 0 0 0 94901186.47220124 -10728424.18716062 -10728424.18716062 -5039191.595536026 0 0 0 0 0 95219039.40626822 -10535931.46475064 -10535931.46475064 -4952634.257505665 0 0 0 0 0 95807767.09809799 -10376535.45548866 -10376535.45548866 -5091044.640893772 0 0 0 0 0 71716969.35231279 -11229968.32929313 -11229968.32929313 1137572.715408542 0 0 0 0 0 58003925.6400995 -514196.5331002828 -514196.5331002828 4132676.238388483 0 0 0 0 0 58630880.33274052 -1443231.479278132 -1443231.479278132 3983216.19534448 0 0 0 0 0 59541942.76816201 -2080225.07190493 -2080225.07190493 4247200.733187254 0 0 0 0 0 60084045.910806 -2971088.488455203 -2971088.488455203 4144521.605487697 0 0 0 0 0 60630639.82585744 -3981286.815946411 -3981286.815946411 4015439.6245221 0 0 0 0 0 61247085.62175583 -4997486.347672208 -4997486.347672208 3842946.785369613 0 0 0 0 0 61922461.59095398 -5968280.976889783 -5968280.976889783 3635763.603987508 0 0 0 0 0 62004469.06513196 -6014609.70566736 -6014609.70566736 3368095.108104099 0 0 0 0 0 63745610.12936141 -6904407.810408483 -6904407.810408483 3371118.892219862 0 0 0 0 0 64533650.09191488 -7745394.11700976 -7745394.11700976 3102800.273640608 0 0 0 0 0 65373184.72000392 -8536431.052143905 -8536431.052143905 2811126.93225882 0 0 0 0 0 66232432.14594283 -9274282.298644641 -9274282.298644641 2494527.429004763 0 0 0 0 0 67125191.16653065 -9957553.866718998 -9957553.866718998 2161011.944307892 0 0 0 0 0 68036174.48651206 -10578570.43473279 -10578570.43473279 1813266.746531954 0 0 0 0 0 68654996.83525628 -10412854.87136924 -10412854.87136924 1787383.265754853 0 0 0 0 0 69978397.67956397 -10936681.06792066 -10936681.06792066 1490028.0340596 0 0 0 0 0 70955890.03817213 -11457419.31289658 -11457419.31289658 1137604.433112619 0 0 0 0 0 72369255.61920752 -11044099.84252425 -11044099.84252425 1169534.312041834 0 0 0 0 0 73349732.84919114 -11456036.86576902 -11456036.86576902 851325.0897301678 0 0 0 0 0 75009388.46927081 -11601958.0332092 -11601958.0332092 534250.2515231525 0 0 0 0 0 74368054.3727925 -11791728.69408055 -11791728.69408055 491064.3739733279 0 0 0 0 0 75990267.26798616 -11941458.79380269 -11941458.79380269 206179.3541111069 0 0 0 0 0 76974623.01070243 -12240971.42276043 -12240971.42276043 -123137.0816800548 0 0 0 0 0 77956715.7594879 -12502045.51124685 -12502045.51124685 -452377.1425541057 0 0 0 0 0 78936623.77579096 -12725424.94821382 -12725424.94821382 -779371.2617852964 0 0 0 0 0 80403106.92500859 -12623008.8804465 -12623008.8804465 -1040729.228819194 0 0 0 0 0 79673964.74367404 -12865789.99420399 -12865789.99420399 -1190580.345172998 0 0 0 0 0 81331882.33821066 -12768956.72288432 -12768956.72288432 -1349940.617812817 0 0 0 0 0 82249558.93222566 -12882989.93609633 -12882989.93609633 -1653482.700630739 0 0 0 0 0 83153976.29982178 -12966777.49324222 -12966777.49324222 -1950463.730333764 0 0 0 0 0 84043163.11975734 -13021884.12158984 -13021884.12158984 -2239792.505976956 0 0 0 0 0 84915684.02151987 -13049841.74233969 -13049841.74233969 -2520400.575859299 0 0 0 0 0 85317921.7294917 -13025075.44541535 -13025075.44541535 -2916932.891429551 0 0 0 0 0 86859820.52160245 -12737809.60427927 -12737809.60427927 -2938089.930622026 0 0 0 0 0 86125128.12896806 -13006556.20254294 -13006556.20254294 -3181749.009344035 0 0 0 0 0 87645861.22610864 -12697260.94399871 -12697260.94399871 -3183983.623168799 0 0 0 0 0 88411278.32350093 -12634221.76650861 -12634221.76650861 -3416981.813861332 0 0 0 0 0 89160722.01764484 -12548812.70419411 -12548812.70419411 -3640538.543805946 0 0 0 0 0 89889941.84247735 -12446570.7191767 -12446570.7191767 -3848101.082291695 0 0 0 0 0 90706703.84859112 -12091050.44523593 -12091050.44523593 -3926548.027284543 0 0 0 0 0 90060005.77883795 -12340086.96327483 -12340086.96327483 -4185816.126134213 0 0 0 0 0 91369800.35382479 -11983989.64166522 -11983989.64166522 -4166616.491722102 0 0 0 0 0 92033111.5393174 -11818087.2104005 -11818087.2104005 -4258924.765065948 0 0 0 0 0 92630749.39069587 -11676770.07759291 -11676770.07759291 -4449726.403874962 0 0 0 0 0 93196354.8394471 -11541318.57854205 -11541318.57854205 -4615199.930952661 0 0 0 0 0 93423473.31683396 -11490810.97297618 -11490810.97297618 -4804801.710277886 0 0 0 0 0 93677229.65626633 -11257136.2355766 -11257136.2355766 -4768705.872533286 0 0 0 0 0 94348264.61745074 -10993342.69404111 -10993342.69404111 -5086248.730999672 0 0 0 0 0 94312807.30504389 -11129260.11655055 -11129260.11655055 -4977331.02980321 0 0 0 0 0 94724078.48297015 -10789503.3286 -10789503.3286 -5122416.161257579 0 0 0 0 0 95358987.12490036 -10612386.97201322 -10612386.97201322 -5288177.260041434 0 0 0 0 0 95947683.01382388 -10417555.47492253 -10417555.47492253 -5376488.657314066 0 0 0 0 0 96294051.46807334 -10215185.46033419 -10215185.46033419 -5244865.526130229 0 0 0 0 0 71590741.3451972 -11278506.13041729 -11278506.13041729 1145521.862545814 0 0 0 0 0 57308540.94870909 -411033.0140828112 -411033.0140828112 4021242.941535274 0 0 0 0 0 58781709.19034141 -1550023.718968005 -1550023.718968005 4204929.720774662 0 0 0 0 0 58148123.85553971 -1981539.647954509 -1981539.647954509 3883140.788884142 0 0 0 0 0 58724667.69808961 -2896437.727082048 -2896437.727082048 3780909.712990731 0 0 0 0 0 59360651.53763983 -3946794.99270176 -3946794.99270176 3688946.172224857 0 0 0 0 0 60071486.3432749 -4973833.994001615 -4973833.994001615 3546065.693731871 0 0 0 0 0 60851412.77964453 -5957180.469963218 -5957180.469963218 3372377.21166762 0 0 0 0 0 62665176.32722896 -6895079.036035103 -6895079.036035103 3395242.998734752 0 0 0 0 0 62834386.79385687 -6909409.889168126 -6909409.889168126 3156913.756136573 0 0 0 0 0 63722651.84131324 -7758445.792845616 -7758445.792845616 2917964.876103336 0 0 0 0 0 64664240.27494611 -8557010.79550341 -8557010.79550341 2653546.534751017 0 0 0 0 0 65650348.56879268 -9304514.09572091 -9304514.09572091 2375441.468544475 0 0 0 0 0 66672204.44781212 -9994981.766858717 -9994981.766858717 2081229.368985452 0 0 0 0 0 67769101.59926906 -10615533.4385046 -10615533.4385046 1788251.247097709 0 0 0 0 0 69074251.28568885 -11149125.09553254 -11149125.09553254 1471930.197254925 0 0 0 0 0 69708467.11212553 -10983464.66379824 -10983464.66379824 1458640.059267865 0 0 0 0 0 70746957.8619739 -11506744.63792703 -11506744.63792703 1120053.323654596 0 0 0 0 0 72660443.43750957 -11658603.58142386 -11658603.58142386 798942.7242571512 0 0 0 0 0 73635368.68721509 -12049643.20888909 -12049643.20888909 454221.3213231699 0 0 0 0 0 75317765.91908504 -12146296.91573607 -12146296.91573607 138575.7994803448 0 0 0 0 0 74319666.71878982 -11843397.78756068 -11843397.78756068 513474.3774598541 0 0 0 0 0 76276453.156654 -12459323.62520088 -12459323.62520088 -214212.0175300348 0 0 0 0 0 77236058.2248556 -12732630.66081448 -12732630.66081448 -565884.0739916887 0 0 0 0 0 78197452.54059164 -12967109.73424052 -12967109.73424052 -914419.0792225578 0 0 0 0 0 79154046.15119255 -13163991.84767482 -13163991.84767482 -1258413.771409818 0 0 0 0 0 80589832.96895316 -13020267.39484531 -13020267.39484531 -1518706.270114426 0 0 0 0 0 79909809.96001868 -12912261.76837436 -12912261.76837436 -1102612.907234431 0 0 0 0 0 81497645.50830467 -13141643.18080838 -13141643.18080838 -1839735.672050174 0 0 0 0 0 82395209.89073451 -13231518.50688642 -13231518.50688642 -2152707.826605785 0 0 0 0 0 83280529.00721872 -13291545.43411059 -13291545.43411059 -2456617.300635789 0 0 0 0 0 84151466.36614732 -13323409.8130652 -13323409.8130652 -2750687.589326748 0 0 0 0 0 85005440.4597244 -13328543.31714852 -13328543.31714852 -3034191.935148706 0 0 0 0 0 85769572.82605414 -13051658.6012315 -13051658.6012315 -2791175.515056519 0 0 0 0 0 86916976.3513343 -12966303.53644642 -12966303.53644642 -3435835.634111869 0 0 0 0 0 86603726.65329032 -13029180.92142251 -13029180.92142251 -3052186.302978925 0 0 0 0 0 87687679.07708177 -12904365.22294812 -12904365.22294812 -3678065.957831018 0 0 0 0 0 88438136.25078204 -12820597.50987267 -12820597.50987267 -3909512.275180176 0 0 0 0 0 89176116.23282017 -12719777.05016638 -12719777.05016638 -4128004.686619003 0 0 0 0 0 89895777.3111802 -12603815.94899365 -12603815.94899365 -4336642.261833313 0 0 0 0 0 90729054.6288905 -12214720.44498202 -12214720.44498202 -4390637.850042315 0 0 0 0 0 90592879.60786974 -12335583.64763966 -12335583.64763966 -4060616.004406509 0 0 0 0 0 91358220.05928805 -12072387.509911 -12072387.509911 -4558725.195068881 0 0 0 0 0 92001687.39588046 -11917958.562398 -11917958.562398 -4712520.07126705 0 0 0 0 0 92618341.79405113 -11781711.17072928 -11781711.17072928 -4848454.2790357 0 0 0 0 0 93113490.05800426 -11588176.850016 -11588176.850016 -4957508.814459509 0 0 0 0 0 93960003.2078234 -11393047.51049455 -11393047.51049455 -5123650.393395129 0 0 0 0 0 94936225.86996177 -10983318.48861404 -10983318.48861404 -5031986.791699711 0 0 0 0 0 94396125.39702769 -11204734.263187 -11204734.263187 -5280073.035187582 0 0 0 0 0 95349135.02081579 -10807491.23317026 -10807491.23317026 -5139099.87218121 0 0 0 0 0 95768947.28037314 -10581610.02738501 -10581610.02738501 -5182686.757992921 0 0 0 0 0 96115691.64823739 -10430876.67088077 -10430876.67088077 -5332258.119456409 0 0 0 0 0 96366192.13270688 -10252864.19428719 -10252864.19428719 -5554102.454031029 0 0 0 0 0 96726470.48305118 -10052666.25852228 -10052666.25852228 -5399402.099115416 0 0 0 0 0 71894655.13975042 -11919080.46012399 -11919080.46012399 765513.7577027065 0 0 0 0 0 56797307.42621335 -492670.9998083311 -492670.9998083311 3979704.981991139 0 0 0 0 0 57649747.62857918 -1499403.036958854 -1499403.036958854 3967366.379419013 0 0 0 0 0 58975478.84514411 -2733581.983989449 -2733581.983989449 4160588.962900613 0 0 0 0 0 59440630.29050798 -3838076.853231872 -3838076.853231872 4020198.5699323 0 0 0 0 0 60092139.78415259 -4888429.508247448 -4888429.508247448 3853803.152774189 0 0 0 0 0 60785723.77127504 -5903317.725958161 -5903317.725958161 3651411.942540753 0 0 0 0 0 61542254.38936082 -6875078.39155989 -6875078.39155989 3412706.606250999 0 0 0 0 0 61700067.70971473 -6895076.618393932 -6895076.618393932 3164701.671762524 0 0 0 0 0 63470771.71610393 -7775367.054863314 -7775367.054863314 3124707.673701284 0 0 0 0 0 64332006.05680516 -8605854.799946649 -8605854.799946649 2827321.37884564 0 0 0 0 0 65228797.27578089 -9386801.870041909 -9386801.870041909 2508368.786363068 0 0 0 0 0 66161301.43437469 -10113155.27698191 -10113155.27698191 2165642.107234301 0 0 0 0 0 67136063.13656908 -10780052.22884618 -10780052.22884618 1810073.232252333 0 0 0 0 0 68115935.76035522 -11385290.51764643 -11385290.51764643 1437520.157152637 0 0 0 0 0 68827601.31737828 -11194529.62183465 -11194529.62183465 1450713.649290042 0 0 0 0 0 70098147.29102345 -11685922.90562049 -11685922.90562049 1112118.096933788 0 0 0 0 0 71143152.6062751 -12175517.162193 -12175517.162193 751561.2273955125 0 0 0 0 0 72613656.69102161 -11709936.00110952 -11709936.00110952 828865.2288215832 0 0 0 0 0 73640957.96417531 -12100205.1859736 -12100205.1859736 493662.2706336457 0 0 0 0 0 75331709.25144772 -12197969.25048613 -12197969.25048613 177267.7935215296 0 0 0 0 0 74638671.28954974 -12408880.52359298 -12408880.52359298 107064.0894833009 0 0 0 0 0 76350827.75129542 -12510536.06872637 -12510536.06872637 -161600.9541135887 0 0 0 0 0 77371446.43033348 -12782556.97475341 -12782556.97475341 -499526.7653019314 0 0 0 0 0 78387736.76107314 -13015368.68717052 -13015368.68717052 -836124.5203354582 0 0 0 0 0 79397727.32816373 -13210056.728378 -13210056.728378 -1168853.006114388 0 0 0 0 0 80873605.67742173 -13064069.86551282 -13064069.86551282 -1421108.455785274 0 0 0 0 0 80104270.45776434 -13324723.90832987 -13324723.90832987 -1596633.057649892 0 0 0 0 0 81825609.67262638 -13182416.06809472 -13182416.06809472 -1733645.437441132 0 0 0 0 0 82763795.48273689 -13268948.73263199 -13268948.73263199 -2039201.467237055 0 0 0 0 0 83685977.45108233 -13325328.93280324 -13325328.93280324 -2336792.293226 0 0 0 0 0 84590536.3824001 -13353270.78171787 -13353270.78171787 -2625469.817947648 0 0 0 0 0 85476051.58168212 -13354234.69493203 -13354234.69493203 -2904342.580794507 0 0 0 0 0 85841652.34426174 -13308224.67196009 -13308224.67196009 -3306188.613495763 0 0 0 0 0 87417412.06704372 -12984673.79590595 -12984673.79590595 -3303799.189571245 0 0 0 0 0 86660528.58982013 -13264465.35010043 -13264465.35010043 -3566698.622457943 0 0 0 0 0 88210578.95515573 -12918075.50382923 -12918075.50382923 -3543804.095505094 0 0 0 0 0 88983650.38551155 -12830308.72406552 -12830308.72406552 -3772745.061940034 0 0 0 0 0 89735800.46703897 -12724280.78735891 -12724280.78735891 -3991462.856446797 0 0 0 0 0 90462509.43837291 -12605156.89423624 -12605156.89423624 -4200054.415247509 0 0 0 0 0 91261886.30994952 -12216987.53398571 -12216987.53398571 -4259455.285573293 0 0 0 0 0 90590978.09913106 -12476141.99246452 -12476141.99246452 -4531704.441158969 0 0 0 0 0 91929116.30785693 -12062763.00795825 -12062763.00795825 -4433089.012625876 0 0 0 0 0 92572338.98420352 -11906478.85763944 -11906478.85763944 -4584100.699319876 0 0 0 0 0 93182649.36722422 -11742513.32063615 -11742513.32063615 -4730502.839499285 0 0 0 0 0 93770279.98742981 -11571039.21632666 -11571039.21632666 -4921084.122649032 0 0 0 0 0 94300312.15633799 -11366953.36049466 -11366953.36049466 -5029988.297994285 0 0 0 0 0 94845762.89241272 -10978230.82030514 -10978230.82030514 -5373042.175337732 0 0 0 0 0 94881371.00495461 -11194979.18463112 -11194979.18463112 -5168059.876034857 0 0 0 0 0 95257525.6808452 -10780998.45882963 -10780998.45882963 -5429537.870963742 0 0 0 0 0 95729239.09316021 -10618198.40674114 -10618198.40674114 -5463460.366664908 0 0 0 0 0 96434016.17196596 -10459296.63958195 -10459296.63958195 -5502352.904057328 0 0 0 0 0 96783183.84117295 -10229654.56928004 -10229654.56928004 -5462253.292779651 0 0 0 0 0 97005687.41240823 -10098956.11694589 -10098956.11694589 -5596517.101465792 0 0 0 0 0 97761211.57232089 -9658028.913515223 -9658028.913515223 -5611001.979721565 0 0 0 0 0 97413475.99492152 -9823088.398512904 -9823088.398512904 -5462061.1880253 0 0 0 0 0 71844530.00853893 -11968002.04707748 -11968002.04707748 792950.540308208 0 0 0 0 0 56472037.25922924 -494353.139747255 -494353.139747255 4074859.834515503 0 0 0 0 0 57315834.41693184 -1554436.659617519 -1554436.659617519 4175702.094711795 0 0 0 0 0 57514406.86882568 -2690581.456415799 -2690581.456415799 3786860.551237308 0 0 0 0 0 58148437.73544478 -3801249.568724655 -3801249.568724655 3688849.673275332 0 0 0 0 0 58864185.6823196 -4860288.308725837 -4860288.308725837 3541066.016707805 0 0 0 0 0 59651623.87178108 -5886039.999504023 -5886039.999504023 3368744.724386108 0 0 0 0 0 60519055.44643378 -6869341.572486554 -6869341.572486554 3164351.725741259 0 0 0 0 0 62365943.1095881 -7798037.542035101 -7798037.542035101 3141735.742244502 0 0 0 0 0 62611889.47863214 -7785055.233974112 -7785055.233974112 2926158.000145869 0 0 0 0 0 63579622.83296709 -8624866.761142028 -8624866.761142028 2659856.445810752 0 0 0 0 0 64593667.1446333 -9414039.09955973 -9414039.09955973 2371942.991090538 0 0 0 0 0 65668400.63909607 -10144120.06663579 -10144120.06663579 2070497.439375968 0 0 0 0 0 66772394.88998944 -10820890.13503947 -10820890.13503947 1751909.868381634 0 0 0 0 0 67929161.07510771 -11429871.75377779 -11429871.75377779 1433616.994124428 0 0 0 0 0 69217824.06084976 -11936518.57538423 -11936518.57538423 1084607.363739038 0 0 0 0 0 69915594.05683897 -11731112.00206349 -11731112.00206349 1102219.16539378 0 0 0 0 0 71000725.72442771 -12224061.35636296 -12224061.35636296 748706.9847853377 0 0 0 0 0 72903725.02599834 -12323393.50834446 -12323393.50834446 413896.060557686 0 0 0 0 0 73914895.27354394 -12688753.4124348 -12688753.4124348 57263.00251382886 0 0 0 0 0 75630150.57249676 -12736106.20108697 -12736106.20108697 -254950.912300399 0 0 0 0 0 74651623.25409192 -12459895.34256832 -12459895.34256832 144178.0680716746 0 0 0 0 0 76626181.14656763 -13021502.60147183 -13021502.60147183 -617223.9601528365 0 0 0 0 0 77621601.63202344 -13265911.69749803 -13265911.69749803 -976252.6555714885 0 0 0 0 0 78614236.3727708 -13471194.70528009 -13471194.70528009 -1330915.768520486 0 0 0 0 0 79600893.15805283 -13638484.73029984 -13638484.73029984 -1679195.243059525 0 0 0 0 0 81046023.29997441 -13450680.28002146 -13450680.28002146 -1927357.823939939 0 0 0 0 0 80398727.61100815 -13368101.98147426 -13368101.98147426 -1496769.451752122 0 0 0 0 0 81976915.57580328 -13543640.70238448 -13543640.70238448 -2249652.66779126 0 0 0 0 0 82894805.23972622 -13605192.04345157 -13605192.04345157 -2562447.820206043 0 0 0 0 0 83797597.15267064 -13637141.25295717 -13637141.25295717 -2865045.683030025 0 0 0 0 0 84683813.17848708 -13641246.97312471 -13641246.97312471 -3156636.988113974 0 0 0 0 0 85550799.5198088 -13618965.25298587 -13618965.25298587 -3436432.234169303 0 0 0 0 0 86340478.18805359 -13329658.87213183 -13329658.87213183 -3172562.897254794 0 0 0 0 0 87459918.81189068 -13198450.11659333 -13198450.11659333 -3815363.068784844 0 0 0 0 0 87183491.76162316 -13281525.75431969 -13281525.75431969 -3430340.305769751 0 0 0 0 0 88238737.93569355 -13111204.77643183 -13111204.77643183 -4052335.922723118 0 0 0 0 0 88998681.70769913 -13004844.80950042 -13004844.80950042 -4277190.129414312 0 0 0 0 0 89740251.89761138 -12882952.0888691 -12882952.0888691 -4489348.272026344 0 0 0 0 0 90455626.73548569 -12746047.96445131 -12746047.96445131 -4688747.614663179 0 0 0 0 0 91242041.49800295 -12326617.39322028 -12326617.39322028 -4715909.173475599 0 0 0 0 0 91161077.51566827 -12472461.86356629 -12472461.86356629 -4398358.06576444 0 0 0 0 0 91907153.73927087 -12170211.13948561 -12170211.13948561 -4882908.418110941 0 0 0 0 0 92540087.53458615 -12002953.44609025 -12002953.44609025 -5041711.954725095 0 0 0 0 0 93114132.00560024 -11812315.92574318 -11812315.92574318 -5209159.049656445 0 0 0 0 0 93696549.5014008 -11629520.30611142 -11629520.30611142 -5305481.115826095 0 0 0 0 0 94260189.75502904 -11444440.07397163 -11444440.07397163 -5459900.879965529 0 0 0 0 0 95445671.46150279 -10985116.24827478 -10985116.24827478 -5279101.096279985 0 0 0 0 0 94824231.21008395 -11225270.7802856 -11225270.7802856 -5567592.936461716 0 0 0 0 0 95931452.50530383 -10771367.30834753 -10771367.30834753 -5348687.318007916 0 0 0 0 0 96208800.80767336 -10570905.28617001 -10570905.28617001 -5412551.310830222 0 0 0 0 0 96396344.38765424 -10365906.96636282 -10365906.96636282 -5669871.972280654 0 0 0 0 0 96164805.40499945 -10503054.72787879 -10503054.72787879 -5590811.970385431 0 0 0 0 0 96691192.33094256 -10201399.91855648 -10201399.91855648 -5751864.891195415 0 0 0 0 0 96996645.46361832 -9992785.298635237 -9992785.298635237 -5702255.700035281 0 0 0 0 0 97387427.18224293 -9875427.746797819 -9875427.746797819 -5828417.147695066 0 0 0 0 0 97824549.37528317 -9692528.70788756 -9692528.70788756 -5931703.62975561 0 0 0 0 0 98205416.2611502 -9459467.037544917 -9459467.037544917 -5715560.872815141 0 0 0 0 0 72145113.39040029 -12613371.38395505 -12613371.38395505 371137.8875447754 0 0 0 0 0 55578950.32027973 -573157.7493564418 -573157.7493564418 3950988.271598528 0 0 0 0 0 55768385.17408686 -1573552.472532044 -1573552.472532044 3775696.622623262 0 0 0 0 0 57680637.49475687 -2546286.419532051 -2546286.419532051 4136113.58904272 0 0 0 0 0 58310702.61876002 -3676125.027788101 -3676125.027788101 3995717.013553516 0 0 0 0 0 58890757.57552093 -4770639.344909831 -4770639.344909831 3858754.673737105 0 0 0 0 0 59602157.32350086 -5824325.500650104 -5824325.500650104 3660285.677059125 0 0 0 0 0 60373990.12140945 -6843099.889110111 -6843099.889110111 3422646.887550595 0 0 0 0 0 61216001.38320038 -7811414.57150038 -7811414.57150038 3151358.852329609 0 0 0 0 0 61454989.37251871 -7802584.763206083 -7802584.763206083 2927283.740915359 0 0 0 0 0 63250624.48802541 -8669686.855450854 -8669686.855450854 2842191.261126082 0 0 0 0 0 64188794.13162801 -9488577.560437564 -9488577.560437564 2517044.857545763 0 0 0 0 0 65168584.76721784 -10253581.8478889 -10253581.8478889 2169956.646170282 0 0 0 0 0 66169297.85230174 -10965980.02527645 -10965980.02527645 1801787.576239801 0 0 0 0 0 67216949.85699238 -11619000.4199323 -11619000.4199323 1421491.964057586 0 0 0 0 0 68277518.26581162 -12198198.23892861 -12198198.23892861 1037761.887674734 0 0 0 0 0 69032428.23789193 -11980557.1096998 -11980557.1096998 1073918.678907248 0 0 0 0 0 70280641.57693125 -12436975.0971979 -12436975.0971979 709353.3616221955 0 0 0 0 0 71387406.34167989 -12892460.34071089 -12892460.34071089 335349.1717306693 0 0 0 0 0 72901374.5889315 -12372597.07775455 -12372597.07775455 450727.0320786282 0 0 0 0 0 73980664.44623429 -12738460.01717113 -12738460.01717113 108979.9323059659 0 0 0 0 0 75702212.6775995 -12786669.76574198 -12786669.76574198 -203358.7727340378 0 0 0 0 0 74959142.04055728 -13020762.04889327 -13020762.04889327 -300407.0615509994 0 0 0 0 0 76762160.03581676 -13070984.8286518 -13070984.8286518 -551051.4708232534 0 0 0 0 0 77817838.91492067 -13313788.56729215 -13313788.56729215 -896790.7862010822 0 0 0 0 0 78867414.10004666 -13516807.14096196 -13516807.14096196 -1239393.658428072 0 0 0 0 0 79906067.94302848 -13681410.173001 -13681410.173001 -1577063.468230997 0 0 0 0 0 81386706.94977213 -13491053.9518325 -13491053.9518325 -1818497.885172181 0 0 0 0 0 80577952.03949206 -13769416.86103254 -13769416.86103254 -2019956.090645125 0 0 0 0 0 82360209.47774199 -13580526.91729327 -13580526.91729327 -2132991.433965913 0 0 0 0 0 83316771.17793718 -13638290.13501754 -13638290.13501754 -2439135.379933896 0 0 0 0 0 84254995.21394613 -13666214.03512379 -13666214.03512379 -2736025.503511759 0 0 0 0 0 85172999.35471477 -13665962.05556541 -13665962.05556541 -3022924.983209872 0 0 0 0 0 86069549.46653602 -13639107.46820213 -13639107.46820213 -3298831.099866607 0 0 0 0 0 86398641.58858608 -13571908.65681442 -13571908.65681442 -3704026.205532376 0 0 0 0 0 88004325.07876231 -13210900.57698101 -13210900.57698101 -3676878.992346981 0 0 0 0 0 87226246.63259849 -13501637.41436754 -13501637.41436754 -3958969.91769566 0 0 0 0 0 88803435.87721784 -13119239.50910202 -13119239.50910202 -3911946.533337093 0 0 0 0 0 89579620.25432326 -13008530.86267456 -13008530.86267456 -4135862.846192482 0 0 0 0 0 90331286.30832395 -12881825.23423503 -12881825.23423503 -4348746.682001396 0 0 0 0 0 91056790.88021368 -12740248.40570205 -12740248.40570205 -4549035.13956215 0 0 0 0 0 91840494.27707818 -12319159.50185246 -12319159.50185246 -4578879.484188053 0 0 0 0 0 91141091.11658366 -12592201.99956814 -12592201.99956814 -4874703.744389446 0 0 0 0 0 92500789.58465645 -12155149.4834027 -12155149.4834027 -4751311.200164893 0 0 0 0 0 93130069.9236104 -11987543.98446178 -11987543.98446178 -4911186.593158606 0 0 0 0 0 93731943.39530435 -11805351.15480961 -11805351.15480961 -5066281.289253619 0 0 0 0 0 94326612.42404284 -11598018.5660274 -11598018.5660274 -5176376.798437356 0 0 0 0 0 94881974.14166057 -11405148.16928385 -11405148.16928385 -5338043.456943311 0 0 0 0 0 95355104.70149173 -10981533.96664156 -10981533.96664156 -5637209.953248984 0 0 0 0 0 95421803.07462125 -11196772.46025626 -11196772.46025626 -5455066.616286087 0 0 0 0 0 95843685.94552113 -10699844.38467189 -10699844.38467189 -5611830.385425418 0 0 0 0 0 96820189.67293221 -10308614.36249011 -10308614.36249011 -5619334.759265115 0 0 0 0 0 96515415.37261938 -10528244.62184429 -10528244.62184429 -5722369.63155553 0 0 0 0 0 97291143.93479507 -10178766.70802349 -10178766.70802349 -5683015.008136905 0 0 0 0 0 97562001.44495884 -9978424.20294957 -9978424.20294957 -5723374.364010911 0 0 0 0 0 97637228.59058917 -9821230.45604647 -9821230.45604647 -5734720.149753945 0 0 0 0 0 98185073.50199303 -9645109.383218011 -9645109.383218011 -5828333.692826069 0 0 0 0 0 98271422.69275905 -9471123.892935339 -9471123.892935339 -6010988.121990081 0 0 0 0 0 98644876.78077909 -9249955.694225919 -9249955.694225919 -5806211.755062961 0 0 0 0 0 72145667.95445615 -12660838.72959134 -12660838.72959134 406732.6105423482 0 0 0 0 0 54811593.49637763 -523034.9449513934 -523034.9449513934 3883191.688346564 0 0 0 0 0 56842558.54147653 -2018477.338176229 -2018477.338176229 4250568.084216343 0 0 0 0 0 56062554.46228012 -2406396.671555276 -2406396.671555276 3699438.154188311 0 0 0 0 0 56957020.55260599 -3615490.756754628 -3615490.756754628 3631235.962294742 0 0 0 0 0 57624862.1235115 -4743277.768310822 -4743277.768310822 3535008.105413687 0 0 0 0 0 58405070.11481103 -5803459.313197935 -5803459.313197935 3359724.303977262 0 0 0 0 0 59288920.23493519 -6832067.878118901 -6832067.878118901 3155962.599969262 0 0 0 0 0 60249480.70509131 -7810430.509518315 -7810430.509518315 2919767.227020584 0 0 0 0 0 62123795.77279262 -8726069.356358303 -8726069.356358303 2850385.9854052 0 0 0 0 0 62451285.68160867 -8683560.601394318 -8683560.601394318 2660711.644122086 0 0 0 0 0 63500877.69292236 -9511006.461431293 -9511006.461431293 2368056.137186754 0 0 0 0 0 64589473.63601936 -10286619.83926606 -10286619.83926606 2051196.764362932 0 0 0 0 0 65725398.92758331 -11004251.76187234 -11004251.76187234 1721349.88882108 0 0 0 0 0 66901609.63402879 -11659336.69720855 -11659336.69720855 1374659.325793046 0 0 0 0 0 68110617.91952007 -12235598.27906203 -12235598.27906203 1031612.314946595 0 0 0 0 0 69407110.97354442 -12710429.83238688 -12710429.83238688 660501.7673052944 0 0 0 0 0 70183054.79028934 -12480881.37089899 -12480881.37089899 721798.8768878358 0 0 0 0 0 71309767.69960576 -12938861.80010325 -12938861.80010325 346892.2240734209 0 0 0 0 0 73189869.78972507 -12990020.51568164 -12990020.51568164 2627.557491072306 0 0 0 0 0 74242973.06596857 -13323796.94813341 -13323796.94813341 -366636.3520715993 0 0 0 0 0 75990872.23946956 -13318440.51327344 -13318440.51327344 -672611.8240824986 0 0 0 0 0 75036443.86919807 -13070327.9738143 -13070327.9738143 -248722.2889064971 0 0 0 0 0 77023936.0469719 -13573662.03486027 -13573662.03486027 -1042609.91015961 0 0 0 0 0 78054120.00402492 -13787672.86274121 -13787672.86274121 -1408134.110959076 0 0 0 0 0 79077642.29860817 -13962052.54936589 -13962052.54936589 -1767348.69759011 0 0 0 0 0 80092951.05333225 -14098059.12292114 -14098059.12292114 -2118259.602361704 0 0 0 0 0 81543703.85648915 -13865712.17066569 -13865712.17066569 -2352198.922800934 0 0 0 0 0 80932156.04306351 -13809052.64301995 -13809052.64301995 -1908366.085512735 0 0 0 0 0 82496121.47248125 -13928689.99099716 -13928689.99099716 -2673925.471497487 0 0 0 0 0 83432504.99915159 -13960838.63432685 -13960838.63432685 -2985148.20084902 0 0 0 0 0 84351483.0513896 -13963744.34344494 -13963744.34344494 -3284995.589197996 0 0 0 0 0 85251243.45526884 -13939180.91359497 -13939180.91359497 -3572698.456881764 0 0 0 0 0 86129876.25136589 -13888784.24588154 -13888784.24588154 -3847641.151107942 0 0 0 0 0 86943265.42651358 -13587555.3403169 -13587555.3403169 -3563408.817584828 0 0 0 0 0 88032967.3460004 -13409810.83587233 -13409810.83587233 -4201618.596920578 0 0 0 0 0 87793527.95973614 -13512698.65038852 -13512698.65038852 -3816117.460777204 0 0 0 0 0 88818415.90827797 -13298148.70024059 -13298148.70024059 -4431598.556400809 0 0 0 0 0 89582525.68784839 -13169023.17035534 -13169023.17035534 -4648642.18710895 0 0 0 0 0 90322790.89043358 -13024253.19148284 -13024253.19148284 -4852392.675953459 0 0 0 0 0 91035230.46498464 -12863475.55999874 -12863475.55999874 -5042868.996651252 0 0 0 0 0 91811402.00380298 -12425146.26001256 -12425146.26001256 -5049139.963126418 0 0 0 0 0 91758114.77920692 -12582276.91803185 -12582276.91803185 -4735257.623510762 0 0 0 0 0 92466820.70976581 -12250466.61873748 -12250466.61873748 -5209783.327307428 0 0 0 0 0 93083749.71750006 -12062364.95608038 -12062364.95608038 -5358142.936770725 0 0 0 0 0 93676963.69475782 -11862033.31256302 -11862033.31256302 -5493706.733248258 0 0 0 0 0 94265041.04440401 -11651615.35141336 -11651615.35141336 -5622854.058722933 0 0 0 0 0 94816733.27740459 -11439688.65857852 -11439688.65857852 -5738385.036505658 0 0 0 0 0 95968077.52866021 -10952458.16502731 -10952458.16502731 -5539376.072191305 0 0 0 0 0 95346290.77389032 -11204857.52199914 -11204857.52199914 -5836353.606695257 0 0 0 0 0 96354261.29790111 -10732414.33629485 -10732414.33629485 -5714760.321394764 0 0 0 0 0 96843223.02264071 -10366432.92119661 -10366432.92119661 -5901288.476251813 0 0 0 0 0 96389819.37097998 -10572956.51093539 -10572956.51093539 -5785393.551590188 0 0 0 0 0 97200258.35764992 -10108031.68733566 -10108031.68733566 -5919573.597482636 0 0 0 0 0 97807665.10298245 -9876582.551217694 -9876582.551217694 -6035401.557396828 0 0 0 0 0 98199075.45875129 -9646219.62392226 -9646219.62392226 -6108584.357779182 0 0 0 0 0 98618266.38727504 -9439883.010414904 -9439883.010414904 -5909515.077308541 0 0 0 0 0 98727206.98802401 -9267121.653405689 -9267121.653405689 -6067217.108069504 0 0 0 0 0 72429464.9701234 -13297508.59062826 -13297508.59062826 -65185.50379118464 0 0 0 0 0 54286300.26006044 -553467.7004560959 -553467.7004560959 3923787.583069881 0 0 0 0 0 55352405.98029036 -1727834.628375951 -1727834.628375951 4125336.153835579 0 0 0 0 0 54687807.4285273 -2056476.415578498 -2056476.415578498 3609214.230080664 0 0 0 0 0 56895846.76164065 -3537989.344342947 -3537989.344342947 3918417.295908751 0 0 0 0 0 57683208.85552293 -4644076.800888359 -4644076.800888359 3858949.180953745 0 0 0 0 0 58377823.17525345 -5732086.32768774 -5732086.32768774 3665720.756570404 0 0 0 0 0 59156856.43646148 -6800040.257375807 -6800040.257375807 3423196.671769613 0 0 0 0 0 60018177.88324096 -7815392.727132847 -7815392.727132847 3150985.841018976 0 0 0 0 0 60950058.44285366 -8774462.530288523 -8774462.530288523 2848901.814548398 0 0 0 0 0 61274849.53338161 -8734215.627302486 -8734215.627302486 2653169.795273435 0 0 0 0 0 63090696.3629616 -9585558.830165589 -9585558.830165589 2523322.884972076 0 0 0 0 0 64109830.60790342 -10389094.22390363 -10389094.22390363 2173812.922682427 0 0 0 0 0 65174615.88437994 -11134901.94437957 -11134901.94437957 1804568.52425313 0 0 0 0 0 66275081.2466424 -11821130.76179887 -11821130.76179887 1418056.735202139 0 0 0 0 0 67396780.08320425 -12444388.8666023 -12444388.8666023 1021123.170932243 0 0 0 0 0 68502158.13501011 -12991126.33989279 -12991126.33989279 616374.7702429239 0 0 0 0 0 69297528.81060418 -12751218.28648111 -12751218.28648111 667689.2442010369 0 0 0 0 0 70538638.10780428 -13176605.51511063 -13176605.51511063 283789.6650219841 0 0 0 0 0 71691396.00681742 -13605314.31475819 -13605314.31475819 -114404.0073104533 0 0 0 0 0 73267173.31542292 -13039670.33895175 -13039670.33895175 58438.68157346581 0 0 0 0 0 74385861.05519225 -13371725.40859684 -13371725.40859684 -298372.5788985001 0 0 0 0 0 76128927.49518347 -13367446.86698919 -13367446.86698919 -606265.4285287554 0 0 0 0 0 75329367.27861421 -13624440.59699045 -13624440.59699045 -734864.3338408263 0 0 0 0 0 77225815.13777193 -13620836.44439301 -13620836.44439301 -962275.5602820002 0 0 0 0 0 78316717.92350242 -13832582.35699404 -13832582.35699404 -1314839.483044146 0 0 0 0 0 79397778.32832412 -14003966.19588531 -14003966.19588531 -1662340.408552151 0 0 0 0 0 80463448.53827938 -14136733.3111972 -14136733.3111972 -2003398.956092789 0 0 0 0 0 81943768.5897606 -13901682.10456931 -13901682.10456931 -2232168.802057176 0 0 0 0 0 81095788.65644602 -14197921.4417249 -14197921.4417249 -2460591.272316083 0 0 0 0 0 82935522.80759113 -13960972.81456363 -13960972.81456363 -2546997.711297807 0 0 0 0 0 83908673.56717065 -13988953.97840707 -13988953.97840707 -2852274.559533627 0 0 0 0 0 84860965.7804043 -13987374.03517789 -13987374.03517789 -3147209.518718545 0 0 0 0 0 85790478.06369439 -13958131.10894083 -13958131.10894083 -3430931.543909778 0 0 0 0 0 86696197.53879619 -13902985.97920223 -13902985.97920223 -3702671.072393861 0 0 0 0 0 86986860.65636022 -13814189.9269582 -13814189.9269582 -4109394.826181236 0 0 0 0 0 88619731.57240185 -13416163.23794852 -13416163.23794852 -4057119.429202035 0 0 0 0 0 87821776.06436659 -13717159.47450031 -13717159.47450031 -4357824.700843282 0 0 0 0 0 89421739.41058883 -13299905.02907056 -13299905.02907056 -4286256.252814879 0 0 0 0 0 90198410.90680426 -13166109.11885023 -13166109.11885023 -4503465.732717241 0 0 0 0 0 90948732.79075333 -13016472.46094821 -13016472.46094821 -4707994.505115098 0 0 0 0 0 91673043.6131423 -12851235.61282679 -12851235.61282679 -4898960.964936953 0 0 0 0 0 92434946.74827278 -12410349.31890462 -12410349.31890462 -4910307.417775682 0 0 0 0 0 91724198.92453857 -12688673.37559371 -12688673.37559371 -5219653.381164824 0 0 0 0 0 93085090.27562086 -12230632.552861 -12230632.552861 -5075546.457678135 0 0 0 0 0 93709297.00919741 -12039480.29881808 -12039480.29881808 -5224572.384063746 0 0 0 0 0 94313021.84709242 -11832954.99371826 -11832954.99371826 -5361531.194847687 0 0 0 0 0 94889632.12795359 -11625074.73929902 -11625074.73929902 -5491635.088619885 0 0 0 0 0 95442765.89872891 -11405562.22797847 -11405562.22797847 -5611929.19117458 0 0 0 0 0 95955029.81481129 -11000695.39475151 -11000695.39475151 -5907442.183335016 0 0 0 0 0 95986971.99004556 -11171751.37093631 -11171751.37093631 -5715091.206730074 0 0 0 0 0 96400069.4789328 -10745616.06573256 -10745616.06573256 -5708440.890883042 0 0 0 0 0 97351388.69778183 -10321833.7492224 -10321833.7492224 -5808571.182286276 0 0 0 0 0 96936952.31457956 -10592407.01875165 -10592407.01875165 -5793483.927670914 0 0 0 0 0 97791195.34058566 -10070703.39044175 -10070703.39044175 -5876138.905180669 0 0 0 0 0 98185888.7096602 -9831490.810167667 -9831490.810167667 -5926110.991110706 0 0 0 0 0 98630566.78266422 -9613422.004687462 -9613422.004687462 -5994799.363635751 0 0 0 0 0 98621622.55495495 -9425498.627815444 -9425498.627815444 -6181714.831745389 0 0 0 0 0 99051960.67569175 -9045384.497323235 -9045384.497323235 -5891401.985504562 0 0 0 0 0 98953197.01174569 -9238660.523199664 -9238660.523199664 -5997439.124146423 0 0 0 0 0 99495934.40350351 -8825036.001850924 -8825036.001850924 -5950552.920019923 0 0 0 0 0 72522377.63495049 -13345228.6001338 -13345228.6001338 -7393.581225090208 0 0 0 0 0 53652049.16981523 -481473.0553329343 -481473.0553329343 3873298.531509638 0 0 0 0 0 53724385.67138486 -1628858.243885094 -1628858.243885094 3656251.888572959 0 0 0 0 0 55954789.12148666 -2713561.9750978 -2713561.9750978 4118954.264842418 0 0 0 0 0 56057971.92011463 -3560531.66098769 -3560531.66098769 3789711.225312187 0 0 0 0 0 56427716.55977809 -4658491.692282706 -4658491.692282706 3548085.275112019 0 0 0 0 0 57106325.95216829 -5717831.436787699 -5717831.436787699 3350253.092315399 0 0 0 0 0 58008069.69458719 -6785074.319420462 -6785074.319420462 3138155.511189792 0 0 0 0 0 58994088.16003736 -7808342.206857915 -7808342.206857915 2901576.900736304 0 0 0 0 0 60048844.37501372 -8776668.240971996 -8776668.240971996 2635158.482637904 0 0 0 0 0 61944716.84076431 -9675895.680344341 -9675895.680344341 2518847.217825871 0 0 0 0 0 62357194.94518787 -9601765.639345303 -9601765.639345303 2359133.429631305 0 0 0 0 0 63489550.14722303 -10411855.66997282 -10411855.66997282 2041118.346368895 0 0 0 0 0 64664183.21082406 -11163726.86711684 -11163726.86711684 1701872.545343999 0 0 0 0 0 65874289.98701097 -11856198.88857211 -11856198.88857211 1346115.02260092 0 0 0 0 0 67107397.52470971 -12481130.861185 -12481130.861185 977352.9612719098 0 0 0 0 0 68379574.81223044 -13030063.46736773 -13030063.46736773 620739.5442814471 0 0 0 0 0 69671349.77201828 -13471580.08070178 -13471580.08070178 222446.9783626779 0 0 0 0 0 70487557.64398861 -13218344.34666682 -13218344.34666682 302726.6989400204 0 0 0 0 0 71698280.37032574 -13650043.94851856 -13650043.94851856 -82883.90792815678 0 0 0 0 0 73535129.6809157 -13643851.69111299 -13643851.69111299 -440337.8721163382 0 0 0 0 0 74629271.45068048 -13948496.29630948 -13948496.29630948 -817637.2457982926 0 0 0 0 0 76402330.0292204 -13890615.72386844 -13890615.72386844 -1114294.45755545 0 0 0 0 0 75483255.09433253 -13671770.2947276 -13671770.2947276 -666147.8738164876 0 0 0 0 0 77472333.67043574 -14113858.00932879 -14113858.00932879 -1490953.161977232 0 0 0 0 0 78536135.11766522 -14295877.94076876 -14295877.94076876 -1861579.864355151 0 0 0 0 0 79589484.01185517 -14437561.00166918 -14437561.00166918 -2223524.804177967 0 0 0 0 0 80630771.33265518 -14541048.46852148 -14541048.46852148 -2575727.490422557 0 0 0 0 0 82083338.62671161 -14262772.97382797 -14262772.97382797 -2791638.068817087 0 0 0 0 0 81513558.54166651 -14233145.92279196 -14233145.92279196 -2336712.769912323 0 0 0 0 0 83054908.80550748 -14295063.6485667 -14295063.6485667 -3111863.598886821 0 0 0 0 0 84008444.59322873 -14296555.57329737 -14296555.57329737 -3419941.056214551 0 0 0 0 0 84941608.61228605 -14269390.34203601 -14269390.34203601 -3715469.602735216 0 0 0 0 0 85852833.52291162 -14215362.92686438 -14215362.92686438 -3997905.219244059 0 0 0 0 0 86741240.67415307 -14136154.8458622 -14136154.8458622 -4266583.476233183 0 0 0 0 0 87577153.04925136 -13823667.38533148 -13823667.38533148 -3962146.120126634 0 0 0 0 0 88634248.79909351 -13599715.38757191 -13599715.38757191 -4593044.267499651 0 0 0 0 0 88432246.55626625 -13721698.31148982 -13721698.31148982 -4208978.236605754 0 0 0 0 0 89423438.86690709 -13463586.20334442 -13463586.20334442 -4814678.595379268 0 0 0 0 0 90188155.12838951 -13310792.78071606 -13310792.78071606 -5022530.644347607 0 0 0 0 0 90926528.89215051 -13142198.56792742 -13142198.56792742 -5216619.332007363 0 0 0 0 0 91639761.66678311 -12959177.89729712 -12959177.89729712 -5396846.067840597 0 0 0 0 0 92394368.51677787 -12503350.20581836 -12503350.20581836 -5383587.369483373 0 0 0 0 0 92371892.96652262 -12671617.44602513 -12671617.44602513 -5076759.053941136 0 0 0 0 0 93037260.30824026 -12307527.01352103 -12307527.01352103 -5533764.176401751 0 0 0 0 0 93651120.72512771 -12098534.90195751 -12098534.90195751 -5671580.73278428 0 0 0 0 0 94251221.93668373 -11883268.99229439 -11883268.99229439 -5798515.01970554 0 0 0 0 0 94818652.48037919 -11658579.44947543 -11658579.44947543 -5913963.912565286 0 0 0 0 0 95364624.05150943 -11425092.75999351 -11425092.75999351 -6019729.543143149 0 0 0 0 0 96485214.76299275 -10952437.71471566 -10952437.71471566 -5805048.686026989 0 0 0 0 0 95926431.35422924 -11199693.58443364 -11199693.58443364 -6104650.455479972 0 0 0 0 0 96434593.39157571 -10778938.33454018 -10778938.33454018 -6054017.669254017 0 0 0 0 0 97253681.27294686 -10293190.21735328 -10293190.21735328 -6149350.070360501 0 0 0 0 0 96827235.03162672 -10520745.43578175 -10520745.43578175 -6067317.705434972 0 0 0 0 0 97716170.08553077 -10061565.52914467 -10061565.52914467 -6173014.819282381 0 0 0 0 0 98140737.64009644 -9832364.763280997 -9832364.763280997 -6252130.342569104 0 0 0 0 0 98575614.052891 -9587066.884711904 -9587066.884711904 -6281280.431729137 0 0 0 0 0 99042460.12967718 -9399582.448883181 -9399582.448883181 -6067198.159404767 0 0 0 0 0 99130183.31202936 -9048790.567331366 -9048790.567331366 -6151684.621995272 0 0 0 0 0 99157752.63793035 -9276588.934410892 -9276588.934410892 -6182870.571568653 0 0 0 0 0 99467276.91830653 -8801485.017024817 -8801485.017024817 -6237379.879165263 0 0 0 0 0 99851488.06167611 -8608374.783152901 -8608374.783152901 -6021498.499052843 0 0 0 0 0 72798404.27902377 -13981382.79561143 -13981382.79561143 -517782.1267061342 0 0 0 0 0 52880794.47848865 -589666.3222459756 -589666.3222459756 3785290.606204246 0 0 0 0 0 53620285.92626216 -1614367.808314157 -1614367.808314157 3783369.041921949 0 0 0 0 0 54500471.5521699 -2394955.643228935 -2394955.643228935 4060607.928409865 0 0 0 0 0 54879391.61485067 -3661378.162729773 -3661378.162729773 3554476.883180019 0 0 0 0 0 53826645.21015385 -2805481.177256265 -2805481.177256265 3481207.956329053 0 0 0 0 0 56402574.31045904 -4591305.94091453 -4591305.94091453 3849414.449606173 0 0 0 0 0 57106452.70228945 -5648410.909646737 -5648410.909646737 3628891.193624407 0 0 0 0 0 57889004.97094066 -6752244.828797663 -6752244.828797663 3397085.900411951 0 0 0 0 0 58769679.20931118 -7810730.778202578 -7810730.778202578 3135241.704815552 0 0 0 0 0 59727292.00321396 -8814737.092614673 -8814737.092614673 2835768.013216876 0 0 0 0 0 60750650.28198477 -9760190.001538748 -9760190.001538748 2504474.778100786 0 0 0 0 0 61165014.34881702 -9686782.041699989 -9686782.041699989 2340013.598594462 0 0 0 0 0 62995106.8994825 -10518417.30767437 -10518417.30767437 2164138.211565949 0 0 0 0 0 64094117.41520767 -11300957.80190912 -11300957.80190912 1788336.079008644 0 0 0 0 0 65234341.51523856 -12022562.28044528 -12022562.28044528 1395548.09286281 0 0 0 0 0 66410177.47536242 -12680935.68316049 -12680935.68316049 990585.7652560615 0 0 0 0 0 67580474.22800541 -13270248.98453411 -13270248.98453411 571083.0939013329 0 0 0 0 0 68761202.45082611 -13782598.14782083 -13782598.14782083 153985.2209312464 0 0 0 0 0 69635680.73960027 -13512098.99745374 -13512098.99745374 246795.7943483508 0 0 0 0 0 70857890.00877452 -13909204.14228601 -13909204.14228601 -179146.2480114302 0 0 0 0 0 72062877.51540686 -14308548.52234467 -14308548.52234467 -587767.3144234145 0 0 0 0 0 73675221.7814443 -13690474.04212034 -13690474.04212034 -373603.2759485944 0 0 0 0 0 74844008.68018217 -13994742.83204074 -13994742.83204074 -734472.1694597478 0 0 0 0 0 76614204.94718955 -13937201.60173217 -13937201.60173217 -1031975.578819025 0 0 0 0 0 75754548.51342545 -14218138.02786938 -14218138.02786938 -1195090.247001139 0 0 0 0 0 77745586.45441365 -14158157.56035385 -14158157.56035385 -1395522.678038135 0 0 0 0 0 78868737.7423723 -14337343.90467259 -14337343.90467259 -1753846.606406063 0 0 0 0 0 79976267.88999003 -14475579.45586945 -14475579.45586945 -2105212.276058564 0 0 0 0 0 81065935.94548568 -14575090.16416525 -14575090.16416525 -2448426.810687225 0 0 0 0 0 82543025.89316395 -14294022.44500726 -14294022.44500726 -2660635.675871032 0 0 0 0 0 81656625.23457 -14608077.68681668 -14608077.68681668 -2916949.082289093 0 0 0 0 0 83552578.74260727 -14321927.13725124 -14321927.13725124 -2974792.752266925 0 0 0 0 0 84539657.01363386 -14318894.51899436 -14318894.51899436 -3277836.222437955 0 0 0 0 0 85503442.98220015 -14286935.73235199 -14286935.73235199 -3569308.936246631 0 0 0 0 0 86442469.23028935 -14227906.74124675 -14227906.74124675 -3848496.749580441 0 0 0 0 0 87355224.21996169 -14143741.70146514 -14143741.70146514 -4114790.442248144 0 0 0 0 0 87605898.73669466 -14033666.62651963 -14033666.62651963 -4521027.470291913 0 0 0 0 0 89261639.42992193 -13599384.67521269 -13599384.67521269 -4443408.79192359 0 0 0 0 0 88446608.0635249 -13909856.8875895 -13909856.8875895 -4761574.327703077 0 0 0 0 0 90064326.10773693 -13458440.6987231 -13458440.6987231 -4665039.250677064 0 0 0 0 0 90839975.65952435 -13300719.06872043 -13300719.06872043 -4873603.131979129 0 0 0 0 0 91588006.9333808 -13127263.32995393 -13127263.32995393 -5068659.950711325 0 0 0 0 0 92308883.38428518 -12939588.87314011 -12939588.87314011 -5250281.1052945 0 0 0 0 0 93042777.23603946 -12481552.81214702 -12481552.81214702 -5243969.797869225 0 0 0 0 0 92329000.06232662 -12764108.08030678 -12764108.08030678 -5563376.651960876 0 0 0 0 0 93686861.89906973 -12280998.71643307 -12280998.71643307 -5396859.11689754 0 0 0 0 0 94305571.3816251 -12068691.51295547 -12068691.51295547 -5535975.928299694 0 0 0 0 0 94899968.03381152 -11849404.8446986 -11849404.8446986 -5666494.355006347 0 0 0 0 0 95469758.58692858 -11621646.4249862 -11621646.4249862 -5783382.617412144 0 0 0 0 0 96020493.46961229 -11384681.91470328 -11384681.91470328 -5890439.753630775 0 0 0 0 0 96401604.32447174 -10958433.04654305 -10958433.04654305 -6192213.654775775 0 0 0 0 0 96537135.25276312 -11155242.75892565 -11155242.75892565 -5989335.174868809 0 0 0 0 0 96956138.31640705 -10737576.23049609 -10737576.23049609 -5938781.398697441 0 0 0 0 0 97872069.63596609 -10248544.04824466 -10248544.04824466 -6031899.546705654 0 0 0 0 0 97439236.29774457 -10491868.47740687 -10491868.47740687 -5963743.177596262 0 0 0 0 0 98296596.56407616 -10001508.35310264 -10001508.35310264 -6075124.042290052 0 0 0 0 0 98698855.86084948 -9762090.644659638 -9762090.644659638 -6141504.880012915 0 0 0 0 0 99085405.65747911 -9528827.571018066 -9528827.571018066 -6190432.640184072 0 0 0 0 0 98944542.48026903 -9338940.757574044 -9338940.757574044 -6282199.346782889 0 0 0 0 0 99294344.84388602 -9031160.974940719 -9031160.974940719 -6100492.032489088 0 0 0 0 0 99935851.47389126 -8758591.526832534 -8758591.526832534 -6153535.664088536 0 0 0 0 0 99961780.50993624 -8604738.578104746 -8604738.578104746 -6234663.988125464 0 0 0 0 0 100222339.6511214 -8383776.004035124 -8383776.004035124 -6073400.054110861 0 0 0 0 0 72951502.33699636 -14025482.38329489 -14025482.38329489 -450160.0305885353 0 0 0 0 0 52349918.84897803 -522386.31327579 -522386.31327579 3738686.572748769 0 0 0 0 0 53239180.26873106 -1607336.691988456 -1607336.691988456 3833729.647116062 0 0 0 0 0 52598514.66843501 -2445198.050579717 -2445198.050579717 3487595.762811466 0 0 0 0 0 55718408.91400138 -4006120.283338602 -4006120.283338602 3974556.701086321 0 0 0 0 0 54935211.03927195 -3371745.570906674 -3371745.570906674 3979701.474139936 0 0 0 0 0 54891864.70826513 -4577569.694811098 -4577569.694811098 3402291.612223927 0 0 0 0 0 55721099.06890524 -5583169.435706645 -5583169.435706645 3238646.426768529 0 0 0 0 0 56673084.800189 -6713326.00442576 -6713326.00442576 3080238.152662723 0 0 0 0 0 57686167.41608916 -7791928.110482869 -7791928.110482869 2863706.685013222 0 0 0 0 0 58770698.16648606 -8808653.047460716 -8808653.047460716 2603164.193406755 0 0 0 0 0 59921452.77769856 -9764412.763174687 -9764412.763174687 2309281.378517735 0 0 0 0 0 61833441.15535667 -10644449.73197125 -10644449.73197125 2145882.411107581 0 0 0 0 0 62334832.55789611 -10536947.84367194 -10536947.84367194 2018970.501596645 0 0 0 0 0 63550911.53124626 -11325884.68585581 -11325884.68585581 1675384.97761435 0 0 0 0 0 64806181.83645437 -12051752.8618569 -12051752.8618569 1313175.304715233 0 0 0 0 0 66094429.58257005 -12713044.08334985 -12713044.08334985 936077.4723932405 0 0 0 0 0 67415338.63020675 -13305780.90022551 -13305780.90022551 557783.7429407025 0 0 0 0 0 68757030.30464494 -13819729.49339518 -13819729.49339518 183029.2064460565 0 0 0 0 0 69986286.18010041 -14236051.16335844 -14236051.16335844 -269274.9748127905 0 0 0 0 0 70900706.57204199 -13952285.05785816 -13952285.05785816 -138879.7759483619 0 0 0 0 0 72154866.6753826 -14353097.67689316 -14353097.67689316 -535824.2006332984 0 0 0 0 0 73936112.96556805 -14294935.2910637 -14294935.2910637 -906554.2650464543 0 0 0 0 0 75075070.3371274 -14564238.69991102 -14564238.69991102 -1294633.274144099 0 0 0 0 0 76866893.07717928 -14450936.87472419 -14450936.87472419 -1580757.320890499 0 0 0 0 0 75988847.95575951 -14262844.41861806 -14262844.41861806 -1108727.748766018 0 0 0 0 0 77973001.17623557 -14640526.78768407 -14640526.78768407 -1961769.951310155 0 0 0 0 0 79068861.84846865 -14788075.79370844 -14788075.79370844 -2334537.944192552 0 0 0 0 0 80150709.71662968 -14894824.97490196 -14894824.97490196 -2696729.973955599 0 0 0 0 0 81218005.81846127 -14963650.46263905 -14963650.46263905 -3047995.178977373 0 0 0 0 0 82665088.95909859 -14640262.22873202 -14640262.22873202 -3245959.433401652 0 0 0 0 0 82136686.99460559 -14637724.28952513 -14637724.28952513 -2782231.117708614 0 0 0 0 0 83653948.71931896 -14640273.69618399 -14640273.69618399 -3562318.827582254 0 0 0 0 0 84622192.05413361 -14610274.74726475 -14610274.74726475 -3865683.99438404 0 0 0 0 0 85567599.88592748 -14552222.39944312 -14552222.39944312 -4155419.077756826 0 0 0 0 0 86488694.69350563 -14468068.41540579 -14468068.41540579 -4430950.818330536 0 0 0 0 0 87384706.31143193 -14359712.22036522 -14359712.22036522 -4691766.435013361 0 0 0 0 0 88241000.97745357 -14036191.59179964 -14036191.59179964 -4367691.778488512 0 0 0 0 0 89262244.85381946 -13766575.79308084 -13766575.79308084 -4987963.492164002 0 0 0 0 0 89099087.32833818 -13907308.88737094 -13907308.88737094 -4607426.971243327 0 0 0 0 0 90052422.91505681 -13605626.94274592 -13605626.94274592 -5200043.193863995 0 0 0 0 0 90816038.02893934 -13428573.33759533 -13428573.33759533 -5397681.665847066 0 0 0 0 0 91553108.97190967 -13236734.37950031 -13236734.37950031 -5580951.74307217 0 0 0 0 0 92264238.01477265 -13032198.90326959 -13032198.90326959 -5750033.327521779 0 0 0 0 0 92991315.63926007 -12557952.59154995 -12557952.59154995 -5715735.018536923 0 0 0 0 0 93001247.12940536 -12739967.75574754 -12739967.75574754 -5419385.949124007 0 0 0 0 0 93626792.43979836 -12341343.7982586 -12341343.7982586 -5855072.359184925 0 0 0 0 0 94239298.86350186 -12116209.50143948 -12116209.50143948 -5982664.981037329 0 0 0 0 0 94827011.01898374 -11883042.30772837 -11883042.30772837 -6097916.909067428 0 0 0 0 0 95389856.08807319 -11642088.30852768 -11642088.30852768 -6202129.614218746 0 0 0 0 0 95940938.39886987 -11401007.54509219 -11401007.54509219 -6293672.572402973 0 0 0 0 0 97027575.72697178 -10913648.63360993 -10913648.63360993 -6073207.330227832 0 0 0 0 0 96448409.52867921 -11153423.72431708 -11153423.72431708 -6373155.441634536 0 0 0 0 0 96870732.59319778 -10719970.31564554 -10719970.31564554 -6267676.845808958 0 0 0 0 0 97343136.48841307 -10469748.90280681 -10469748.90280681 -6314353.809544706 0 0 0 0 0 97776753.32012816 -10221962.08457304 -10221962.08457304 -6364438.057504678 0 0 0 0 0 98198468.01214801 -9970976.861003418 -9970976.861003418 -6407095.410750571 0 0 0 0 0 98603123.22103503 -9724632.715878788 -9724632.715878788 -6449936.963558492 0 0 0 0 0 98977708.30223678 -9471914.864123335 -9471914.864123335 -6480287.689501182 0 0 0 0 0 99441064.10019951 -9286980.53530206 -9286980.53530206 -6238826.645328452 0 0 0 0 0 99589990.26625317 -9049082.928789079 -9049082.928789079 -6318369.413408133 0 0 0 0 0 99639644.24832989 -8853543.335422525 -8853543.335422525 -6297763.054361491 0 0 0 0 0 99866666.05111937 -8636155.033522801 -8636155.033522801 -6282103.801824958 0 0 0 0 0 100249288.0987602 -8374080.669422154 -8374080.669422154 -6356218.308110564 0 0 0 0 0 100620247.4874544 -8143595.706049897 -8143595.706049897 -6103038.772473236 0 0 0 0 0 73207070.1974806 -14647748.92834171 -14647748.92834171 -1007549.652023771 0 0 0 0 0 51456060.42185715 -652068.5432609865 -652068.5432609865 3572068.682607236 0 0 0 0 0 52060343.18768573 -1749631.510940028 -1749631.510940028 3652453.500621929 0 0 0 0 0 53419519.10630275 -2939491.274356802 -2939491.274356802 3881241.518403761 0 0 0 0 0 54013922.0159731 -4163109.360398611 -4163109.360398611 3480257.797364309 0 0 0 0 0 52745531.40390551 -3400168.990280365 -3400168.990280365 3323824.247811171 0 0 0 0 0 55897902.73029887 -5437673.232939148 -5437673.232939148 3660892.2014362 0 0 0 0 0 56559210.08300175 -6669350.708645426 -6669350.708645426 3373313.494365705 0 0 0 0 0 57477806.52574255 -7786269.386840574 -7786269.386840574 3110896.366730713 0 0 0 0 0 58455682.87670832 -8842752.749657713 -8842752.749657713 2812126.563593963 0 0 0 0 0 59506750.76579226 -9836370.437133668 -9836370.437133668 2479649.113812925 0 0 0 0 0 60622503.63132652 -10765497.33962447 -10765497.33962447 2117711.268616167 0 0 0 0 0 61130393.58859231 -10657288.2818345 -10657288.2818345 1986674.923224001 0 0 0 0 0 62968933.23007667 -11465865.08075111 -11465865.08075111 1764057.247573385 0 0 0 0 0 64149786.43625166 -12223169.19009251 -12223169.19009251 1362524.461905147 0 0 0 0 0 65366629.24859736 -12915176.14214564 -12915176.14214564 944351.1075512758 0 0 0 0 0 66598757.10202349 -13542266.74925636 -13542266.74925636 512954.5957105677 0 0 0 0 0 67837249.89943302 -14100171.98000609 -14100171.98000609 70038.49883114522 0 0 0 0 0 69093465.14471188 -14588728.28436329 -14588728.28436329 -362189.0212591965 0 0 0 0 0 70100922.52334832 -14281267.80942748 -14281267.80942748 -209368.2511987669 0 0 0 0 0 71237813.40932986 -14639308.01158511 -14639308.01158511 -671259.7482634701 0 0 0 0 0 72496402.87721705 -15005064.13316841 -15005064.13316841 -1093737.106931747 0 0 0 0 0 74163138.35696575 -14341171.74646819 -14341171.74646819 -820502.2093956133 0 0 0 0 0 75366910.516092 -14607738.03158321 -14607738.03158321 -1196002.111046609 0 0 0 0 0 77154952.78747244 -14493831.84613444 -14493831.84613444 -1482712.722594699 0 0 0 0 0 76240702.08444659 -14799180.68482149 -14799180.68482149 -1678841.86817922 0 0 0 0 0 78319350.42912801 -14680806.40929713 -14680806.40929713 -1851540.304138311 0 0 0 0 0 79470443.49233551 -14824682.7808147 -14824682.7808147 -2213629.845098706 0 0 0 0 0 80602651.40675892 -14927398.89056296 -14927398.89056296 -2566523.049270895 0 0 0 0 0 81714524.02264227 -14991934.1515838 -14991934.1515838 -2910117.105405303 0 0 0 0 0 83184619.55913927 -14665504.17024612 -14665504.17024612 -3104740.412349663 0 0 0 0 0 82263821.73798406 -14996045.80345083 -14996045.80345083 -3386591.316117992 0 0 0 0 0 84209254.94629821 -14660898.28486463 -14660898.28486463 -3415804.971640424 0 0 0 0 0 85208582.69195388 -14625964.69372705 -14625964.69372705 -3715004.435998011 0 0 0 0 0 86181965.14970091 -14562865.37661149 -14562865.37661149 -4001405.288702133 0 0 0 0 0 87128116.74575211 -14473522.21295284 -14473522.21295284 -4274493.526114305 0 0 0 0 0 88045663.7569996 -14359948.77483264 -14359948.77483264 -4533755.522224986 0 0 0 0 0 88254794.15044264 -14229098.67611311 -14229098.67611311 -4937766.11523951 0 0 0 0 0 89929269.67050347 -13758978.75339919 -13758978.75339919 -4833752.485214543 0 0 0 0 0 89098678.37179731 -14078240.75823174 -14078240.75823174 -5168962.550125549 0 0 0 0 0 90730868.01320431 -13593003.01802602 -13593003.01802602 -5046450.343478502 0 0 0 0 0 91503805.69063205 -13410896.4255613 -13410896.4255613 -5245274.442678125 0 0 0 0 0 92247596.3347819 -13214225.26812144 -13214225.26812144 -5430265.099579114 0 0 0 0 0 92962116.86291392 -13004963.42486227 -13004963.42486227 -5601794.916877335 0 0 0 0 0 93665109.821162 -12529412.49973754 -12529412.49973754 -5574815.735181878 0 0 0 0 0 92947025.90395525 -12815933.06635181 -12815933.06635181 -5904465.740148761 0 0 0 0 0 94301959.07145998 -12308408.74763479 -12308408.74763479 -5716778.789824811 0 0 0 0 0 94913738.10469052 -12079206.13178821 -12079206.13178821 -5846722.833972001 0 0 0 0 0 95499603.78087352 -11842028.26317704 -11842028.26317704 -5965017.053280301 0 0 0 0 0 96061287.29571483 -11597879.0268038 -11597879.0268038 -6071575.969169199 0 0 0 0 0 96594695.41811222 -11352765.43151744 -11352765.43151744 -6170424.763086519 0 0 0 0 0 96931579.85125744 -10897754.49873976 -10897754.49873976 -6443515.079612732 0 0 0 0 0 97101143.66165273 -11102366.52405704 -11102366.52405704 -6252186.389098189 0 0 0 0 0 97503829.31827839 -10662904.10988414 -10662904.10988414 -6155156.669821344 0 0 0 0 0 97959448.93172605 -10415749.06754857 -10415749.06754857 -6203747.543621257 0 0 0 0 0 98391024.31322755 -10163815.07593146 -10163815.07593146 -6257138.196241409 0 0 0 0 0 98800167.64596744 -9912695.829745894 -9912695.829745894 -6302942.876145548 0 0 0 0 0 99184207.48589876 -9664949.204886671 -9664949.204886671 -6351605.653302955 0 0 0 0 0 99547559.25268254 -9416878.539441023 -9416878.539441023 -6381461.761829251 0 0 0 0 0 99341480.46892568 -9228912.711590612 -9228912.711590612 -6482072.652719932 0 0 0 0 0 99788627.30536374 -9025485.298277892 -9025485.298277892 -6258301.145760029 0 0 0 0 0 100133439.711222 -8821995.918283129 -8821995.918283129 -6283906.981283454 0 0 0 0 0 100378450.8804422 -8596035.549765641 -8596035.549765641 -6298650.491206931 0 0 0 0 0 100672989.1934886 -8309307.509981213 -8309307.509981213 -6241715.489954701 0 0 0 0 0 100594921.3774893 -8122485.810968439 -8122485.810968439 -6380549.149278608 0 0 0 0 0 100961924.050322 -7912317.366405854 -7912317.366405854 -6135737.852431043 0 0 0 0 0 73451650.59722304 -14691954.80362441 -14691954.80362441 -919189.3501826066 0 0 0 0 0 50693041.47691796 -613019.7521849052 -613019.7521849052 3555167.753916054 0 0 0 0 0 51360571.96376519 -1671760.070520281 -1671760.070520281 3607363.64959242 0 0 0 0 0 51503384.35152331 -2947154.357785716 -2947154.357785716 3311659.651601747 0 0 0 0 0 53882477.03842421 -4186560.795149624 -4186560.795149624 3544861.598058317 0 0 0 0 0 53767919.29476985 -4185551.224559684 -4185551.224559684 3757431.866272255 0 0 0 0 0 54353091.36705062 -5450971.551188974 -5450971.551188974 3231191.855001072 0 0 0 0 0 55285477.49840017 -6635090.65275269 -6635090.65275269 3045745.278455258 0 0 0 0 0 56321969.80190267 -7759593.387587273 -7759593.387587273 2816654.363536336 0 0 0 0 0 57437512.94655526 -8828977.682804793 -8828977.682804793 2559541.2964563 0 0 0 0 0 58623621.3612098 -9833458.894532038 -9833458.894532038 2266744.109275812 0 0 0 0 0 59872845.85576839 -10771890.36238885 -10771890.36238885 1943004.585232607 0 0 0 0 0 61794947.82239699 -11628600.63147249 -11628600.63147249 1730523.138224228 0 0 0 0 0 62389426.25825265 -11485963.31222945 -11485963.31222945 1639268.910945869 0 0 0 0 0 63690861.61190078 -12249382.02961983 -12249382.02961983 1270704.901643784 0 0 0 0 0 65026725.24010267 -12947207.73725531 -12947207.73725531 885009.1342827178 0 0 0 0 0 66389842.31710479 -13579203.47837348 -13579203.47837348 487663.6309022198 0 0 0 0 0 67787514.24285556 -14141194.15259625 -14141194.15259625 87957.94426109335 0 0 0 0 0 69148791.15211228 -14634107.09703477 -14634107.09703477 -317173.4426313358 0 0 0 0 0 70357661.61842118 -15006150.32131683 -15006150.32131683 -789511.1520984719 0 0 0 0 0 71380405.00073867 -14687325.99603136 -14687325.99603136 -603745.8064219649 0 0 0 0 0 72669742.65150748 -15046564.50052914 -15046564.50052914 -1024357.82692632 0 0 0 0 0 74402113.34710833 -14927992.45911449 -14927992.45911449 -1402223.225107346 0 0 0 0 0 75585560.66363026 -15164138.92752454 -15164138.92752454 -1793464.958856631 0 0 0 0 0 77388567.20758733 -14996135.74122681 -14996135.74122681 -2069043.035818831 0 0 0 0 0 76546161.07807998 -14839007.81099857 -14839007.81099857 -1578569.013528309 0 0 0 0 0 78528729.54874857 -15149315.51922094 -15149315.51922094 -2452091.254745611 0 0 0 0 0 79653163.02609622 -15259697.76057995 -15259697.76057995 -2824803.55873073 0 0 0 0 0 80761330.99985552 -15330125.81404478 -15330125.81404478 -3185927.327174307 0 0 0 0 0 81848506.90164426 -15362828.46451504 -15362828.46451504 -3534285.46250195 0 0 0 0 0 83289782.39512734 -14994664.16028774 -14994664.16028774 -3711965.746181611 0 0 0 0 0 82803769.60102411 -15019745.67092933 -15019745.67092933 -3241548.395543505 0 0 0 0 0 84293750.1998996 -14961768.85143312 -14961768.85143312 -4023424.822378521 0 0 0 0 0 85274026.73322907 -14899600.4555707 -14899600.4555707 -4320660.097653023 0 0 0 0 0 86229232.33950385 -14810193.8939077 -14810193.8939077 -4603150.246558566 0 0 0 0 0 87157886.63700476 -14695539.17705153 -14695539.17705153 -4870308.418896927 0 0 0 0 0 88059107.93181719 -14557765.98793245 -14557765.98793245 -5121936.933074917 0 0 0 0 0 88934023.21993491 -14224077.7603859 -14224077.7603859 -4778908.246710823 0 0 0 0 0 89915419.465599 -13908913.91490053 -13908913.91490053 -5385264.948678125 0 0 0 0 0 89792762.36447641 -14067952.35641497 -14067952.35641497 -5010039.742850848 0 0 0 0 0 90704873.57955351 -13722918.85468215 -13722918.85468215 -5586612.032914001 0 0 0 0 0 91466287.74566257 -13521633.87850704 -13521633.87850704 -5772833.427415039 0 0 0 0 0 92200080.09456941 -13307236.75119288 -13307236.75119288 -5944308.967980061 0 0 0 0 0 92904930.81489655 -13080761.44477225 -13080761.44477225 -6101001.913345971 0 0 0 0 0 93603171.97457187 -12589709.94813572 -12589709.94813572 -6045103.632354595 0 0 0 0 0 93647115.88016815 -12784336.43853616 -12784336.43853616 -5759408.576488438 0 0 0 0 0 94232804.57869859 -12354518.50153552 -12354518.50153552 -6173360.903850774 0 0 0 0 0 94837326.10165855 -12111385.98024478 -12111385.98024478 -6289012.824205371 0 0 0 0 0 95417065.9832239 -11861463.85286189 -11861463.85286189 -6392476.382700205 0 0 0 0 0 95974838.91194494 -11607505.253577 -11607505.253577 -6483790.933584534 0 0 0 0 0 96503506.57109599 -11349948.94249684 -11349948.94249684 -6562224.594111598 0 0 0 0 0 97586118.22872739 -10844117.38965301 -10844117.38965301 -6323589.377147714 0 0 0 0 0 97003516.11736542 -11086538.48879107 -11086538.48879107 -6629776.701719608 0 0 0 0 0 97412568.3544185 -10645635.23966806 -10645635.23966806 -6500381.821526984 0 0 0 0 0 97860364.88565975 -10387632.71150218 -10387632.71150218 -6547856.933844267 0 0 0 0 0 98290173.30502591 -10129111.6528233 -10129111.6528233 -6587396.384114586 0 0 0 0 0 98696993.57729086 -9870657.287965566 -9870657.287965566 -6619369.998344211 0 0 0 0 0 99081041.91217627 -9614727.39057878 -9614727.39057878 -6641196.905126045 0 0 0 0 0 99442115.03341402 -9358032.659888638 -9358032.659888638 -6652797.109388197 0 0 0 0 0 99901372.35794045 -9159356.62794592 -9159356.62794592 -6382009.321661335 0 0 0 0 0 99712887.65749483 -8985576.46019919 -8985576.46019919 -6520443.265983435 0 0 0 0 0 100026439.3303582 -8727656.080923321 -8727656.080923321 -6492716.178699692 0 0 0 0 0 100278399.7203731 -8488608.727957716 -8488608.727957716 -6465190.627475644 0 0 0 0 0 100587304.4816991 -8260715.031881315 -8260715.031881315 -6500350.766406733 0 0 0 0 0 100989774.2679118 -8072442.68983206 -8072442.68983206 -6273015.138693817 0 0 0 0 0 100950109.2546457 -7894283.109762122 -7894283.109762122 -6389929.952294882 0 0 0 0 0 73700906.18923162 -15311201.39782801 -15311201.39782801 -1516104.172163216 0 0 0 0 0 49912659.57929035 -653546.7834043034 -653546.7834043034 3530677.141270236 0 0 0 0 0 50753676.51326072 -1844283.748043543 -1844283.748043543 3486897.440991204 0 0 0 0 0 51972128.63619276 -2662446.144910162 -2662446.144910162 3863012.069029897 0 0 0 0 0 52475750.22236244 -3854459.279899829 -3854459.279899829 3713406.724763833 0 0 0 0 0 54339894.26644268 -5380667.852710715 -5380667.852710715 3543756.341016937 0 0 0 0 0 52040767.91613268 -4105680.093831631 -4105680.093831631 3267643.343677656 0 0 0 0 0 55252063.8287448 -6565412.845166347 -6565412.845166347 3349963.51130551 0 0 0 0 0 56126159.91826442 -7746325.517716382 -7746325.517716382 3079651.122780897 0 0 0 0 0 57128838.17950282 -8858929.676152987 -8858929.676152987 2777552.346446739 0 0 0 0 0 58209408.93580172 -9903641.89789651 -9903641.89789651 2443420.340453309 0 0 0 0 0 59359381.23723385 -10880522.62522369 -10880522.62522369 2078445.286347821 0 0 0 0 0 60570303.20031697 -11788156.20447462 -11788156.20447462 1686496.00611213 0 0 0 0 0 61176458.38026664 -11642886.57503272 -11642886.57503272 1592569.406681922 0 0 0 0 0 63016710.52556127 -12424691.03638708 -12424691.03638708 1322246.921430274 0 0 0 0 0 64278228.02791613 -13153310.00290648 -13153310.00290648 896499.9596184987 0 0 0 0 0 65572916.55116264 -13814279.52797729 -13814279.52797729 457191.2925737232 0 0 0 0 0 66886684.04044869 -14407783.41808371 -14407783.41808371 7227.42015508895 0 0 0 0 0 68197159.70887768 -14933640.72223759 -14933640.72223759 -436368.65627321 0 0 0 0 0 69553353.74284707 -15379095.15466291 -15379095.15466291 -887703.1341204599 0 0 0 0 0 70545852.4271092 -15039940.46055068 -15039940.46055068 -722393.093486288 0 0 0 0 0 71698191.52374053 -15364972.75197365 -15364972.75197365 -1198731.404786866 0 0 0 0 0 72995385.04588856 -15690097.15862206 -15690097.15862206 -1629592.745191077 0 0 0 0 0 74695589.58567913 -14969342.94322637 -14969342.94322637 -1304884.583801537 0 0 0 0 0 75944454.7479853 -15203166.5903423 -15203166.5903423 -1682502.227445873 0 0 0 0 0 77748397.01556599 -15034206.13958509 -15034206.13958509 -1957070.667738837 0 0 0 0 0 76785842.91721329 -15362249.60231348 -15362249.60231348 -2182832.754414158 0 0 0 0 0 78944795.41040693 -15184067.29200592 -15184067.29200592 -2328994.258993998 0 0 0 0 0 80122541.63336696 -15290416.61657418 -15290416.61657418 -2691780.329191106 0 0 0 0 0 81278033.98822206 -15356580.77921877 -15356580.77921877 -3044490.816384385 0 0 0 0 0 82409415.52286702 -15384561.09682128 -15384561.09682128 -3385483.385440326 0 0 0 0 0 83867623.70523661 -15013548.99840401 -15013548.99840401 -3561289.562010355 0 0 0 0 0 82913834.85407993 -15360067.47418971 -15360067.47418971 -3868869.173317845 0 0 0 0 0 84905034.16022447 -14975515.54528924 -14975515.54528924 -3868225.590007833 0 0 0 0 0 85914737.64688623 -14908048.51736009 -14908048.51736009 -4161907.900045735 0 0 0 0 0 86895634.91231328 -14813291.72188289 -14813291.72188289 -4441832.633561756 0 0 0 0 0 87846411.75283106 -14693248.11940899 -14693248.11940899 -4707379.384199836 0 0 0 0 0 88766359.9034836 -14550047.39630979 -14550047.39630979 -4958220.420317793 0 0 0 0 0 88932476.11431406 -14398845.80267717 -14398845.80267717 -5357990.515357813 0 0 0 0 0 90621879.51531771 -13893385.06360549 -13893385.06360549 -5226920.94797347 0 0 0 0 0 89777437.23988318 -14220750.53965024 -14220750.53965024 -5578526.127112799 0 0 0 0 0 91420501.66988644 -13702257.98426861 -13702257.98426861 -5429548.963132124 0 0 0 0 0 92188412.64059146 -13496020.20273961 -13496020.20273961 -5617623.155729551 0 0 0 0 0 92925992.13483709 -13276654.60919601 -13276654.60919601 -5791518.348436986 0 0 0 0 0 93632560.64445472 -13045765.53430506 -13045765.53430506 -5951518.621557511 0 0 0 0 0 94302562.49265401 -12553864.29081559 -12553864.29081559 -5903335.765633509 0 0 0 0 0 93581272.09336065 -12844072.66900071 -12844072.66900071 -6242897.097896751 0 0 0 0 0 94931303.16207406 -12314185.85548086 -12314185.85548086 -6033828.285297229 0 0 0 0 0 95533725.68073794 -12067071.13016374 -12067071.13016374 -6152649.577029211 0 0 0 0 0 96109419.36931877 -11813411.83382654 -11813411.83382654 -6259546.347463832 0 0 0 0 0 96657666.70090079 -11555922.23540048 -11555922.23540048 -6355656.106133907 0 0 0 0 0 97179003.96516059 -11294310.02316849 -11294310.02316849 -6438885.173479169 0 0 0 0 0 97485382.40210426 -10819792.73901028 -10819792.73901028 -6687388.516403484 0 0 0 0 0 97675537.1620086 -11027896.38831302 -11027896.38831302 -6509140.373464239 0 0 0 0 0 98050534.19208223 -10584490.70650743 -10584490.70650743 -6389454.879352138 0 0 0 0 0 98491621.55692881 -10325991.52150367 -10325991.52150367 -6438852.16047232 0 0 0 0 0 98908920.36350149 -10066274.10808759 -10066274.10808759 -6482221.605271677 0 0 0 0 0 99302492.20389692 -9807272.322813936 -9807272.322813936 -6517722.674485941 0 0 0 0 0 99674510.60506739 -9547367.268617319 -9547367.268617319 -6545101.156158664 0 0 0 0 0 100028675.1124986 -9286620.59497831 -9286620.59497831 -6561066.976192651 0 0 0 0 0 99791961.08991319 -9099340.305753261 -9099340.305753261 -6666159.123392557 0 0 0 0 0 100224591.6926868 -8921899.467310617 -8921899.467310617 -6438869.118483643 0 0 0 0 0 100531816.8508229 -8672812.057228042 -8672812.057228042 -6424442.555853503 0 0 0 0 0 100809781.4235161 -8425933.743552841 -8425933.743552841 -6392677.731457765 0 0 0 0 0 101095193.1884245 -8189948.305292447 -8189948.305292447 -6393269.88928321 0 0 0 0 0 100910979.9508129 -8022936.560874089 -8022936.560874089 -6495697.267106772 0 0 0 0 0 101308065.9580857 -7681866.462131457 -7681866.462131457 -6153649.959208539 0 0 0 0 0 101243137.1862288 -7843579.173600553 -7843579.173600553 -6289125.931534892 0 0 0 0 0 74011556.3709558 -15349561.93056644 -15349561.93056644 -1416892.270647168 0 0 0 0 0 49417139.86655332 -603970.1709191124 -603970.1709191124 3500597.686030476 0 0 0 0 0 50713907.46604984 -1888631.935405632 -1888631.935405632 3627351.340664312 0 0 0 0 0 49804049.09235943 -2634206.074474056 -2634206.074474056 3229982.437212951 0 0 0 0 0 50484206.49231759 -3770475.735840049 -3770475.735840049 3134081.321604255 0 0 0 0 0 52915072.96146983 -5313868.570461044 -5313868.570461044 3164744.797061979 0 0 0 0 0 53048020.44223981 -5199619.691936514 -5199619.691936514 3502005.002872865 0 0 0 0 0 53846235.53693241 -6527146.575378282 -6527146.575378282 2979511.390837966 0 0 0 0 0 54901146.48414319 -7718662.634351003 -7718662.634351003 2766246.254541627 0 0 0 0 0 56046525.95588604 -8838521.216507427 -8838521.216507427 2505224.010635577 0 0 0 0 0 57269073.74838605 -9893528.540834658 -9893528.540834658 2211989.178918309 0 0 0 0 0 58559388.41328806 -10879917.60263374 -10879917.60263374 1886948.74054167 0 0 0 0 0 59908784.14489871 -11795790.69356041 -11795790.69356041 1533696.982004191 0 0 0 0 0 61834296.34104116 -12625398.32931219 -12625398.32931219 1271899.84242131 0 0 0 0 0 62525386.75616086 -12445677.19381537 -12445677.19381537 1219111.220552817 0 0 0 0 0 63911978.42500131 -13179721.816469 -13179721.816469 827034.5102130205 0 0 0 0 0 65327746.08090283 -13845099.77599179 -13845099.77599179 419753.3080804736 0 0 0 0 0 66763529.50117317 -14442599.5462936 -14442599.5462936 1505.565526256727 0 0 0 0 0 68192998.88727036 -14962115.44970263 -14962115.44970263 -418153.8643550228 0 0 0 0 0 69641411.62260105 -15411327.55264133 -15411327.55264133 -843038.9367167497 0 0 0 0 0 70879516.82384999 -15739832.69447122 -15739832.69447122 -1301393.607555449 0 0 0 0 0 71880981.20377457 -15395164.55034215 -15395164.55034215 -1134492.306236104 0 0 0 0 0 73253145.17959039 -15721870.57945124 -15721870.57945124 -1546095.708139291 0 0 0 0 0 74927612.65691757 -15551944.68327309 -15551944.68327309 -1919179.964526217 0 0 0 0 0 76148461.68828267 -15746692.73269515 -15746692.73269515 -2317073.161136913 0 0 0 0 0 77968291.5817107 -15521066.76779807 -15521066.76779807 -2576292.110109878 0 0 0 0 0 77162425.24161667 -15397680.26178039 -15397680.26178039 -2068382.341315892 0 0 0 0 0 79137177.96852639 -15635607.35325837 -15635607.35325837 -2960053.40171484 0 0 0 0 0 80287769.91584311 -15708068.97487314 -15708068.97487314 -3331592.348102714 0 0 0 0 0 81417520.48713814 -15741129.67651971 -15741129.67651971 -3689821.501652334 0 0 0 0 0 82524752.02474289 -15737037.93337011 -15737037.93337011 -4033780.252173326 0 0 0 0 0 83955790.09116718 -15324234.42870722 -15324234.42870722 -4188806.692403417 0 0 0 0 0 83514921.5405575 -15376888.58522506 -15376888.58522506 -3713994.002751729 0 0 0 0 0 84972503.21031366 -15257707.66798621 -15257707.66798621 -4493805.507918098 0 0 0 0 0 85962935.50652258 -15162755.36714795 -15162755.36714795 -4783431.701369687 0 0 0 0 0 86925611.67694242 -15041469.68966319 -15041469.68966319 -5057034.583946778 0 0 0 0 0 87859411.76101166 -14896094.81079707 -14896094.81079707 -5314381.60212572 0 0 0 0 0 88763609.77405803 -14728708.48687553 -14728708.48687553 -5555320.012743094 0 0 0 0 0 89654926.34011793 -14385714.84844144 -14385714.84844144 -5194221.935182803 0 0 0 0 0 90593590.74071679 -14025270.49909278 -14025270.49909278 -5783457.725059707 0 0 0 0 0 90512031.77631271 -14202251.99180041 -14202251.99180041 -5415371.159393031 0 0 0 0 0 91380147.16610256 -13814199.06927167 -13814199.06927167 -5972756.016124221 0 0 0 0 0 92137547.57068254 -13589256.45994602 -13589256.45994602 -6146628.564646022 0 0 0 0 0 92865248.52715142 -13352115.05845798 -13352115.05845798 -6305203.199722486 0 0 0 0 0 93562584.14129828 -13104279.12425477 -13104279.12425477 -6448175.584761376 0 0 0 0 0 94228708.40044613 -12598226.59693945 -12598226.59693945 -6371301.474467767 0 0 0 0 0 94307780.61483186 -12804645.63093699 -12804645.63093699 -6096881.946308022 0 0 0 0 0 94851097.84164494 -12344776.81047912 -12344776.81047912 -6487209.011897824 0 0 0 0 0 95447307.2030727 -12084395.8828106 -12084395.8828106 -6590072.152868756 0 0 0 0 0 96018113.2758175 -11819080.99774826 -11819080.99774826 -6680383.164157299 0 0 0 0 0 96561666.43389098 -11549763.64560054 -11549763.64560054 -6758171.588316817 0 0 0 0 0 97078238.86039875 -11276575.26323095 -11276575.26323095 -6824107.765884076 0 0 0 0 0 98148782.87895744 -10758409.98925614 -10758409.98925614 -6570551.917797092 0 0 0 0 0 97570629.46032497 -11000052.15466788 -11000052.15466788 -6879266.557058097 0 0 0 0 0 97949659.2433261 -10554059.14904042 -10554059.14904042 -6733810.545121944 0 0 0 0 0 98387239.62830739 -10286924.01654129 -10286924.01654129 -6770389.979259835 0 0 0 0 0 98802588.66625068 -10019742.69886624 -10019742.69886624 -6797852.834983548 0 0 0 0 0 99193659.76793277 -9752277.890014268 -9752277.890014268 -6816617.079668623 0 0 0 0 0 99564409.18841872 -9485445.176060792 -9485445.176060792 -6826855.056696882 0 0 0 0 0 99919314.97221345 -9221332.118490862 -9221332.118490862 -6828445.757978805 0 0 0 0 0 100358664.3443208 -9032200.460083922 -9032200.460083922 -6573939.889814299 0 0 0 0 0 100117472.6243451 -8847068.042749381 -8847068.042749381 -6658742.271073675 0 0 0 0 0 100430246.1449177 -8600350.58113694 -8600350.58113694 -6631405.980613196 0 0 0 0 0 100706428.620772 -8357382.659762742 -8357382.659762742 -6613963.538284535 0 0 0 0 0 100981876.055746 -8114408.939723746 -8114408.939723746 -6603239.647602999 0 0 0 0 0 101362515.9371286 -7957312.256196457 -7957312.256196457 -6395877.415282819 0 0 0 0 0 101251925.6454723 -7657711.989065048 -7657711.989065048 -6412199.977031679 0 0 0 0 0 101433710.9122952 -7813263.204682509 -7813263.204682509 -6470069.10270264 0 0 0 0 0 101604508.4121683 -7461059.443685278 -7461059.443685278 -6173407.491658689 0 0 0 0 0 74238259.47812855 -15948913.43897665 -15948913.43897665 -2061660.735770311 0 0 0 0 0 48383196.86826567 -741317.8903747475 -741317.8903747475 3293050.309811544 0 0 0 0 0 49126740.5441265 -2005023.484806435 -2005023.484806435 3299969.849557532 0 0 0 0 0 50889862.42252856 -3541997.975405982 -3541997.975405982 3565519.377949283 0 0 0 0 0 51467041.39257711 -5013578.427153916 -5013578.427153916 3392429.591629633 0 0 0 0 0 53762430.1946765 -6473025.215732954 -6473025.215732954 3284917.702605267 0 0 0 0 0 51384900.96951097 -5123716.928953411 -5123716.928953411 3055738.510654709 0 0 0 0 0 54725002.65077464 -7700521.911327884 -7700521.911327884 3028278.72266318 0 0 0 0 0 55744569.20312462 -8865140.08363653 -8865140.08363653 2728815.41856027 0 0 0 0 0 56855303.17506061 -9962331.386531658 -9962331.386531658 2393580.908871708 0 0 0 0 0 58040728.35566748 -10989068.07291938 -10989068.07291938 2026090.658052756 0 0 0 0 0 59291981.41220342 -11943514.86563663 -11943514.86563663 1629968.512770836 0 0 0 0 0 60600142.51760074 -12824253.22809705 -12824253.22809705 1209457.901502697 0 0 0 0 0 61307809.56962765 -12639974.98401623 -12639974.98401623 1156064.908622456 0 0 0 0 0 63142826.91143341 -13391729.92922558 -13391729.92922558 838747.0588509702 0 0 0 0 0 64487733.21361801 -14087144.03726789 -14087144.03726789 391481.4912905639 0 0 0 0 0 65862153.04229461 -14712232.69585837 -14712232.69585837 -65469.10898947659 0 0 0 0 0 67258257.95348164 -15267580.343245 -15267580.343245 -522036.2587861843 0 0 0 0 0 68637067.09945132 -15747424.6988082 -15747424.6988082 -983025.1039217674 0 0 0 0 0 69979972.82985902 -16137636.56609353 -16137636.56609353 -1439568.38923015 0 0 0 0 0 71048926.86053288 -15775426.81138038 -15775426.81138038 -1236299.011163965 0 0 0 0 0 72221605.84645948 -16069353.42888699 -16069353.42888699 -1748267.657434018 0 0 0 0 0 73566285.76787929 -16351328.64617268 -16351328.64617268 -2192752.791705888 0 0 0 0 0 75311763.21548954 -15590449.92450293 -15590449.92450293 -1804260.1220036 0 0 0 0 0 76591036.25826731 -15779947.52105131 -15779947.52105131 -2191674.15896776 0 0 0 0 0 78399456.79973295 -15553962.3685853 -15553962.3685853 -2450888.515949315 0 0 0 0 0 77385961.28232381 -15904523.08323866 -15904523.08323866 -2709639.15050358 0 0 0 0 0 79624695.28041667 -15664503.98077902 -15664503.98077902 -2823933.581198584 0 0 0 0 0 80826259.23856153 -15732478.14428101 -15732478.14428101 -3186339.378917804 0 0 0 0 0 82002589.51316018 -15760618.34959296 -15760618.34959296 -3536774.853125042 0 0 0 0 0 83151129.98845969 -15751422.44751561 -15751422.44751561 -3874397.869118427 0 0 0 0 0 84592267.2456217 -15335830.46969785 -15335830.46969785 -4029044.67924708 0 0 0 0 0 83606542.40298571 -15698126.24358384 -15698126.24358384 -4362497.556671399 0 0 0 0 0 85640239.9277633 -15263838.78536046 -15263838.78536046 -4330214.435354413 0 0 0 0 0 86657590.17475897 -15163299.54463097 -15163299.54463097 -4617089.041389643 0 0 0 0 0 87643218.39723632 -15036390.33043089 -15036390.33043089 -4889029.217350216 0 0 0 0 0 88596247.38283731 -14885379.54361028 -14885379.54361028 -5145598.766537344 0 0 0 0 0 89516130.44617236 -14712414.95786751 -14712414.95786751 -5386591.165385599 0 0 0 0 0 89637826.38228837 -14541275.01342283 -14541275.01342283 -5779912.345380479 0 0 0 0 0 91337513.09095985 -14001426.30825942 -14001426.30825942 -5621595.43207613 0 0 0 0 0 90481737.2823059 -14335906.8505183 -14335906.8505183 -5988320.339680741 0 0 0 0 0 92131149.45100698 -13785245.97860572 -13785245.97860572 -5813032.428731422 0 0 0 0 0 92891901.13527445 -13555295.59434621 -13555295.59434621 -5989409.689380499 0 0 0 0 0 93620354.67915359 -13313438.32680573 -13313438.32680573 -6151118.296674894 0 0 0 0 0 94316568.47142632 -13061204.00752277 -13061204.00752277 -6298132.763399294 0 0 0 0 0 94954175.88603315 -12554347.3543414 -12554347.3543414 -6228293.077425737 0 0 0 0 0 94229730.59432708 -12847381.70605094 -12847381.70605094 -6577049.330180175 0 0 0 0 0 95572987.46280596 -12296603.54641744 -12296603.54641744 -6347403.482818841 0 0 0 0 0 96163988.13621318 -12032381.3371266 -12032381.3371266 -6454080.91637882 0 0 0 0 0 96726810.64555931 -11763402.09582771 -11763402.09582771 -6548789.809405347 0 0 0 0 0 97262052.97214676 -11490448.73036274 -11490448.73036274 -6631211.864752772 0 0 0 0 0 97771027.84080127 -11213723.66605381 -11213723.66605381 -6701232.396566001 0 0 0 0 0 98041743.30439125 -10722519.21695095 -10722519.21695095 -6924067.705139921 0 0 0 0 0 98254823.41874529 -10934395.87206689 -10934395.87206689 -6760413.177454745 0 0 0 0 0 98598898.0942705 -10488651.28547233 -10488651.28547233 -6623082.422128062 0 0 0 0 0 99025157.427312 -10219539.39377127 -10219539.39377127 -6663691.067727979 0 0 0 0 0 99427737.94060709 -9950427.738734663 -9950427.738734663 -6695512.575540072 0 0 0 0 0 99807762.70683219 -9681189.59568195 -9681189.59568195 -6718120.287495483 0 0 0 0 0 100166715.9654742 -9412220.560486116 -9412220.560486116 -6732630.998598409 0 0 0 0 0 100503175.2571213 -9146354.165970594 -9146354.165970594 -6739673.2553163 0 0 0 0 0 100245718.8551768 -8956412.444771422 -8956412.444771422 -6821347.642864781 0 0 0 0 0 100669662.4502961 -8774237.58529043 -8774237.58529043 -6579456.636608942 0 0 0 0 0 100950488.9997212 -8532245.060078433 -8532245.060078433 -6571782.545769863 0 0 0 0 0 101225133.9900765 -8289626.009791863 -8289626.009791863 -6544519.721937987 0 0 0 0 0 101490386.255 -8045718.139439103 -8045718.139439103 -6528938.296808266 0 0 0 0 0 101261124.0212441 -7883490.407215639 -7883490.407215639 -6579028.763531478 0 0 0 0 0 101695369.6397984 -7558817.778316131 -7558817.778316131 -6307368.687741253 0 0 0 0 0 101429512.2326736 -7671566.746598898 -7671566.746598898 -6478568.084215906 0 0 0 0 0 101548900.1598769 -7429678.950367643 -7429678.950367643 -6431084.400070511 0 0 0 0 0 101865904.8916894 -7234282.789439256 -7234282.789439256 -6191015.436169334 0 0 0 0 0 102645452.8753685 -6535444.956968207 -6535444.956968207 -6173469.610760204 0 0 0 0 0 102419137.2890068 -6762246.654003795 -6762246.654003795 -6180785.59968642 0 0 0 0 0 102141947.1133644 -7002394.373473809 -7002394.373473809 -6191982.311377496 0 0 0 0 0 74652245.47233818 -15983013.14506085 -15983013.14506085 -1943601.668164618 0 0 0 0 0 47624305.50527792 -656185.5157720972 -656185.5157720972 3187628.60595213 0 0 0 0 0 48608308.68994111 -1967683.689631763 -1967683.689631763 3313375.451317553 0 0 0 0 0 48987580.67348096 -3486865.743038066 -3486865.743038066 3020772.599104424 0 0 0 0 0 49808114.89787462 -4934807.338416019 -4934807.338416019 2942579.54980918 0 0 0 0 0 52350657.13858938 -6429713.766418051 -6429713.766418051 2918206.255029647 0 0 0 0 0 52327997.34417266 -6363180.25344317 -6363180.25344317 3200730.728093349 0 0 0 0 0 53422427.39302626 -7661401.02330325 -7661401.02330325 2689280.722175594 0 0 0 0 0 54596184.34775162 -8837587.757933658 -8837587.757933658 2435607.128338825 0 0 0 0 0 55854780.01254874 -9944338.116980003 -9944338.116980003 2142459.012975508 0 0 0 0 0 57187754.33155341 -10980601.86239594 -10980601.86239594 1816624.998841635 0 0 0 0 0 58584394.59568779 -11943701.77673527 -11943701.77673527 1461072.011558343 0 0 0 0 0 60034683.22224046 -12831852.23606258 -12831852.23606258 1079533.426567524 0 0 0 0 0 61956681.45882007 -13630506.55619277 -13630506.55619277 768816.7627397663 0 0 0 0 0 62747580.88267193 -13411889.54265209 -13411889.54265209 758071.5414873128 0 0 0 0 0 64219303.66164414 -14111387.08571373 -14111387.08571373 343875.1342761762 0 0 0 0 0 65714681.31709711 -14738842.15384615 -14738842.15384615 -82587.63153176464 0 0 0 0 0 67213699.68448192 -15291647.24241192 -15291647.24241192 -517143.9219499673 0 0 0 0 0 68718840.33899254 -15771271.36463569 -15771271.36463569 -947163.0242910935 0 0 0 0 0 70259095.19012299 -16162844.55264807 -16162844.55264807 -1361764.474618211 0 0 0 0 0 71409661.23539259 -16460619.86323529 -16460619.86323529 -1880281.779351701 0 0 0 0 0 72488142.51600477 -16098024.0574469 -16098024.0574469 -1665204.653081513 0 0 0 0 0 73919978.12479787 -16380106.95293352 -16380106.95293352 -2088291.588937023 0 0 0 0 0 75517788.62955076 -16148660.79897914 -16148660.79897914 -2465489.996213337 0 0 0 0 0 76773832.01700005 -16304681.47593167 -16304681.47593167 -2862948.900887043 0 0 0 0 0 78600392.21979146 -16023232.33661069 -16023232.33661069 -3103267.687543874 0 0 0 0 0 77841444.47530419 -15933683.15836613 -15933683.15836613 -2580420.779532468 0 0 0 0 0 79796678.99349543 -16098071.9954225 -16098071.9954225 -3485632.123236473 0 0 0 0 0 80971243.00987232 -16131402.39901439 -16131402.39901439 -3854033.768781758 0 0 0 0 0 82121726.16344967 -16125746.0799625 -16125746.0799625 -4207533.140630446 0 0 0 0 0 83245829.4283241 -16083693.15553593 -16083693.15553593 -4545135.399100997 0 0 0 0 0 84661902.34038898 -15627025.42691114 -15627025.42691114 -4675478.620914113 0 0 0 0 0 84270281.62360802 -15707201.83674704 -15707201.83674704 -4197924.40324509 0 0 0 0 0 85689451.76855949 -15526205.89086942 -15526205.89086942 -4972253.797973284 0 0 0 0 0 86687844.13305451 -15397856.04275325 -15397856.04275325 -5252411.00454907 0 0 0 0 0 87655734.88692221 -15244333.52709289 -15244333.52709289 -5515471.052286224 0 0 0 0 0 88592221.05060327 -15068064.46637209 -15068064.46637209 -5761517.573865397 0 0 0 0 0 89496886.39291349 -14870834.54550973 -14870834.54550973 -5990159.070164435 0 0 0 0 0 90402346.74689707 -14519457.77528321 -14519457.77528321 -5611933.490084272 0 0 0 0 0 91295229.14670424 -14114385.70217794 -14114385.70217794 -6180660.22343749 0 0 0 0 0 91255312.40488313 -14308637.24874566 -14308637.24874566 -5821766.612355166 0 0 0 0 0 92077073.51728714 -13878470.5327404 -13878470.5327404 -6356700.234942958 0 0 0 0 0 92827895.03998131 -13630183.09399423 -13630183.09399423 -6516805.091278844 0 0 0 0 0 93547447.77220084 -13370866.55415909 -13370866.55415909 -6660983.902922076 0 0 0 0 0 94235354.37327845 -13102175.65090266 -13102175.65090266 -6790098.346863495 0 0 0 0 0 94869635.06248939 -12582865.62731858 -12582865.62731858 -6692640.62044127 0 0 0 0 0 94982022.75584666 -12799690.85589947 -12799690.85589947 -6430427.455450043 0 0 0 0 0 95482431.24232279 -12311447.6449232 -12311447.6449232 -6794907.818181893 0 0 0 0 0 96068055.38680603 -12034649.84223477 -12034649.84223477 -6884079.504470837 0 0 0 0 0 96626125.03505838 -11753741.3376849 -11753741.3376849 -6960584.928333468 0 0 0 0 0 97156967.23132512 -11469409.19683323 -11469409.19683323 -7024901.588248669 0 0 0 0 0 97662220.75637487 -11182449.10544883 -11182449.10544883 -7077790.915795078 0 0 0 0 0 98713939.32654731 -10654079.70526629 -10654079.70526629 -6809947.809152912 0 0 0 0 0 98143160.14050466 -10894067.28782756 -10894067.28782756 -7119810.401605872 0 0 0 0 0 98490592.86566192 -10445455.02799626 -10445455.02799626 -6958325.755902433 0 0 0 0 0 98914646.54959349 -10168402.08096584 -10168402.08096584 -6982628.250931667 0 0 0 0 0 99315206.58109362 -9891431.218099056 -9891431.218099056 -6997569.89418327 0 0 0 0 0 99693514.86624834 -9614950.790517427 -9614950.790517427 -7003975.772926954 0 0 0 0 0 100052345.1087823 -9340741.965952653 -9340741.965952653 -7001869.092731602 0 0 0 0 0 100388551.0060927 -9069036.381567294 -9069036.381567294 -6990125.7792532 0 0 0 0 0 100818891.2694131 -8881805.493277151 -8881805.493277151 -6737517.359094614 0 0 0 0 0 100565611.3582874 -8702025.166862052 -8702025.166862052 -6798536.732224051 0 0 0 0 0 100844868.491562 -8448035.341605872 -8448035.341605872 -6767723.621563714 0 0 0 0 0 101111787.9826885 -8200294.631146752 -8200294.631146752 -6746621.421695387 0 0 0 0 0 101378459.2739012 -7956580.96917435 -7956580.96917435 -6716610.001533252 0 0 0 0 0 101709386.6194806 -7824937.766514794 -7824937.766514794 -6537802.644654502 0 0 0 0 0 101613236.6994786 -7516104.796653738 -7516104.796653738 -6548426.093019821 0 0 0 0 0 101807039.0676753 -7621622.24415201 -7621622.24415201 -6534211.897448826 0 0 0 0 0 101918354.9682122 -7329839.569209455 -7329839.569209455 -6315602.057214998 0 0 0 0 0 101818889.7015228 -7200713.521320843 -7200713.521320843 -6433267.505763667 0 0 0 0 0 102344153.1427067 -6713812.037312388 -6713812.037312388 -6401424.389089579 0 0 0 0 0 102580243.2832208 -6489158.29868433 -6489158.29868433 -6381808.466690758 0 0 0 0 0 102085917.7553391 -6963375.112567967 -6963375.112567967 -6443709.272599064 0 0 0 0 0 102883856.5464955 -6305994.851772283 -6305994.851772283 -6151589.959534813 0 0 0 0 0 74864909.75155272 -16572094.17360225 -16572094.17360225 -2621730.777104798 0 0 0 0 0 46728309.36645248 -769884.2338303373 -769884.2338303373 3041244.420930024 0 0 0 0 0 47765479.53940141 -2086143.090403455 -2086143.090403455 3219021.191681474 0 0 0 0 0 48977099.15776165 -3406989.138131058 -3406989.138131058 3325014.790254205 0 0 0 0 0 49963690.56537082 -4805382.28014141 -4805382.28014141 3274539.428353159 0 0 0 0 0 50789844.19372953 -6209584.565923049 -6209584.565923049 3091285.976360812 0 0 0 0 0 53249287.08069448 -7641976.5925575 -7641976.5925575 2953002.066483131 0 0 0 0 0 50782567.91732474 -6291435.684050434 -6291435.684050434 2782780.959757273 0 0 0 0 0 54303801.88500619 -8861519.629532004 -8861519.629532004 2659501.787773055 0 0 0 0 0 55443565.39591009 -10011860.76182875 -10011860.76182875 2326530.0193995 0 0 0 0 0 56664797.62368198 -11090376.39083569 -11090376.39083569 1958138.718963143 0 0 0 0 0 57956947.18427776 -12094016.5040429 -12094016.5040429 1558870.096820186 0 0 0 0 0 59311004.84016263 -13020583.50015366 -13020583.50015366 1133298.493526727 0 0 0 0 0 60717706.12011287 -13868961.15904461 -13868961.15904461 685928.0543229597 0 0 0 0 0 61529382.0792689 -13644134.10526451 -13644134.10526451 675989.8852720761 0 0 0 0 0 63352980.21899123 -14362057.25841998 -14362057.25841998 312290.5044503848 0 0 0 0 0 64780837.79162896 -15019097.37774809 -15019097.37774809 -155444.778547841 0 0 0 0 0 66231892.69179678 -15601380.55034443 -15601380.55034443 -629703.6548749204 0 0 0 0 0 67674976.34039891 -16108431.74498002 -16108431.74498002 -1111031.528441622 0 0 0 0 0 69110373.54955417 -16541997.17785805 -16541997.17785805 -1588506.113962782 0 0 0 0 0 70510301.49065946 -16897720.04962876 -16897720.04962876 -2046151.761378723 0 0 0 0 0 71717445.99071872 -16494180.69558093 -16494180.69558093 -1784914.633841925 0 0 0 0 0 72810146.24966441 -16752411.8927133 -16752411.8927133 -2330520.031698531 0 0 0 0 0 74208923.68032087 -16990480.79371321 -16990480.79371321 -2774403.08818346 0 0 0 0 0 75975502.34245177 -16179354.41643031 -16179354.41643031 -2338997.979568193 0 0 0 0 0 77296062.62131093 -16332430.86570084 -16332430.86570084 -2722816.349915319 0 0 0 0 0 79108867.32042003 -16049888.35815973 -16049888.35815973 -2963669.646480469 0 0 0 0 0 78043420.5824597 -16422663.46704616 -16422663.46704616 -3256361.668916558 0 0 0 0 0 80358163.8910584 -16119988.16539246 -16119988.16539246 -3336538.519102124 0 0 0 0 0 81581726.44141887 -16148369.78319913 -16148369.78319913 -3696644.477206313 0 0 0 0 0 82775808.04564141 -16137383.21637407 -16137383.21637407 -4043366.369852161 0 0 0 0 0 83938616.91405188 -16089790.93217877 -16089790.93217877 -4375545.277728116 0 0 0 0 0 85358207.64510851 -15630479.69801258 -15630479.69801258 -4506899.115451356 0 0 0 0 0 84341917.95561709 -16007837.038001 -16007837.038001 -4866169.367790615 0 0 0 0 0 86413721.25561039 -15523824.27718291 -15523824.27718291 -4800830.178410412 0 0 0 0 0 87435855.00033523 -15389715.46207561 -15389715.46207561 -5079200.233671805 0 0 0 0 0 88423327.97993733 -15230345.4451055 -15230345.4451055 -5341507.466386328 0 0 0 0 0 89376516.23117851 -15048264.88311535 -15048264.88311535 -5587568.675363838 0 0 0 0 0 90293435.01775205 -14845372.22860128 -14845372.22860128 -5817140.876245612 0 0 0 0 0 90369662.75127594 -14655035.08298712 -14655035.08298712 -6201888.550433243 0 0 0 0 0 92074745.55855578 -14081840.94389704 -14081840.94389704 -6016184.06066589 0 0 0 0 0 91210129.08379242 -14422625.58291699 -14422625.58291699 -6396919.775903487 0 0 0 0 0 92860776.25683473 -13840753.78471795 -13840753.78471795 -6194980.213070037 0 0 0 0 0 93612478.622989 -13587572.77106514 -13587572.77106514 -6358455.250590481 0 0 0 0 0 94329699.6330228 -13323761.44544503 -13323761.44544503 -6506697.100560987 0 0 0 0 0 95014961.50097102 -13050645.30377303 -13050645.30377303 -6639735.086492225 0 0 0 0 0 95618224.23452362 -12530708.5660796 -12530708.5660796 -6549449.321675031 0 0 0 0 0 94893594.8330638 -12825840.04776321 -12825840.04776321 -6905588.22223588 0 0 0 0 0 96224894.98129432 -12255252.09210191 -12255252.09210191 -6655620.720744284 0 0 0 0 0 96802589.68013076 -11974713.21790106 -11974713.21790106 -6749207.44351896 0 0 0 0 0 97351716.15144438 -11690185.64380145 -11690185.64380145 -6830337.618934227 0 0 0 0 0 97873358.17868049 -11402397.10206096 -11402397.10206096 -6899219.80927312 0 0 0 0 0 98368114.97490183 -11112380.2693718 -11112380.2693718 -6956659.615135328 0 0 0 0 0 98600354.14457728 -10605679.64777253 -10605679.64777253 -7151372.757467239 0 0 0 0 0 98837005.35536081 -10821298.08110859 -10821298.08110859 -7003427.253041678 0 0 0 0 0 99148843.2319236 -10373992.36063918 -10373992.36063918 -6849535.808117311 0 0 0 0 0 99559669.3114972 -10094645.53153069 -10094645.53153069 -6878528.809083847 0 0 0 0 0 99947272.24739355 -9815660.532376608 -9815660.532376608 -6897934.576873512 0 0 0 0 0 100313074.793595 -9537372.900108041 -9537372.900108041 -6908558.273519235 0 0 0 0 0 100657339.974491 -9261433.388572594 -9261433.388572594 -6911688.089642448 0 0 0 0 0 100977739.2531633 -8990231.924269781 -8990231.924269781 -6907801.08006555 0 0 0 0 0 100707436.5598494 -8803678.978928661 -8803678.978928661 -6968854.475044711 0 0 0 0 0 101104501.2129525 -8630997.50566137 -8630997.50566137 -6736593.338795302 0 0 0 0 0 101376941.8549824 -8378207.107063801 -8378207.107063801 -6714152.724926357 0 0 0 0 0 101639640.6914962 -8126949.975339761 -8126949.975339761 -6686188.558098339 0 0 0 0 0 101874695.491312 -7877133.188730001 -7877133.188730001 -6652118.913955287 0 0 0 0 0 101622486.6748777 -7696238.66775431 -7696238.66775431 -6652722.376347554 0 0 0 0 0 101924641.822851 -7440043.992046204 -7440043.992046204 -6430616.218933076 0 0 0 0 0 101888605.8665284 -7312627.5831635 -7312627.5831635 -6568160.795588199 0 0 0 0 0 102240874.508087 -7100367.512354037 -7100367.512354037 -6307003.685197648 0 0 0 0 0 102746587.5896607 -6642035.509356203 -6642035.509356203 -6291807.347706876 0 0 0 0 0 102963844.5499928 -6413961.545072434 -6413961.545072434 -6262215.093841983 0 0 0 0 0 102513466.888976 -6863024.511021418 -6863024.511021418 -6314868.864665969 0 0 0 0 0 102818308.623647 -6262139.417186231 -6262139.417186231 -6321214.451171798 0 0 0 0 0 103111110.0729508 -6091464.384902292 -6091464.384902292 -6122567.053412723 0 0 0 0 0 103295635.7188122 -5861249.544348089 -5861249.544348089 -6096325.503697867 0 0 0 0 0 75350403.15608293 -16598600.1206957 -16598600.1206957 -2491485.988485525 0 0 0 0 0 46085242.36027259 -724913.385535998 -724913.385535998 3009660.224528423 0 0 0 0 0 46947302.35544394 -1999447.950930248 -1999447.950930248 3120523.240647422 0 0 0 0 0 47421748.17388897 -3308718.876692242 -3308718.876692242 2953742.174743803 0 0 0 0 0 48170072.32805679 -4712703.102360656 -4712703.102360656 2788595.002491137 0 0 0 0 0 49157256.89547269 -6133812.782258447 -6133812.782258447 2649729.198817171 0 0 0 0 0 51881086.11793999 -7592509.598202643 -7592509.598202643 2592547.829595218 0 0 0 0 0 51744357.22705602 -7563246.962078752 -7563246.962078752 2853554.480234622 0 0 0 0 0 53084400.60634066 -8822163.665297726 -8822163.665297726 2341763.95854489 0 0 0 0 0 54379868.12880863 -9984141.898242299 -9984141.898242299 2053707.983223954 0 0 0 0 0 55755492.55848942 -11072866.20236455 -11072866.20236455 1729058.02339441 0 0 0 0 0 57200751.77692194 -12085586.13757598 -12085586.13757598 1372507.39622027 0 0 0 0 0 58704641.3976697 -13019992.70952847 -13019992.70952847 988056.6630174018 0 0 0 0 0 60256543.98800333 -13874979.10083658 -13874979.10083658 579827.6987657254 0 0 0 0 0 62167704.4459124 -14638947.70686004 -14638947.70686004 220997.6114201622 0 0 0 0 0 63059681.94717613 -14380315.61104748 -14380315.61104748 254637.6773245186 0 0 0 0 0 64615813.52493952 -15040448.69302444 -15040448.69302444 -180344.2789874305 0 0 0 0 0 66190460.6731286 -15623457.49553063 -15623457.49553063 -624553.7966469473 0 0 0 0 0 67761404.62529524 -16133072.88251217 -16133072.88251217 -1073721.2926259 0 0 0 0 0 69330946.78425319 -16570490.58170488 -16570490.58170488 -1516553.780960828 0 0 0 0 0 70923548.33039337 -16920763.7776559 -16920763.7776559 -1936724.426613176 0 0 0 0 0 71985923.19901155 -17192743.70435901 -17192743.70435901 -2513450.42898331 0 0 0 0 0 73206178.47487992 -16782976.79100503 -16782976.79100503 -2215275.559323911 0 0 0 0 0 74658888.72474499 -17015920.20301708 -17015920.20301708 -2648973.206438511 0 0 0 0 0 76169222.75105527 -16729248.01550218 -16729248.01550218 -3029161.996803257 0 0 0 0 0 77459355.28504322 -16840790.3183352 -16840790.3183352 -3429845.756592341 0 0 0 0 0 79287688.7017898 -16500449.60259158 -16500449.60259158 -3648397.422421712 0 0 0 0 0 78581938.53961144 -16445766.68724269 -16445766.68724269 -3111216.127706115 0 0 0 0 0 80509197.77958053 -16534077.69332097 -16534077.69332097 -4027193.486683492 0 0 0 0 0 81705501.74188924 -16526761.11527327 -16526761.11527327 -4390418.667343928 0 0 0 0 0 82873900.87751845 -16481237.8431872 -16481237.8431872 -4736991.906858349 0 0 0 0 0 84012661.50682075 -16400414.98290157 -16400414.98290157 -5066330.298500436 0 0 0 0 0 85408594.07111926 -15900823.72633018 -15900823.72633018 -5170247.449705579 0 0 0 0 0 85068614.06735256 -16008176.34151987 -16008176.34151987 -4692438.209510363 0 0 0 0 0 86444352.50928158 -15765062.04609282 -15765062.04609282 -5456749.056294532 0 0 0 0 0 87447921.38876335 -15602844.82941365 -15602844.82941365 -5725608.999766314 0 0 0 0 0 88418370.85103992 -15417199.32474462 -15417199.32474462 -5976878.07314376 0 0 0 0 0 89355161.61758186 -15209593.09022148 -15209593.09022148 -6209659.378582933 0 0 0 0 0 90257671.96920396 -14982841.26492799 -14982841.26492799 -6424743.340983273 0 0 0 0 0 91174902.57549796 -14623993.03450003 -14623993.03450003 -6030412.443569145 0 0 0 0 0 92018266.30485913 -14175367.21344221 -14175367.21344221 -6575196.803599638 0 0 0 0 0 92021154.49367367 -14386116.89687758 -14386116.89687758 -6227592.490341361 0 0 0 0 0 92793575.86757261 -13915047.25729217 -13915047.25729217 -6736690.0460204 0 0 0 0 0 93535406.38857915 -13643666.13627121 -13643666.13627121 -6881926.83367388 0 0 0 0 0 94244210.78273232 -13362870.07469033 -13362870.07469033 -7011432.167788857 0 0 0 0 0 94921826.9865339 -13073955.81642441 -13073955.81642441 -7126269.904706436 0 0 0 0 0 95523174.8831865 -12542657.19230516 -12542657.19230516 -7006988.355962147 0 0 0 0 0 95669146.91146699 -12769545.64374015 -12769545.64374015 -6758672.989216353 0 0 0 0 0 96124290.58964179 -12254134.06042298 -12254134.06042298 -7094988.216167458 0 0 0 0 0 96697122.14462006 -11961356.01131031 -11961356.01131031 -7169912.18896351 0 0 0 0 0 97241969.22775669 -11665391.10414917 -11665391.10414917 -7232348.301462202 0 0 0 0 0 97759933.95890719 -11367045.49613497 -11367045.49613497 -7282704.914483588 0 0 0 0 0 98251794.9512706 -11067551.88846733 -11067551.88846733 -7321803.590294371 0 0 0 0 0 99280636.23687537 -10530235.44317367 -10530235.44317367 -7040038.77108609 0 0 0 0 0 98718496.34880842 -10767906.78750171 -10767906.78750171 -7350175.957177522 0 0 0 0 0 99033804.45207889 -10318071.32966531 -10318071.32966531 -7172729.308035186 0 0 0 0 0 99442986.68463016 -10031186.017494 -10031186.017494 -7184201.434937326 0 0 0 0 0 99829226.1082117 -9745353.320591619 -9745353.320591619 -7186796.143456223 0 0 0 0 0 100194385.7929536 -9461437.750722399 -9461437.750722399 -7181167.001412908 0 0 0 0 0 100539026.7874973 -9180304.430098273 -9180304.430098273 -7165975.297701399 0 0 0 0 0 100861025.8203178 -8903805.057834191 -8903805.057834191 -7141937.025171269 0 0 0 0 0 101272287.6980658 -8726725.183219915 -8726725.183219915 -6898269.926593961 0 0 0 0 0 100992675.0275804 -8537727.368620874 -8537727.368620874 -6934151.771864248 0 0 0 0 0 101265613.7417248 -8287493.443678319 -8287493.443678319 -6912098.033778762 0 0 0 0 0 101528688.3655172 -8029596.384124984 -8029596.384124984 -6868281.427113772 0 0 0 0 0 101754706.3792495 -7772097.292852795 -7772097.292852795 -6837362.917390285 0 0 0 0 0 102115317.7467769 -7617030.435022896 -7617030.435022896 -6628279.075698569 0 0 0 0 0 101970824.8952222 -7426281.800147035 -7426281.800147035 -6683686.368058722 0 0 0 0 0 102302233.4759818 -7221173.35513131 -7221173.35513131 -6436294.727497174 0 0 0 0 0 102183836.4086571 -7061452.825556842 -7061452.825556842 -6556589.866731606 0 0 0 0 0 102637945.8866994 -6571941.613661833 -6571941.613661833 -6481985.982839489 0 0 0 0 0 102428338.3821282 -6811005.520948073 -6811005.520948073 -6507284.342737378 0 0 0 0 0 102835655.0119772 -6333280.783365708 -6333280.783365708 -6447967.195980793 0 0 0 0 0 103160580.774074 -6183058.408263419 -6183058.408263419 -6227081.172793804 0 0 0 0 0 103023247.1214309 -6032054.186728737 -6032054.186728737 -6328733.831782081 0 0 0 0 0 103218749.3915799 -5809933.925618142 -5809933.925618142 -6284160.802914132 0 0 0 0 0 103499225.0672434 -5636679.442204772 -5636679.442204772 -6054779.485121207 0 0 0 0 0 75535951.24506344 -17163420.01896672 -17163420.01896672 -3212565.960685784 0 0 0 0 0 45051512.48684424 -847192.8702966275 -847192.8702966275 2857233.451324551 0 0 0 0 0 45596634.02729586 -2236024.899432686 -2236024.899432686 2830691.150410284 0 0 0 0 0 47374638.29196153 -3254195.633678898 -3254195.633678898 3184644.983946842 0 0 0 0 0 48251820.61281167 -4615610.51902165 -4615610.51902165 3081003.801698867 0 0 0 0 0 49185011.0577515 -6051700.212527172 -6051700.212527172 2936857.228340995 0 0 0 0 0 50158476.95691271 -7462850.769043 -7462850.769043 2718782.58522069 0 0 0 0 0 52804583.50580888 -8842062.198930092 -8842062.198930092 2567498.297559059 0 0 0 0 0 50276791.01904666 -7497184.724559752 -7497184.724559752 2458044.330204592 0 0 0 0 0 53972925.20905982 -10050315.86786154 -10050315.86786154 2238289.129269846 0 0 0 0 0 55228849.47853357 -11183480.77026203 -11183480.77026203 1871014.632330964 0 0 0 0 0 56563147.84241417 -12238709.65327491 -12238709.65327491 1470374.913422147 0 0 0 0 0 57964254.32027476 -13213620.97010167 -13213620.97010167 1040983.67584949 0 0 0 0 0 59422317.40099876 -14106634.69440021 -14106634.69440021 587739.4147061803 0 0 0 0 0 60927828.75072351 -14917295.73906833 -14917295.73906833 115369.3580247394 0 0 0 0 0 61846980.55464087 -14650265.46270934 -14650265.46270934 152028.8140615588 0 0 0 0 0 63651881.19123712 -15330576.75355655 -15330576.75355655 -257186.5402066593 0 0 0 0 0 65162586.84390803 -15944051.15079935 -15944051.15079935 -744739.7339308779 0 0 0 0 0 66680217.5858213 -16483030.5037603 -16483030.5037603 -1233454.180570144 0 0 0 0 0 68182895.41104987 -16945730.65191476 -16945730.65191476 -1728911.836943188 0 0 0 0 0 69690919.83658715 -17330979.36582192 -17330979.36582192 -2218550.312138796 0 0 0 0 0 71197315.36215702 -17639913.72042029 -17639913.72042029 -2696077.471011301 0 0 0 0 0 72507846.64143135 -17217473.3339534 -17217473.3339534 -2379808.155128765 0 0 0 0 0 73467812.00312468 -17420219.06453762 -17420219.06453762 -2945050.163375689 0 0 0 0 0 74916764.13621263 -17609903.98892414 -17609903.98892414 -3392494.593177638 0 0 0 0 0 76721852.71491575 -16756065.36231884 -16756065.36231884 -2885764.697227578 0 0 0 0 0 78067717.93825756 -16861033.31408945 -16861033.31408945 -3276605.590539336 0 0 0 0 0 79875123.44447918 -16519537.50537561 -16519537.50537561 -3494822.89548461 0 0 0 0 0 78760807.55561835 -16915354.44478434 -16915354.44478434 -3822497.198512116 0 0 0 0 0 81146529.73757903 -16548112.95263312 -16548112.95263312 -3865387.570718394 0 0 0 0 0 82388239.99185736 -16535261.29014586 -16535261.29014586 -4221534.758907388 0 0 0 0 0 83596888.71466738 -16484022.4090874 -16484022.4090874 -4562405.296603447 0 0 0 0 0 84770919.72021168 -16397247.73676337 -16397247.73676337 -4887354.442564011 0 0 0 0 0 86164139.1732147 -15895215.9064737 -15895215.9064737 -4993548.881606634 0 0 0 0 0 85120186.46645886 -16286885.7291719 -16286885.7291719 -5377704.790775838 0 0 0 0 0 87223820.53388979 -15753484.33701074 -15753484.33701074 -5278333.664545442 0 0 0 0 0 88247509.57409325 -15585277.29487208 -15585277.29487208 -5546405.154418499 0 0 0 0 0 89235696.22914518 -15393571.51795431 -15393571.51795431 -5797515.651824945 0 0 0 0 0 90184957.30754843 -15180187.12870633 -15180187.12870633 -6031398.523845416 0 0 0 0 0 91096815.35899423 -14947651.41226609 -14947651.41226609 -6248157.491483435 0 0 0 0 0 91126357.4487801 -14738893.36832209 -14738893.36832209 -6622195.690334612 0 0 0 0 0 92832151.05376452 -14133648.79238716 -14133648.79238716 -6408662.019503811 0 0 0 0 0 91960771.41889988 -14479683.96282625 -14479683.96282625 -6802347.164222927 0 0 0 0 0 93607932.90886648 -13868293.2460446 -13868293.2460446 -6573820.958786752 0 0 0 0 0 94348119.22237736 -13592162.66967718 -13592162.66967718 -6723438.978457591 0 0 0 0 0 95053865.20329365 -13306797.56075689 -13306797.56075689 -6857006.403212655 0 0 0 0 0 95726613.92425898 -13013098.5680625 -13013098.5680625 -6975418.541394225 0 0 0 0 0 96292394.63397136 -12482169.75197607 -12482169.75197607 -6864255.461571073 0 0 0 0 0 95569407.20595469 -12778420.99962714 -12778420.99962714 -7226787.311194221 0 0 0 0 0 96885445.70942073 -12189729.06146448 -12189729.06146448 -6956791.275362401 0 0 0 0 0 97448732.03531247 -11893255.38819057 -11893255.38819057 -7036476.851082151 0 0 0 0 0 97983160.20717503 -11593820.89417422 -11593820.89417422 -7103699.548501865 0 0 0 0 0 98489271.28520869 -11292390.80275779 -11292390.80275779 -7159005.604898944 0 0 0 0 0 98968317.06822596 -10990117.83769905 -10990117.83769905 -7203180.135058186 0 0 0 0 0 99160596.43735562 -10469110.08302262 -10469110.08302262 -7368179.875229299 0 0 0 0 0 99421033.97836578 -10687883.406009 -10687883.406009 -7236660.547881462 0 0 0 0 0 99699621.747858 -10240066.3701997 -10240066.3701997 -7066611.461410458 0 0 0 0 0 100094129.3819042 -9951198.696038434 -9951198.696038434 -7083202.084662976 0 0 0 0 0 100465595.1418504 -9663566.409173777 -9663566.409173777 -7090225.847799135 0 0 0 0 0 100816617.2556632 -9377942.699439615 -9377942.699439615 -7089140.000998626 0 0 0 0 0 101144803.6471445 -9096535.87920416 -9096535.87920416 -7081991.311112961 0 0 0 0 0 101448216.0049688 -8820726.603135752 -8820726.603135752 -7068672.560801568 0 0 0 0 0 101155337.9158965 -8630374.357571544 -8630374.357571544 -7110808.177611672 0 0 0 0 0 101547612.0744205 -8465064.851951383 -8465064.851951383 -6882091.878398138 0 0 0 0 0 101809224.9548655 -8202732.205666471 -8202732.205666471 -6847474.70808338 0 0 0 0 0 102047979.2396332 -7949022.632423784 -7949022.632423784 -6808521.697680115 0 0 0 0 0 102281112.3180597 -7692496.911521276 -7692496.911521276 -6765138.899105645 0 0 0 0 0 102004030.5051116 -7526390.150080623 -7526390.150080623 -6794296.064135618 0 0 0 0 0 102353477.3631511 -7347175.293706804 -7347175.293706804 -6563375.004728661 0 0 0 0 0 102240850.6286372 -7179284.683017649 -7179284.683017649 -6641913.536433203 0 0 0 0 0 102554124.7866325 -6975487.360787159 -6975487.360787159 -6420564.528040758 0 0 0 0 0 103074410.72453 -6472259.554669931 -6472259.554669931 -6392358.329455952 0 0 0 0 0 102862338.3896874 -6705952.368288969 -6705952.368288969 -6461630.120824229 0 0 0 0 0 103239367.9971345 -6269868.84221801 -6269868.84221801 -6365737.214407733 0 0 0 0 0 103132106.4259695 -6140213.936137683 -6140213.936137683 -6389702.050177732 0 0 0 0 0 103361680.2920207 -5944306.979545737 -5944306.979545737 -6214973.171789434 0 0 0 0 0 103613942.0927618 -5717690.618501175 -5717690.618501175 -6163383.453260009 0 0 0 0 0 103419307.8546119 -5584903.914452323 -5584903.914452323 -6228638.649372231 0 0 0 0 0 76124692.1031688 -17186253.14544327 -17186253.14544327 -3064221.873239853 0 0 0 0 0 43869953.99491587 -750194.6651571784 -750194.6651571784 2618079.948287811 0 0 0 0 0 46369923.73419572 -2557671.693964212 -2557671.693964212 3183558.792789215 0 0 0 0 0 45419468.63464993 -3059916.394821672 -3059916.394821672 2639158.131375958 0 0 0 0 0 46450352.55267116 -4471442.011361491 -4471442.011361491 2570765.728935109 0 0 0 0 0 47462630.30585027 -5946085.624085805 -5946085.624085805 2454647.617001153 0 0 0 0 0 48605883.9389693 -7378307.917404118 -7378307.917404118 2290594.529741088 0 0 0 0 0 51508705.70798882 -8791036.270458015 -8791036.270458015 2223251.422583941 0 0 0 0 0 51247746.54937675 -8806373.839482281 -8806373.839482281 2446282.860452302 0 0 0 0 0 52840285.44030973 -10010861.37154318 -10010861.37154318 1940980.41428829 0 0 0 0 0 54259742.60696515 -11155042.74959712 -11155042.74959712 1620262.578459567 0 0 0 0 0 55754734.72278333 -12220049.22721029 -12220049.22721029 1264577.75127496 0 0 0 0 0 57314105.73271178 -13203469.05506009 -13203469.05506009 878783.9438115964 0 0 0 0 0 58926155.64615734 -14103727.13706778 -14103727.13706778 467244.925062113 0 0 0 0 0 60579786.34320415 -14920344.37982126 -14920344.37982126 34274.79756918778 0 0 0 0 0 62471215.85051392 -15645808.46039554 -15645808.46039554 -371981.481927776 0 0 0 0 0 63467284.35836215 -15345722.30462338 -15345722.30462338 -290966.9957165834 0 0 0 0 0 65108025.4287581 -15962172.77020019 -15962172.77020019 -745407.2681223814 0 0 0 0 0 66751326.96286026 -16501096.69323917 -16501096.69323917 -1204290.885849718 0 0 0 0 0 68412385.73855314 -16964070.2666861 -16964070.2666861 -1661922.544581293 0 0 0 0 0 70057652.00320898 -17353155.22093029 -17353155.22093029 -2116341.781085871 0 0 0 0 0 71670081.83458544 -17668533.09607424 -17668533.09607424 -2566750.199309927 0 0 0 0 0 72693361.14826947 -17875413.06164001 -17875413.06164001 -3146774.696172896 0 0 0 0 0 73984038.25204669 -17442732.37104454 -17442732.37104454 -2808493.546890331 0 0 0 0 0 75463689.75071378 -17624296.34552277 -17624296.34552277 -3250266.993609065 0 0 0 0 0 76887556.5282353 -17277629.62501687 -17277629.62501687 -3619758.177925329 0 0 0 0 0 78212146.16836438 -17347323.39145717 -17347323.39145717 -4014560.06506244 0 0 0 0 0 80030601.84600902 -16949383.86514775 -16949383.86514775 -4210559.184766086 0 0 0 0 0 79378041.0706806 -16928865.26973003 -16928865.26973003 -3664708.523440229 0 0 0 0 0 81274993.36245365 -16940450.45037126 -16940450.45037126 -4583203.344531487 0 0 0 0 0 82490035.35656954 -16891213.69271008 -16891213.69271008 -4938689.894697966 0 0 0 0 0 83673527.75364761 -16805129.63537064 -16805129.63537064 -5276409.508061782 0 0 0 0 0 84823893.06317043 -16684710.00607177 -16684710.00607177 -5595299.008503972 0 0 0 0 0 86194825.08420634 -16143277.34735558 -16143277.34735558 -5670834.149338969 0 0 0 0 0 85908552.84121528 -16277605.08207155 -16277605.08207155 -5195627.380016913 0 0 0 0 0 87235613.42394768 -15972300.5447606 -15972300.5447606 -5945282.705658947 0 0 0 0 0 88241993.51994747 -15776059.34400238 -15776059.34400238 -6201395.030303856 0 0 0 0 0 89212239.54998083 -15557852.83468816 -15557852.83468816 -6438720.213767729 0 0 0 0 0 90146481.42495367 -15319523.84517978 -15319523.84517978 -6657203.712525649 0 0 0 0 0 91044473.56186748 -15063214.06369331 -15063214.06369331 -6856980.584741552 0 0 0 0 0 91970782.43363333 -14698024.03963296 -14698024.03963296 -6447905.41165638 0 0 0 0 0 92761117.48194854 -14206948.98696513 -14206948.98696513 -6965341.059856911 0 0 0 0 0 92808116.62802616 -14433476.43316534 -14433476.43316534 -6631068.218039919 0 0 0 0 0 93527373.32820523 -13922968.25883043 -13922968.25883043 -7111409.466887495 0 0 0 0 0 94258295.49707724 -13629125.32450165 -13629125.32450165 -7240959.87976878 0 0 0 0 0 94955737.15572408 -13327162.95218179 -13327162.95218179 -7354978.963289509 0 0 0 0 0 95621934.89993188 -13018682.14063847 -13018682.14063847 -7454636.760090643 0 0 0 0 0 96186987.28513043 -12477606.61417223 -12477606.61417223 -7313418.425481434 0 0 0 0 0 96367265.40738556 -12713162.96922315 -12713162.96922315 -7080438.867999444 0 0 0 0 0 96775024.06849144 -12172472.05144497 -12172472.05144497 -7386441.760183125 0 0 0 0 0 97334008.96318038 -11864277.27113074 -11864277.27113074 -7446572.920546118 0 0 0 0 0 97864761.91245545 -11553952.17368768 -11553952.17368768 -7494128.380343717 0 0 0 0 0 98368045.23172301 -11242807.90429175 -11242807.90429175 -7530157.375686141 0 0 0 0 0 98844840.23508291 -10931600.75934504 -10931600.75934504 -7554985.235947156 0 0 0 0 0 99848055.09224886 -10386613.50134358 -10386613.50134358 -7259931.519176196 0 0 0 0 0 99295902.57146627 -10621287.85228744 -10621287.85228744 -7569285.856028168 0 0 0 0 0 99578404.23724864 -10171690.58983375 -10171690.58983375 -7376130.528360173 0 0 0 0 0 99971930.97248468 -9876048.160410153 -9876048.160410153 -7374644.517508466 0 0 0 0 0 100342763.6313465 -9582996.492905909 -9582996.492905909 -7365510.494099783 0 0 0 0 0 100693544.5065202 -9292308.204535782 -9292308.204535782 -7347694.042603901 0 0 0 0 0 101022692.4818164 -9005580.888758289 -9005580.888758289 -7321642.531221466 0 0 0 0 0 101327889.0665966 -8722285.901815979 -8722285.901815979 -7285607.541421352 0 0 0 0 0 101729135.5862991 -8548325.9699996 -8548325.9699996 -7045665.158884452 0 0 0 0 0 101436274.6476297 -8367306.769463087 -8367306.769463087 -7078743.033060485 0 0 0 0 0 101702519.1233051 -8100247.923162499 -8100247.923162499 -7020471.698247485 0 0 0 0 0 101935616.5806199 -7844025.817300478 -7844025.817300478 -6976308.795842384 0 0 0 0 0 102166631.5308316 -7588004.070135663 -7588004.070135663 -6927413.020764881 0 0 0 0 0 102526940.1267253 -7428757.674992757 -7428757.674992757 -6701645.992607034 0 0 0 0 0 102264830.0009716 -7292512.880423659 -7292512.880423659 -6785278.906602569 0 0 0 0 0 102588582.3330496 -7093321.002783294 -7093321.002783294 -6520854.267335572 0 0 0 0 0 102631567.1550245 -6954204.70530102 -6954204.70530102 -6680555.910634729 0 0 0 0 0 102800259.7269297 -6586109.266655969 -6586109.266655969 -6562129.243596585 0 0 0 0 0 102973994.5634371 -6369731.792266299 -6369731.792266299 -6511135.463231492 0 0 0 0 0 102712749.2165593 -6777637.632347179 -6777637.632347179 -6583089.303837415 0 0 0 0 0 103171627.0555654 -6142098.001296164 -6142098.001296164 -6387230.981410167 0 0 0 0 0 103306785.4274197 -5898103.815861166 -5898103.815861166 -6399488.867124187 0 0 0 0 0 103498487.3434315 -5645306.354101165 -5645306.354101165 -6336764.457429766 0 0 0 0 0 103702925.7625722 -5416502.345875095 -5416502.345875095 -6004064.892997699 0 0 0 0 0 103791002.8076172 -5490963.363681219 -5490963.363681219 -6120417.084033847 0 0 0 0 0 76295643.67365065 -17738666.55461061 -17738666.55461061 -3821178.586497053 0 0 0 0 0 43302549.96325372 -814580.3659781525 -814580.3659781525 2633999.948430373 0 0 0 0 0 44544255.53162257 -2316365.938974106 -2316365.938974106 2787290.746119313 0 0 0 0 0 43985425.51437391 -2586388.756145515 -2586388.756145515 2468741.220446129 0 0 0 0 0 46635341.24303363 -4339223.499114617 -4339223.499114617 2893450.658429823 0 0 0 0 0 47483190.2732771 -5864697.725913584 -5864697.725913584 2747923.974163966 0 0 0 0 0 48512880.28524283 -7336987.94789462 -7336987.94789462 2550999.337071487 0 0 0 0 0 49623085.2453726 -8747983.698926587 -8747983.698926587 2293692.442666172 0 0 0 0 0 52441169.08684977 -10074901.40158395 -10074901.40158395 2125097.945914412 0 0 0 0 0 49866232.1066642 -8737873.787547335 -8737873.787547335 2069653.914678471 0 0 0 0 0 53732629.53693987 -11265954.37577747 -11265954.37577747 1761660.426899116 0 0 0 0 0 55108493.15707981 -12375866.12098387 -12375866.12098387 1361483.78242269 0 0 0 0 0 56557725.59844925 -13401999.01727281 -13401999.01727281 929908.4402794179 0 0 0 0 0 58068853.87918936 -14342523.65701207 -14342523.65701207 472129.5183205597 0 0 0 0 0 59631428.57144409 -15196472.37872027 -15196472.37872027 -6769.278172703282 0 0 0 0 0 61235964.62104287 -15963944.51443235 -15963944.51443235 -501893.3389271126 0 0 0 0 0 62265752.64172922 -15653532.7511004 -15653532.7511004 -415816.9379536796 0 0 0 0 0 64042687.69039972 -16292889.87236198 -16292889.87236198 -869853.9276330755 0 0 0 0 0 65629858.64794743 -16859439.75101153 -16859439.75101153 -1372884.355211559 0 0 0 0 0 67220661.3599427 -17347972.36371974 -17347972.36371974 -1879803.149298175 0 0 0 0 0 68795611.85341112 -17760854.66128008 -17760854.66128008 -2381803.297856799 0 0 0 0 0 70372891.02990811 -18098014.24566003 -18098014.24566003 -2873102.549040278 0 0 0 0 0 71983677.75717819 -18355119.54826197 -18355119.54826197 -3345484.438274131 0 0 0 0 0 73269556.86428735 -17892826.21017843 -17892826.21017843 -3015123.305707183 0 0 0 0 0 74221985.19793049 -18059896.01909572 -18059896.01909572 -3584960.363910851 0 0 0 0 0 75700436.08660381 -18198224.3499704 -18198224.3499704 -4026833.197666247 0 0 0 0 0 77517967.07217403 -17294745.94964059 -17294745.94964059 -3464210.278856604 0 0 0 0 0 78898530.77400005 -17359357.41615606 -17359357.41615606 -3847994.79096419 0 0 0 0 0 80695487.73583223 -16959416.05697639 -16959416.05697639 -4044511.914763957 0 0 0 0 0 79538173.26351306 -17377925.75479741 -17377925.75479741 -4403217.111359665 0 0 0 0 0 81988078.63168028 -16945331.62286349 -16945331.62286349 -4409419.528915311 0 0 0 0 0 83244555.51235209 -16890321.75794888 -16890321.75794888 -4759032.422117433 0 0 0 0 0 84465001.70066547 -16798078.8002581 -16798078.8002581 -5092075.497069004 0 0 0 0 0 85646854.09818493 -16671368.19280991 -16671368.19280991 -5407748.515384486 0 0 0 0 0 87008651.64547664 -16127837.33251821 -16127837.33251821 -5486914.430580817 0 0 0 0 0 85939717.83096987 -16532873.49218017 -16532873.49218017 -5895102.944191567 0 0 0 0 0 88069762.6468675 -15950679.52882093 -15950679.52882093 -5760580.873535638 0 0 0 0 0 89092454.71344753 -15748520.69419051 -15748520.69419051 -6016515.551204504 0 0 0 0 0 90076889.42596287 -15524082.24799872 -15524082.24799872 -6255116.371722739 0 0 0 0 0 91020721.83528502 -15279792.53314983 -15279792.53314983 -6475306.337723015 0 0 0 0 0 91924059.78603761 -15017698.79312673 -15017698.79312673 -6677689.724319615 0 0 0 0 0 91906375.00303823 -14791525.3703412 -14791525.3703412 -7038970.162575387 0 0 0 0 0 93608151.51697803 -14155718.66155985 -14155718.66155985 -6797664.312086992 0 0 0 0 0 92732451.06610452 -14505770.32949848 -14505770.32949848 -7202846.615464237 0 0 0 0 0 94371344.36193454 -13866764.84165819 -13866764.84165819 -6947830.829985426 0 0 0 0 0 95098719.72553875 -13568294.51052594 -13568294.51052594 -7082204.69393299 0 0 0 0 0 95790912.13045016 -13261493.3740699 -13261493.3740699 -7200523.633788687 0 0 0 0 0 96449384.83016798 -12948430.96798664 -12948430.96798664 -7304410.271171936 0 0 0 0 0 96976260.77006219 -12408278.93599785 -12408278.93599785 -7171792.331934138 0 0 0 0 0 96256724.92784405 -12704877.51809068 -12704877.51809068 -7539711.566719318 0 0 0 0 0 97553742.93728401 -12099462.95222341 -12099462.95222341 -7249763.231646496 0 0 0 0 0 98100994.20006415 -11787815.95892387 -11787815.95892387 -7314895.262994973 0 0 0 0 0 98618760.07652874 -11474489.02013463 -11474489.02013463 -7367862.306573161 0 0 0 0 0 99108177.8661043 -11160483.05866449 -11160483.05866449 -7409166.275639099 0 0 0 0 0 99570142.99904205 -10846687.58831148 -10846687.58831148 -7439379.714500709 0 0 0 0 0 99721978.18925719 -10312928.70658932 -10312928.70658932 -7573502.384734264 0 0 0 0 0 100005612.573848 -10533955.28017942 -10533955.28017942 -7459024.956108212 0 0 0 0 0 100249701.2049092 -10087199.97247956 -10087199.97247956 -7273559.120987904 0 0 0 0 0 100626930.9209584 -9790164.872070106 -9790164.872070106 -7277307.049165401 0 0 0 0 0 100982166.5276904 -9495553.021046229 -9495553.021046229 -7272095.044319187 0 0 0 0 0 101316302.4131851 -9204145.320057604 -9204145.320057604 -7259663.671046196 0 0 0 0 0 101629048.5001698 -8916125.68455492 -8916125.68455492 -7240478.919119211 0 0 0 0 0 101919337.2376621 -8632127.82924794 -8632127.82924794 -7213895.032162896 0 0 0 0 0 101611446.5062703 -8445201.145739162 -8445201.145739162 -7245919.411710755 0 0 0 0 0 102002817.7306907 -8271844.640310009 -8271844.640310009 -7003048.32587578 0 0 0 0 0 102239940.7677024 -8016650.895841754 -8016650.895841754 -6980720.300668792 0 0 0 0 0 102465496.2865307 -7754786.80351838 -7754786.80351838 -6921055.546693562 0 0 0 0 0 102694282.518179 -7492096.604303905 -7492096.604303905 -6866346.321792556 0 0 0 0 0 102415004.3815705 -7342017.430874062 -7342017.430874062 -6876423.264526634 0 0 0 0 0 102726898.5792524 -7208009.465919525 -7208009.465919525 -6692619.278267603 0 0 0 0 0 102673092.7772168 -7080942.145416505 -7080942.145416505 -6747010.795966549 0 0 0 0 0 102846876.9465408 -6879754.241360876 -6879754.241360876 -6571642.968429061 0 0 0 0 0 103255218.5467284 -6492988.718412855 -6492988.718412855 -6511091.205847132 0 0 0 0 0 103404844.0428648 -6273923.648158425 -6273923.648158425 -6459204.85408559 0 0 0 0 0 103108796.0809505 -6704485.931204233 -6704485.931204233 -6592023.467498408 0 0 0 0 0 103526299.0916124 -6062729.589484402 -6062729.589484402 -6420446.054531135 0 0 0 0 0 103705979.1550474 -5804306.259552643 -5804306.259552643 -6293864.319377352 0 0 0 0 0 103874676.5989375 -5561488.055416039 -5561488.055416039 -6230491.959373952 0 0 0 0 0 103597333.3387881 -5349126.284531947 -5349126.284531947 -6182816.28971761 0 0 0 0 0 103686636.7378368 -5424694.503666599 -5424694.503666599 -6265732.443234738 0 0 0 0 0 103859223.0914326 -5195769.325469261 -5195769.325469261 -5958883.216184733 0 0 0 0 0 76961417.88046245 -17749512.25326754 -17749512.25326754 -3661099.201445298 0 0 0 0 0 42088472.07424928 -596631.5143477318 -596631.5143477318 2272173.207735223 0 0 0 0 0 42254750.6816974 -2300679.89919229 -2300679.89919229 2102943.797508931 0 0 0 0 0 45110465.31780288 -3970821.962010979 -3970821.962010979 2718178.926087507 0 0 0 0 0 44676386.19823753 -4194150.867322539 -4194150.867322539 2324647.539678855 0 0 0 0 0 45699640.88429958 -5738103.185580648 -5738103.185580648 2239383.003185707 0 0 0 0 0 46863686.76989733 -7230349.135050781 -7230349.135050781 2085215.148542134 0 0 0 0 0 48154170.5079185 -8661254.773102917 -8661254.773102917 1883886.083936588 0 0 0 0 0 51234350.65251808 -10021130.66402141 -10021130.66402141 1800242.716428041 0 0 0 0 0 50846639.95268065 -10082268.18426159 -10082268.18426159 1983436.509548316 0 0 0 0 0 52697531.02140705 -11224432.00547744 -11224432.00547744 1486161.841266263 0 0 0 0 0 54243592.27488278 -12345178.18768439 -12345178.18768439 1134004.849025842 0 0 0 0 0 55859879.02870069 -13380640.50622823 -13380640.50622823 748674.2955289439 0 0 0 0 0 57534286.46818541 -14329078.37829175 -14329078.37829175 335290.0541612808 0 0 0 0 0 59255032.72041547 -15189509.58352775 -15189509.58352775 -101378.9104452417 0 0 0 0 0 61010251.93180601 -15962239.73138157 -15962239.73138157 -556962.8424052948 0 0 0 0 0 62871822.54396976 -16645994.87191861 -16645994.87191861 -1008113.332234086 0 0 0 0 0 63973173.18520913 -16304301.2487398 -16304301.2487398 -878705.426612392 0 0 0 0 0 65690419.82093789 -16872781.81469417 -16872781.81469417 -1349333.647838688 0 0 0 0 0 67405052.90779105 -17363862.6693245 -17363862.6693245 -1824708.679715867 0 0 0 0 0 69129160.11714226 -17774440.78674762 -17774440.78674762 -2293139.23097694 0 0 0 0 0 70838972.68257169 -18102892.93135983 -18102892.93135983 -2760017.771201951 0 0 0 0 0 72494153.74919052 -18360949.82885798 -18360949.82885798 -3227241.868966968 0 0 0 0 0 73513799.90469518 -18530365.86755538 -18530365.86755538 -3785406.941765434 0 0 0 0 0 74797549.77108039 -18061131.71394353 -18061131.71394353 -3445072.357752732 0 0 0 0 0 76336883.2683671 -18199062.77732731 -18199062.77732731 -3871860.21787115 0 0 0 0 0 77669447.22642276 -17804050.21320285 -17804050.21320285 -4225062.38088334 0 0 0 0 0 79019581.77245387 -17824299.94509147 -17824299.94509147 -4618492.090285549 0 0 0 0 0 80830388.05271974 -17367074.1259364 -17367074.1259364 -4785944.241027664 0 0 0 0 0 80235740.92275505 -17383042.0699502 -17383042.0699502 -4231602.327287178 0 0 0 0 0 82093704.16327131 -17313852.94979592 -17313852.94979592 -5150716.173181025 0 0 0 0 0 83323973.96895589 -17222298.30809546 -17222298.30809546 -5497044.105700771 0 0 0 0 0 84519495.42871714 -17094558.85612945 -17094558.85612945 -5823587.747926633 0 0 0 0 0 85678273.60684828 -16934073.03830522 -16934073.03830522 -6130166.485554204 0 0 0 0 0 87019333.1299329 -16352209.28667365 -16352209.28667365 -6175242.817114782 0 0 0 0 0 86789114.87130973 -16513152.07550355 -16513152.07550355 -5705528.184980996 0 0 0 0 0 88061308.6356229 -16145489.66669189 -16145489.66669189 -6435867.942957769 0 0 0 0 0 89068446.44377966 -15915650.28573844 -15915650.28573844 -6677481.751858929 0 0 0 0 0 90035670.2151545 -15665276.98221491 -15665276.98221491 -6899540.730825684 0 0 0 0 0 90964848.60235246 -15395932.69300739 -15395932.69300739 -7101609.156978159 0 0 0 0 0 91855455.05316339 -15111047.14365732 -15111047.14365732 -7285597.361645535 0 0 0 0 0 92788961.99010836 -14740367.93081588 -14740367.93081588 -6862715.099745865 0 0 0 0 0 93522579.65741581 -14208329.59366263 -14208329.59366263 -7349282.767509095 0 0 0 0 0 93614499.40157928 -14449400.27889482 -14449400.27889482 -7030459.88362554 0 0 0 0 0 94276610.73960502 -13901055.07364892 -13901055.07364892 -7479178.208853144 0 0 0 0 0 94995691.91945633 -13585441.98463814 -13585441.98463814 -7592247.255618245 0 0 0 0 0 95681109.26947024 -13263388.63171934 -13263388.63171934 -7690167.291302389 0 0 0 0 0 96333556.71863988 -12935869.91119507 -12935869.91119507 -7773427.449054176 0 0 0 0 0 96860458.87128879 -12386789.61347835 -12386789.61347835 -7610394.382576649 0 0 0 0 0 97074536.48756568 -12630380.94387451 -12630380.94387451 -7394380.033533849 0 0 0 0 0 97433642.51725045 -12065893.12342671 -12065893.12342671 -7667805.131683529 0 0 0 0 0 97977411.73479147 -11743169.36757792 -11743169.36757792 -7712335.664632267 0 0 0 0 0 98492375.06349507 -11419786.14704608 -11419786.14704608 -7744917.317030625 0 0 0 0 0 98979548.85310829 -11096570.17770321 -11096570.17770321 -7765977.084976655 0 0 0 0 0 99439862.75885263 -10774456.07453617 -10774456.07453617 -7776201.151053621 0 0 0 0 0 100414861.77176 -10223443.78695628 -10223443.78695628 -7468872.064505823 0 0 0 0 0 99874419.16190191 -10454515.66939582 -10454515.66939582 -7776216.110232582 0 0 0 0 0 100123140.1894235 -10006814.54338991 -10006814.54338991 -7567249.077182703 0 0 0 0 0 100499808.9961184 -9703697.61199455 -9703697.61199455 -7553123.787974477 0 0 0 0 0 100854480.1904819 -9403530.415495427 -9403530.415495427 -7531056.738744838 0 0 0 0 0 101188397.0986362 -9107286.099611815 -9107286.099611815 -7502553.092016805 0 0 0 0 0 101502107.2691068 -8813964.442182472 -8813964.442182472 -7464609.122508676 0 0 0 0 0 101794382.5989242 -8525152.041676717 -8525152.041676717 -7419731.766247412 0 0 0 0 0 102194137.0203353 -8348417.472385198 -8348417.472385198 -7173819.329124147 0 0 0 0 0 101887389.1987741 -8172471.39031294 -8172471.39031294 -7198600.482305733 0 0 0 0 0 102130186.2800246 -7902008.586581584 -7902008.586581584 -7127909.716629679 0 0 0 0 0 102349208.9343343 -7644818.093760354 -7644818.093760354 -7083878.07384502 0 0 0 0 0 102581201.1240274 -7389218.579278445 -7389218.579278445 -7028170.372705251 0 0 0 0 0 102902316.2245024 -7244752.156703597 -7244752.156703597 -6817375.196683664 0 0 0 0 0 102641668.75574 -7090573.339951227 -7090573.339951227 -6762219.440289657 0 0 0 0 0 102821077.6072345 -6855559.873766495 -6855559.873766495 -6794139.515964887 0 0 0 0 0 103165187.6685296 -6376990.847983668 -6376990.847983668 -6618622.234177777 0 0 0 0 0 103014143.3070595 -6605106.203861739 -6605106.203861739 -6683650.098490634 0 0 0 0 0 103308606.5788229 -6151512.897603997 -6151512.897603997 -6552025.918735806 0 0 0 0 0 103434028.7974475 -5929607.589320592 -5929607.589320592 -6472106.618585856 0 0 0 0 0 103569259.6221605 -5708150.108111255 -5708150.108111255 -6433387.930622061 0 0 0 0 0 103753052.8734729 -5486965.602081937 -5486965.602081937 -6371366.787723871 0 0 0 0 0 103942819.3087825 -5256119.298703633 -5256119.298703633 -6059169.377412753 0 0 0 0 0 104017793.1781812 -5329337.803455415 -5329337.803455415 -6146512.295806093 0 0 0 0 0 103761951.1029722 -5124327.228307825 -5124327.228307825 -6079866.590584777 0 0 0 0 0 104002563.5954564 -4999557.087519849 -4999557.087519849 -5909342.962271236 0 0 0 0 0 77104611.36450922 -18271226.94952917 -18271226.94952917 -4455999.561446722 0 0 0 0 0 41406750.07435337 -778925.3604419993 -778925.3604419993 2071228.340825502 0 0 0 0 0 42788792.2516459 -2009689.982023177 -2009689.982023177 2611377.038133429 0 0 0 0 0 43431288.89440998 -3592467.650163476 -3592467.650163476 2484845.391323474 0 0 0 0 0 42855222.55923627 -3860666.421057742 -3860666.421057742 2083920.115414993 0 0 0 0 0 45823051.58484316 -5622415.164451944 -5622415.164451944 2556950.564976858 0 0 0 0 0 46789371.21451244 -7180526.84935762 -7180526.84935762 2358175.865294421 0 0 0 0 0 47929111.87457541 -8665698.321611514 -8665698.321611514 2110205.395536987 0 0 0 0 0 49182253.07336657 -10069420.99291958 -10069420.99291958 1810632.248708047 0 0 0 0 0 52172209.33161286 -11335233.01718857 -11335233.01718857 1626292.589732394 0 0 0 0 0 49558436.30265236 -10011522.03253167 -10011522.03253167 1627529.32225055 0 0 0 0 0 53590408.9738191 -12503454.00847833 -12503454.00847833 1228950.125194179 0 0 0 0 0 55088555.97744276 -13584060.31446585 -13584060.31446585 796967.5048635234 0 0 0 0 0 56654657.45232676 -14575089.34120082 -14575089.34120082 336261.2172660809 0 0 0 0 0 58276900.31759363 -15475366.03318103 -15475366.03318103 -147897.2424648491 0 0 0 0 0 59944298.42644275 -16284704.10704353 -16284704.10704353 -649986.8193066532 0 0 0 0 0 61646897.7375076 -17003717.62871981 -17003717.62871981 -1164804.082472492 0 0 0 0 0 62788443.29947694 -16647792.75785736 -16647792.75785736 -1026811.513696314 0 0 0 0 0 64528769.77754566 -17243243.36239119 -17243243.36239119 -1520271.079948297 0 0 0 0 0 66194809.5846561 -17756773.94886832 -17756773.94886832 -2033988.36064932 0 0 0 0 0 67867403.81479642 -18189276.58272139 -18189276.58272139 -2548316.458300854 0 0 0 0 0 69537958.37159324 -18546005.17664539 -18546005.17664539 -3055663.110600904 0 0 0 0 0 71178898.57868664 -18833341.65110555 -18833341.65110555 -3550147.965385281 0 0 0 0 0 72749656.65965752 -19033350.8724893 -19033350.8724893 -4028308.567120977 0 0 0 0 0 74124727.76954499 -18536970.21686725 -18536970.21686725 -3646749.498022747 0 0 0 0 0 75046047.4669763 -18660567.6425638 -18660567.6425638 -4232892.574982612 0 0 0 0 0 76554681.0904354 -18749622.47443216 -18749622.47443216 -4684644.900501829 0 0 0 0 0 78398909.4355007 -17814142.42268596 -17814142.42268596 -4054944.530154727 0 0 0 0 0 79797902.23181751 -17825697.82635888 -17825697.82635888 -4439902.584289161 0 0 0 0 0 81574943.00856359 -17368120.4918216 -17368120.4918216 -4607316.500196963 0 0 0 0 0 80369688.58130071 -17807375.05207208 -17807375.05207208 -5001448.168948051 0 0 0 0 0 82881547.35442425 -17308818.53880006 -17308818.53880006 -4965904.15813905 0 0 0 0 0 84150975.71702231 -17210851.11335472 -17210851.11335472 -5307172.845895598 0 0 0 0 0 85379142.82320006 -17076707.62930556 -17076707.62930556 -5630305.733292839 0 0 0 0 0 86565834.52419378 -16909532.70972102 -16909532.70972102 -5934752.90347001 0 0 0 0 0 87890256.9940134 -16326111.84154661 -16326111.84154661 -5984880.377034901 0 0 0 0 0 86799029.2954164 -16743265.56158822 -16743265.56158822 -6416030.138204693 0 0 0 0 0 88949894.53504793 -16113052.03549898 -16113052.03549898 -6245475.686203746 0 0 0 0 0 89968595.03677763 -15877223.38480073 -15877223.38480073 -6488019.81988047 0 0 0 0 0 90947054.05815187 -15620629.32831923 -15620629.32831923 -6712047.098570094 0 0 0 0 0 91880879.21233729 -15345442.86714946 -15345442.86714946 -6917021.050963176 0 0 0 0 0 92775708.92946689 -15054480.22335402 -15054480.22335402 -7104022.862949471 0 0 0 0 0 92708425.00101481 -14811617.30202046 -14811617.30202046 -7450326.791917597 0 0 0 0 0 94400855.21838954 -14146969.73850591 -14146969.73850591 -7181251.592703157 0 0 0 0 0 93523566.15775129 -14499981.4347216 -14499981.4347216 -7596551.672842117 0 0 0 0 0 95149758.93209706 -13834823.52127725 -13834823.52127725 -7315369.868216621 0 0 0 0 0 95862146.38247794 -13514742.16232376 -13514742.16232376 -7433626.415674436 0 0 0 0 0 96538393.08204296 -13188017.62280924 -13188017.62280924 -7536294.989343946 0 0 0 0 0 97180702.2313405 -12856090.1325808 -12856090.1325808 -7624140.376595874 0 0 0 0 0 97666970.70873183 -12308647.76154506 -12308647.76154506 -7470442.192705616 0 0 0 0 0 96953497.83362295 -12604402.72229795 -12604402.72229795 -7841710.552578816 0 0 0 0 0 98227523.49586885 -11984276.01128779 -11984276.01128779 -7533279.087123697 0 0 0 0 0 98757107.11390154 -11658578.76608548 -11658578.76608548 -7583610.272285875 0 0 0 0 0 99257031.31719239 -11332294.46464554 -11332294.46464554 -7621629.95455164 0 0 0 0 0 99728367.76327801 -11006498.34027578 -11006498.34027578 -7648261.31099945 0 0 0 0 0 100172182.0214377 -10682007.01551067 -10682007.01551067 -7664024.642000331 0 0 0 0 0 100283273.2927869 -10137143.94185224 -10137143.94185224 -7765758.646195758 0 0 0 0 0 100589387.6818652 -10359835.17928333 -10359835.17928333 -7669541.517781018 0 0 0 0 0 100797916.7366861 -9916129.242452102 -9916129.242452102 -7469316.053304287 0 0 0 0 0 101157888.225889 -9611450.671828704 -9611450.671828704 -7459907.385776144 0 0 0 0 0 101495768.7553167 -9310422.277811207 -9310422.277811207 -7442914.648968183 0 0 0 0 0 101813436.1873217 -9012182.905643752 -9012182.905643752 -7417043.324643322 0 0 0 0 0 102110352.1144305 -8718138.057881199 -8718138.057881199 -7385170.907997681 0 0 0 0 0 102389720.833992 -8426787.279939327 -8426787.279939327 -7344264.244592893 0 0 0 0 0 102073894.9360144 -8243878.325938278 -8243878.325938278 -7367860.314820974 0 0 0 0 0 102442085.3885176 -8079800.061636652 -8079800.061636652 -7139285.622663395 0 0 0 0 0 102661044.6157574 -7818723.345430821 -7818723.345430821 -7095905.119987817 0 0 0 0 0 102878532.5474243 -7551775.935756219 -7551775.935756219 -7026718.71277497 0 0 0 0 0 103085862.6315354 -7295500.890172189 -7295500.890172189 -6970710.839842511 0 0 0 0 0 102785033.7198247 -7133989.668329924 -7133989.668329924 -6969636.360994843 0 0 0 0 0 103069133.9627612 -7011160.974159137 -7011160.974159137 -6795595.115115679 0 0 0 0 0 103252030.1619993 -6751628.013876326 -6751628.013876326 -6701888.911781105 0 0 0 0 0 103591705.7077029 -6287266.027647036 -6287266.027647036 -6577778.664059957 0 0 0 0 0 103435152.2268312 -6515382.668723774 -6515382.668723774 -6644223.658942321 0 0 0 0 0 103726540.8360386 -6065925.235551477 -6065925.235551477 -6512646.25222519 0 0 0 0 0 103862305.0078594 -5837036.406601122 -5837036.406601122 -6430447.954950131 0 0 0 0 0 104008927.2713252 -5609983.339239566 -5609983.339239566 -6342374.134863786 0 0 0 0 0 104127963.5586235 -5407292.491442419 -5407292.491442419 -6288313.841370999 0 0 0 0 0 103931709.3734317 -5218865.145185738 -5218865.145185738 -6253297.764771026 0 0 0 0 0 104026838.5885556 -5300169.374239855 -5300169.374239855 -6310096.164868366 0 0 0 0 0 104082760.3976615 -5023966.627171649 -5023966.627171649 -6054004.583288115 0 0 0 0 0 103898711.4012235 -4934069.955714305 -4934069.955714305 -6055427.85007043 0 0 0 0 0 77879292.93517113 -18274453.74911212 -18274453.74911212 -4281319.972989493 0 0 0 0 0 41231248.9946171 -785233.7767129064 -785233.7767129064 2149175.313066415 0 0 0 0 0 40078683.43489349 -1965284.77725462 -1965284.77725462 1812904.71949694 0 0 0 0 0 40787697.78877627 -3467487.433161722 -3467487.433161722 1691275.696799292 0 0 0 0 0 44031668.06582154 -5382970.615141005 -5382970.615141005 2283511.422357995 0 0 0 0 0 43871064.27109854 -5499341.048218286 -5499341.048218286 2007464.273821766 0 0 0 0 0 45051162.18687924 -7067884.912966849 -7067884.912966849 1867270.029150041 0 0 0 0 0 46367525.64885766 -8562691.815377079 -8562691.815377079 1667784.216478607 0 0 0 0 0 47808984.6105789 -9981346.292063007 -9981346.292063007 1422651.368375792 0 0 0 0 0 51066800.69816367 -11278506.75161914 -11278506.75161914 1323608.223836971 0 0 0 0 0 50544348.95284227 -11388983.34365069 -11388983.34365069 1461590.031190113 0 0 0 0 0 52664626.33409424 -12458710.78820607 -12458710.78820607 977338.1827594881 0 0 0 0 0 54339626.13953009 -13549720.82304655 -13549720.82304655 594676.158309091 0 0 0 0 0 56077745.34691983 -14549528.69925154 -14549528.69925154 181039.7197465985 0 0 0 0 0 57867187.62010449 -15457021.5627502 -15457021.5627502 -258253.0887989537 0 0 0 0 0 59695554.10664669 -16271975.06367428 -16271975.06367428 -718063.0205892611 0 0 0 0 0 61550890.07470011 -16994921.38846823 -16994921.38846823 -1193724.962302386 0 0 0 0 0 63373741.04851148 -17632987.87108269 -17632987.87108269 -1687379.803426406 0 0 0 0 0 64580938.49405802 -17246514.00271676 -17246514.00271676 -1505597.934770738 0 0 0 0 0 66379067.35921774 -17760378.57575978 -17760378.57575978 -1987665.122852314 0 0 0 0 0 68173657.19256674 -18193293.6833184 -18193293.6833184 -2472580.1433621 0 0 0 0 0 69956731.87952453 -18548458.44468166 -18548458.44468166 -2953214.537425078 0 0 0 0 0 71690851.83216055 -18827282.82543065 -18827282.82543065 -3430207.513187116 0 0 0 0 0 73411200.97206129 -19032972.74699926 -19032972.74699926 -3883543.706944956 0 0 0 0 0 74336844.26062435 -19149000.26135978 -19149000.26135978 -4460919.786451011 0 0 0 0 0 75699197.21387672 -18660623.42373767 -18660623.42373767 -4077344.680478828 0 0 0 0 0 77295948.57171935 -18744361.68014516 -18744361.68014516 -4509652.827242514 0 0 0 0 0 78518712.08448692 -18288080.79292508 -18288080.79292508 -4853879.890621093 0 0 0 0 0 79893623.65541893 -18261311.81338887 -18261311.81338887 -5237179.794176472 0 0 0 0 0 81684425.87243827 -17749502.77073992 -17749502.77073992 -5373777.546274461 0 0 0 0 0 81156208.73435205 -17801017.48626095 -17801017.48626095 -4816323.26863511 0 0 0 0 0 82963786.09099424 -17652292.43900442 -17652292.43900442 -5729098.138382144 0 0 0 0 0 84206592.239638 -17516984.83116549 -17516984.83116549 -6063270.258297297 0 0 0 0 0 85410625.69229676 -17347513.79662028 -17347513.79662028 -6377165.124680626 0 0 0 0 0 86574510.75703852 -17145926.04493942 -17145926.04493942 -6668168.454143353 0 0 0 0 0 87880329.75968929 -16525121.70309679 -16525121.70309679 -6681099.469329641 0 0 0 0 0 87708477.38422634 -16712263.69897885 -16712263.69897885 -6219734.345982428 0 0 0 0 0 88922182.17589894 -16283417.70200689 -16283417.70200689 -6926316.722612812 0 0 0 0 0 89925265.02107641 -16020089.19189103 -16020089.19189103 -7152107.165938029 0 0 0 0 0 90886808.53780562 -15737577.22619686 -15737577.22619686 -7356859.082743362 0 0 0 0 0 91808151.75083607 -15438645.21195557 -15438645.21195557 -7542823.429450205 0 0 0 0 0 92689900.30672924 -15124309.81191217 -15124309.81191217 -7707992.365230058 0 0 0 0 0 93627446.54580539 -14749614.10664861 -14749614.10664861 -7272952.089761274 0 0 0 0 0 94300794.56804751 -14178628.65742154 -14178628.65742154 -7725610.74887297 0 0 0 0 0 94437239.89793065 -14433061.59688963 -14433061.59688963 -7423748.465014969 0 0 0 0 0 95041700.59135805 -13849042.21117238 -13849042.21117238 -7838140.430717455 0 0 0 0 0 95746899.24283993 -13512584.31564659 -13512584.31564659 -7933956.950747116 0 0 0 0 0 96417169.16953386 -13170958.19806761 -13170958.19806761 -8014549.506669274 0 0 0 0 0 97054348.15736768 -12825268.65063952 -12825268.65063952 -8080825.942924706 0 0 0 0 0 97541586.87102121 -12270169.58499534 -12270169.58499534 -7896126.374508111 0 0 0 0 0 97788672.76900858 -12520881.45844811 -12520881.45844811 -7698696.348376789 0 0 0 0 0 98098641.26851851 -11934468.38516742 -11934468.38516742 -7937381.181975531 0 0 0 0 0 98625349.58366224 -11598308.83256964 -11598308.83256964 -7966118.404282806 0 0 0 0 0 99123065.25076544 -11262641.53712096 -11262641.53712096 -7983129.499314065 0 0 0 0 0 99592787.31058529 -10928345.16994535 -10928345.16994535 -7988997.437037255 0 0 0 0 0 100035655.7273349 -10596353.03321036 -10596353.03321036 -7984320.315178612 0 0 0 0 0 100979238.8043955 -10041256.86149513 -10041256.86149513 -7666244.476931577 0 0 0 0 0 100452456.821853 -10267383.73890574 -10267383.73890574 -7969605.760286443 0 0 0 0 0 100666190.8846881 -9823441.199077472 -9823441.199077472 -7746278.609823472 0 0 0 0 0 101025995.2832063 -9513422.202985266 -9513422.202985266 -7719335.268534736 0 0 0 0 0 101364040.6683055 -9207295.843954293 -9207295.843954293 -7684827.298403048 0 0 0 0 0 101681944.0857524 -8904673.828676464 -8904673.828676464 -7642868.960529168 0 0 0 0 0 101979607.7165187 -8606190.241120122 -8606190.241120122 -7593808.745326236 0 0 0 0 0 102261712.3376168 -8314170.43033621 -8314170.43033621 -7538534.647933536 0 0 0 0 0 102643870.951783 -8146069.490105522 -8146069.490105522 -7302827.417531079 0 0 0 0 0 102324228.8262394 -7965398.573988417 -7965398.573988417 -7300424.425612623 0 0 0 0 0 102547646.8200328 -7698715.87836282 -7698715.87836282 -7233507.907064985 0 0 0 0 0 102762293.9786193 -7439385.892897629 -7439385.892897629 -7175611.790761152 0 0 0 0 0 102968972.0080997 -7180580.826290592 -7180580.826290592 -7108921.044627541 0 0 0 0 0 103274266.2847466 -7044590.504430274 -7044590.504430274 -6913586.064757513 0 0 0 0 0 102969361.8280641 -6888869.844879599 -6888869.844879599 -6889305.775791712 0 0 0 0 0 103143592.0534564 -6645326.542445388 -6645326.542445388 -6831070.154431342 0 0 0 0 0 103486310.87587 -6174511.725047684 -6174511.725047684 -6672436.914795707 0 0 0 0 0 103329157.9060992 -6406035.267512803 -6406035.267512803 -6752787.826476184 0 0 0 0 0 103622127.5540958 -5945067.31531119 -5945067.31531119 -6589680.227745562 0 0 0 0 0 103759631.0702666 -5722139.601844108 -5722139.601844108 -6506054.691036027 0 0 0 0 0 103890674.6740509 -5510561.25841062 -5510561.25841062 -6435065.072407104 0 0 0 0 0 104037611.21748 -5294162.945845996 -5294162.945845996 -6300969.144386904 0 0 0 0 0 104031529.8277971 -5061038.224850169 -5061038.224850169 -6120830.310011855 0 0 0 0 0 104179102.688908 -5136785.931035422 -5136785.931035422 -6146411.282418944 0 0 0 0 0 104029947.5158216 -4928350.849186691 -4928350.849186691 -6122922.965691059 0 0 0 0 0 104154352.1199846 -4788799.782690533 -4788799.782690533 -5849459.207146422 0 0 0 0 0 104243511.9716896 -4814829.738543056 -4814829.738543056 -5935663.772374417 0 0 0 0 0 78003956.69577044 -18776003.14783109 -18776003.14783109 -5102171.363372936 0 0 0 0 0 39611792.72178607 -969844.6131424709 -969844.6131424709 1736977.104851869 0 0 0 0 0 41628004.75982 -3068715.032538745 -3068715.032538745 2176707.395853338 0 0 0 0 0 42257012.9831787 -5036577.763409093 -5036577.763409093 2020881.914489398 0 0 0 0 0 41954786.59580065 -5211749.339014761 -5211749.339014761 1670735.758549595 0 0 0 0 0 45013369.16099458 -7013608.942311573 -7013608.942311573 2117926.999842024 0 0 0 0 0 46158671.24061712 -8564435.097460749 -8564435.097460749 1887678.648227535 0 0 0 0 0 47445060.25547539 -10037026.9209415 -10037026.9209415 1601928.55239928 0 0 0 0 0 48843920.20278142 -11425651.51975424 -11425651.51975424 1263003.763332826 0 0 0 0 0 52004924.97875015 -12619638.66561699 -12619638.66561699 1068849.392545624 0 0 0 0 0 49363013.42336951 -11315186.95598926 -11315186.95598926 1129074.482276303 0 0 0 0 0 53553345.24475136 -13758301.0145082 -13758301.0145082 638772.4422828936 0 0 0 0 0 55175888.39576609 -14803011.65052378 -14803011.65052378 176965.1000549165 0 0 0 0 0 56860575.96854276 -15752366.67121325 -15752366.67121325 -310603.1160153247 0 0 0 0 0 58594655.078054 -16606179.4566906 -16606179.4566906 -818563.3253568452 0 0 0 0 0 60366875.03049855 -17364897.36996795 -17364897.36996795 -1341233.697680711 0 0 0 0 0 62164674.42344089 -18029371.64195999 -18029371.64195999 -1873566.541103959 0 0 0 0 0 63421860.4741628 -17626953.10000933 -17626953.10000933 -1680029.133627294 0 0 0 0 0 65111914.85425352 -18174181.52497096 -18174181.52497096 -2213289.341759633 0 0 0 0 0 66855475.70587944 -18630673.83389046 -18630673.83389046 -2738293.939594241 0 0 0 0 0 68600501.6495685 -19007502.85047859 -19007502.85047859 -3259661.233108886 0 0 0 0 0 70331695.95381624 -19314110.71146814 -19314110.71146814 -3769312.063027696 0 0 0 0 0 71993697.50002344 -19541929.6624174 -19541929.6624174 -4264796.023401447 0 0 0 0 0 73608119.38032107 -19670945.84579313 -19670945.84579313 -4725934.06952032 0 0 0 0 0 75058296.43567964 -19151566.91381849 -19151566.91381849 -4303116.97197945 0 0 0 0 0 75928832.46490924 -19232048.58997553 -19232048.58997553 -4916275.699318733 0 0 0 0 0 77483416.52275872 -19264543.88336892 -19264543.88336892 -5356568.446240318 0 0 0 0 0 79328547.5724903 -18284990.22037347 -18284990.22037347 -4672666.793426037 0 0 0 0 0 80753022.57343921 -18252798.41838328 -18252798.41838328 -5046084.593293523 0 0 0 0 0 82508684.15476607 -17739099.69550776 -17739099.69550776 -5183915.72930476 0 0 0 0 0 81263120.12005235 -18198054.1668515 -18198054.1668515 -5610129.692640883 0 0 0 0 0 83830709.63191825 -17635583.53939544 -17635583.53939544 -5533069.298485779 0 0 0 0 0 85108507.11436135 -17493630.18239214 -17493630.18239214 -5863526.121340584 0 0 0 0 0 86343695.96250494 -17317120.11235312 -17317120.11235312 -6174648.048628516 0 0 0 0 0 87528317.24113028 -17109220.87334913 -17109220.87334913 -6465260.852954018 0 0 0 0 0 88806594.41771373 -16487781.97619352 -16487781.97619352 -6485026.757812085 0 0 0 0 0 87696524.02484813 -16915674.30974273 -16915674.30974273 -6937370.307937785 0 0 0 0 0 89861820.57769178 -16239452.68034475 -16239452.68034475 -6731290.372140343 0 0 0 0 0 90877135.10392158 -15969585.72896795 -15969585.72896795 -6958158.81606561 0 0 0 0 0 91847114.45306869 -15680640.23315384 -15680640.23315384 -7166449.41033983 0 0 0 0 0 92770513.95053384 -15375573.1660767 -15375573.1660767 -7355035.214441215 0 0 0 0 0 93648252.67997666 -15056304.20545621 -15056304.20545621 -7524912.535438841 0 0 0 0 0 93530620.62683757 -14797946.02482762 -14797946.02482762 -7853361.381751394 0 0 0 0 0 95208295.76957624 -14106780.62857179 -14106780.62857179 -7557592.294539328 0 0 0 0 0 94331764.60447578 -14461912.68576111 -14461912.68576111 -7981538.330026243 0 0 0 0 0 95941419.76347809 -13772487.86593505 -13772487.86593505 -7675161.18460009 0 0 0 0 0 96636285.10425006 -13431557.1438243 -13431557.1438243 -7776456.583986734 0 0 0 0 0 97294655.7013316 -13085694.66142758 -13085694.66142758 -7862350.595946402 0 0 0 0 0 97918492.04902805 -12736146.80015298 -12736146.80015298 -7933605.972492389 0 0 0 0 0 98362661.02321519 -12183229.76633907 -12183229.76633907 -7758792.526685834 0 0 0 0 0 97657691.99844046 -12477025.85040797 -12477025.85040797 -8131607.269253857 0 0 0 0 0 98904488.50230822 -11844514.79425566 -11844514.79425566 -7805988.929551034 0 0 0 0 0 99415210.6609786 -11505453.10110154 -11505453.10110154 -7840485.667801827 0 0 0 0 0 99896084.44360323 -11167183.32621337 -11167183.32621337 -7863242.916819251 0 0 0 0 0 100348227.4951117 -10830552.91913491 -10830552.91913491 -7874893.25860464 0 0 0 0 0 100772613.5046455 -10496430.27522603 -10496430.27522603 -7876030.944765558 0 0 0 0 0 100842584.8306011 -9942128.662453869 -9942128.662453869 -7944495.369139294 0 0 0 0 0 101169525.5319394 -10165930.11193967 -10165930.11193967 -7867706.947466722 0 0 0 0 0 101343702.946261 -9726254.76703364 -9726254.76703364 -7652514.537359755 0 0 0 0 0 101685766.7974278 -9414834.440692604 -9414834.440692604 -7630200.286974595 0 0 0 0 0 102007436.604242 -9106726.202418346 -9106726.202418346 -7599406.709610622 0 0 0 0 0 102307872.7124806 -8803136.678224746 -8803136.678224746 -7562274.147570451 0 0 0 0 0 102588801.9610321 -8503759.280248834 -8503759.280248834 -7517826.544322503 0 0 0 0 0 102848817.9213465 -8211620.697957818 -8211620.697957818 -7468671.486255175 0 0 0 0 0 102520130.1288816 -8028362.98446959 -8028362.98446959 -7472568.646211361 0 0 0 0 0 102868892.1978837 -7875860.356504445 -7875860.356504445 -7259274.264898392 0 0 0 0 0 103078038.7725109 -7607186.93836086 -7607186.93836086 -7194543.165474432 0 0 0 0 0 103280660.6125451 -7342736.260503899 -7342736.260503899 -7123379.548277726 0 0 0 0 0 103470043.0306136 -7081992.926179552 -7081992.926179552 -7056293.746091264 0 0 0 0 0 103156824.3653005 -6924004.780564228 -6924004.780564228 -7035613.039910332 0 0 0 0 0 103454080.4486938 -6790328.905878116 -6790328.905878116 -6840538.945945216 0 0 0 0 0 103620185.913657 -6545868.97562001 -6545868.97562001 -6784883.291060118 0 0 0 0 0 103915802.368058 -6079222.27020698 -6079222.27020698 -6634641.423894174 0 0 0 0 0 103775776.3668208 -6308774.333428966 -6308774.333428966 -6712285.011089691 0 0 0 0 0 104047136.2812053 -5849576.70021574 -5849576.70021574 -6553082.727912784 0 0 0 0 0 104169176.8979393 -5627644.265885199 -5627644.265885199 -6472600.480100614 0 0 0 0 0 104282039.8713975 -5413260.476660036 -5413260.476660036 -6385722.940089029 0 0 0 0 0 104360526.5146032 -5215759.820930104 -5215759.820930104 -6329886.782220825 0 0 0 0 0 104290029.3603532 -5006677.824286295 -5006677.824286295 -6165253.029432943 0 0 0 0 0 104115168.7772663 -5094943.276653655 -5094943.276653655 -6272470.183725812 0 0 0 0 0 104336500.5267633 -4835465.257539241 -4835465.257539241 -6035783.219097643 0 0 0 0 0 104042364.3453348 -4718507.286543047 -4718507.286543047 -5998948.277958832 0 0 0 0 0 104164912.3597753 -4763527.155752238 -4763527.155752238 -6070525.772320699 0 0 0 0 0 104269315.1080127 -4580169.170841771 -4580169.170841771 -5793243.419197906 0 0 0 0 0 104514868.9614927 -4181041.382453458 -4181041.382453458 -5655660.215244207 0 0 0 0 0 104405105.9235116 -4377234.152948747 -4377234.152948747 -5723820.815516208 0 0 0 0 0 78860115.96201028 -18765518.79273476 -18765518.79273476 -4914439.269470349 0 0 0 0 0 38581338.03874014 -796259.6659603667 -796259.6659603667 1505377.93217868 0 0 0 0 0 38760733.14304346 -2951541.975130575 -2951541.975130575 1338252.003373408 0 0 0 0 0 39879165.97321277 -4876814.210640579 -4876814.210640579 1322480.479017522 0 0 0 0 0 43174825.57234609 -6804368.398309489 -6804368.398309489 1831925.590927857 0 0 0 0 0 43163791.30116463 -6872602.577492954 -6872602.577492954 1580379.650136272 0 0 0 0 0 44510746.57481714 -8441697.79109077 -8441697.79109077 1411555.16252457 0 0 0 0 0 45986339.37614082 -9930126.145343883 -9930126.145343883 1180808.404473092 0 0 0 0 0 47584126.56193321 -11333723.46062327 -11333723.46062327 899501.9392677004 0 0 0 0 0 51015189.4037583 -12558874.77012834 -12558874.77012834 791049.7193903961 0 0 0 0 0 50349513.69327652 -12722515.45137575 -12722515.45137575 877791.5666978485 0 0 0 0 0 52749623.51513286 -13708965.25031488 -13708965.25031488 413174.0034434912 0 0 0 0 0 54554159.19711033 -14763263.1840484 -14763263.1840484 1399.885607870984 0 0 0 0 0 56414564.67907578 -15720651.79053742 -15720651.79053742 -438736.5622624981 0 0 0 0 0 58318674.66027725 -16580929.34406827 -16580929.34406827 -901677.6044762711 0 0 0 0 0 60253423.32388732 -17344496.05899823 -17344496.05899823 -1382219.376656166 0 0 0 0 0 62207137.04513621 -18012371.30152778 -18012371.30152778 -1875023.726030604 0 0 0 0 0 63977941.58256058 -18601301.80068719 -18601301.80068719 -2409558.606698672 0 0 0 0 0 65297873.6802826 -18170015.62437747 -18170015.62437747 -2171841.129290316 0 0 0 0 0 67170293.25231789 -18627268.67745428 -18627268.67745428 -2665573.19443312 0 0 0 0 0 69031564.29045154 -19002819.38756104 -19002819.38756104 -3159847.589347491 0 0 0 0 0 70847961.38041691 -19300546.90566195 -19300546.90566195 -3650346.232270742 0 0 0 0 0 72644401.43066846 -19523027.98814676 -19523027.98814676 -4118765.786580308 0 0 0 0 0 74445519.27624626 -19663136.46368742 -19663136.46368742 -4568488.667511624 0 0 0 0 0 75264387.65658915 -19734169.23278441 -19734169.23278441 -5172499.219862908 0 0 0 0 0 76699269.68352798 -19219560.69175627 -19219560.69175627 -4740607.809673411 0 0 0 0 0 78330770.3398523 -19243912.10911539 -19243912.10911539 -5166468.021656232 0 0 0 0 0 79433044.91621025 -18741906.35991266 -18741906.35991266 -5490424.186122778 0 0 0 0 0 80828922.03187734 -18664175.69389502 -18664175.69389502 -5867348.169564554 0 0 0 0 0 82593918.76772717 -18094354.53681988 -18094354.53681988 -5972241.226945318 0 0 0 0 0 82130751.37021376 -18180213.92933314 -18180213.92933314 -5412614.888520319 0 0 0 0 0 83884857.81469895 -17953018.169775 -17953018.169775 -6317311.533979638 0 0 0 0 0 85137634.36411223 -17773367.61570796 -17773367.61570796 -6637954.620369611 0 0 0 0 0 86346639.57349499 -17559846.4585574 -17559846.4585574 -6934072.662968346 0 0 0 0 0 87510103.15305178 -17317641.55706492 -17317641.55706492 -7206271.485092778 0 0 0 0 0 88776735.65210091 -16660935.91445209 -16660935.91445209 -7186343.889577618 0 0 0 0 0 88663890.92366841 -16873202.50918251 -16873202.50918251 -6735349.717138324 0 0 0 0 0 89814637.74915639 -16384559.86495995 -16384559.86495995 -7416058.61985901 0 0 0 0 0 90813729.30344766 -16086812.91705205 -16086812.91705205 -7623818.774820711 0 0 0 0 0 91766013.28248937 -15773256.29724353 -15773256.29724353 -7811545.699661437 0 0 0 0 0 92676758.95678523 -15444104.58390975 -15444104.58390975 -7976582.050897781 0 0 0 0 0 93544639.38030112 -15102501.77921897 -15102501.77921897 -8121418.151855174 0 0 0 0 0 94482210.00642326 -14725249.32208751 -14725249.32208751 -7676015.628218509 0 0 0 0 0 95094808.42599349 -14117570.41638864 -14117570.41638864 -8092656.552207947 0 0 0 0 0 95274681.62751418 -14384170.63844059 -14384170.63844059 -7809245.207318258 0 0 0 0 0 95820511.25558423 -13766092.48301798 -13766092.48301798 -8186537.672255532 0 0 0 0 0 96509199.49644557 -13409667.07489442 -13409667.07489442 -8264229.439517199 0 0 0 0 0 97162401.55805686 -13049529.99869885 -13049529.99869885 -8326644.685076964 0 0 0 0 0 97781698.33462016 -12686663.74776782 -12686663.74776782 -8374881.506628698 0 0 0 0 0 98228216.98385665 -12127888.2379463 -12127888.2379463 -8169330.057180153 0 0 0 0 0 98507090.8870081 -12384509.25211352 -12384509.25211352 -7991379.490069608 0 0 0 0 0 98767137.33424255 -11778396.00064141 -11778396.00064141 -8193975.421773138 0 0 0 0 0 99275698.85413083 -11429712.98204263 -11429712.98204263 -8206445.348036582 0 0 0 0 0 99755011.74011934 -11082766.36039471 -11082766.36039471 -8207608.124494506 0 0 0 0 0 100206186.9470028 -10738352.56016771 -10738352.56016771 -8197992.98578308 0 0 0 0 0 100630418.3885234 -10397674.26463879 -10397674.26463879 -8178270.864162864 0 0 0 0 0 101539837.076204 -9839865.44703366 -9839865.44703366 -7849861.790707022 0 0 0 0 0 101027552.8271807 -10060773.2321789 -10060773.2321789 -8148001.477464234 0 0 0 0 0 101207412.3319723 -9621733.890915684 -9621733.890915684 -7912114.749985151 0 0 0 0 0 101549551.3324272 -9305563.278916745 -9305563.278916745 -7872399.357319463 0 0 0 0 0 101871696.5759094 -8993249.411933262 -8993249.411933262 -7825040.68561103 0 0 0 0 0 102173019.6338432 -8685596.475240622 -8685596.475240622 -7770659.242228792 0 0 0 0 0 102456034.8706979 -8384043.384440159 -8384043.384440159 -7709896.842487753 0 0 0 0 0 102719421.027625 -8090128.364092751 -8090128.364092751 -7641906.670830448 0 0 0 0 0 103081262.7858444 -7930841.182227655 -7930841.182227655 -7419039.412927229 0 0 0 0 0 102750199.7640672 -7750960.028591571 -7750960.028591571 -7395679.456793224 0 0 0 0 0 102962450.6446351 -7482314.224331598 -7482314.224331598 -7321532.950489105 0 0 0 0 0 103161244.0792495 -7219578.550192221 -7219578.550192221 -7254093.97484372 0 0 0 0 0 103350984.6651018 -6958399.810038926 -6958399.810038926 -7176981.748552362 0 0 0 0 0 103649050.4620558 -6825337.090305956 -6825337.090305956 -6985142.654697314 0 0 0 0 0 103337588.6952025 -6670524.575577588 -6670524.575577588 -6960943.373951179 0 0 0 0 0 103509786.2505347 -6427119.713670145 -6427119.713670145 -6881915.456864517 0 0 0 0 0 103668460.391933 -6190776.051970383 -6190776.051970383 -6798201.47923015 0 0 0 0 0 103807794.5799735 -5957649.179714963 -5957649.179714963 -6711839.740171647 0 0 0 0 0 103942298.2250502 -5730327.506085008 -5730327.506085008 -6623923.969213108 0 0 0 0 0 104068691.3730577 -5511373.587952781 -5511373.587952781 -6533974.070866962 0 0 0 0 0 104173569.0138268 -5295355.62927651 -5295355.62927651 -6445511.844391475 0 0 0 0 0 104265402.4615767 -5089725.88221789 -5089725.88221789 -6351247.200397898 0 0 0 0 0 104227012.1018458 -4893790.230409442 -4893790.230409442 -6142780.498129296 0 0 0 0 0 104457653.9726482 -4998342.555376601 -4998342.555376601 -6220806.820174602 0 0 0 0 0 104336687.5348863 -4709975.51781851 -4709975.51781851 -5990201.624776621 0 0 0 0 0 104380440.9709031 -4615855.336130807 -4615855.336130807 -5884785.257030071 0 0 0 0 0 104172355.8165425 -4519172.416106991 -4519172.416106991 -5925254.63645104 0 0 0 0 0 104295123.8351049 -4309502.936431253 -4309502.936431253 -5839213.616401178 0 0 0 0 0 104400051.8439264 -4112883.649059748 -4112883.649059748 -5767262.316115693 0 0 0 0 0 104613811.8347957 -3986514.509084851 -3986514.509084851 -5584601.595282353 0 0 0 0 0 78952637.94545099 -19230374.30218909 -19230374.30218909 -5766519.992016857 0 0 0 0 0 37685657.0744746 -951974.8911648243 -951974.8911648243 1318312.440732769 0 0 0 0 0 39216125.56934629 -2761280.107369503 -2761280.107369503 1600620.607441787 0 0 0 0 0 40609008.62475765 -4570135.835933364 -4570135.835933364 1711539.780742899 0 0 0 0 0 41346383.18256677 -6519967.409124928 -6519967.409124928 1528605.263732702 0 0 0 0 0 41191889.70028201 -6636788.627972899 -6636788.627972899 1244161.167226509 0 0 0 0 0 44329361.10441931 -8438088.780350728 -8438088.780350728 1621498.00490276 0 0 0 0 0 45630769.00957155 -9985297.4105704 -9985297.4105704 1350891.713215986 0 0 0 0 0 47067595.70300189 -11445278.39285109 -11445278.39285109 1026122.422529857 0 0 0 0 0 48618952.90252288 -12810225.84329463 -12810225.84329463 650668.7132927852 0 0 0 0 0 51948485.57302864 -13923131.49151174 -13923131.49151174 451442.5889254482 0 0 0 0 0 49287273.33078635 -12644006.18625004 -12644006.18625004 570515.842953878 0 0 0 0 0 53629816.97105719 -15024687.29954455 -15024687.29954455 -9243.739958691973 0 0 0 0 0 55378575.64662972 -16026110.10552046 -16026110.10552046 -498400.9936587586 0 0 0 0 0 57182202.96978386 -16927208.64674085 -16927208.64674085 -1010191.943224296 0 0 0 0 0 59027619.65848677 -17728354.73806966 -17728354.73806966 -1539184.946455044 0 0 0 0 0 60902696.32773729 -18430525.21133565 -18430525.21133565 -2079246.861625702 0 0 0 0 0 62794654.12018833 -19035349.05662876 -19035349.05662876 -2624802.83453151 0 0 0 0 0 64166113.86641835 -18586188.42437056 -18586188.42437056 -2374994.008331217 0 0 0 0 0 65798358.28197048 -19083336.18603496 -19083336.18603496 -2944742.600297739 0 0 0 0 0 67620371.97258468 -19479797.22346253 -19479797.22346253 -3476045.525286094 0 0 0 0 0 69435000.98608764 -19800053.95485615 -19800053.95485615 -3996000.239482645 0 0 0 0 0 71192766.35141926 -20038361.74478703 -20038361.74478703 -4513484.474325419 0 0 0 0 0 72926962.50476006 -20193830.40341243 -20193830.40341243 -5013488.248215538 0 0 0 0 0 74582313.78062369 -20269249.97225364 -20269249.97225364 -5463532.807611641 0 0 0 0 0 76125857.4794907 -19716844.23124373 -19716844.23124373 -4989636.48209722 0 0 0 0 0 76900773.06937116 -19759395.54977966 -19759395.54977966 -5617137.325871002 0 0 0 0 0 78485771.1385178 -19730626.17436081 -19730626.17436081 -6045214.637566786 0 0 0 0 0 80338268.38642272 -18729143.15393353 -18729143.15393353 -5297183.878091644 0 0 0 0 0 81763310.8940531 -18642858.16614713 -18642858.16614713 -5670781.349234415 0 0 0 0 0 83502252.93499991 -18071021.42629112 -18071021.42629112 -5769892.920035114 0 0 0 0 0 82213251.08477776 -18550050.21830961 -18550050.21830961 -6231377.491697479 0 0 0 0 0 84844219.85963158 -17922104.89199682 -17922104.89199682 -6108850.849021886 0 0 0 0 0 86125578.90311061 -17736282.20619448 -17736282.20619448 -6426146.292369795 0 0 0 0 0 87351514.89192711 -17517127.59876938 -17517127.59876938 -6723094.831469647 0 0 0 0 0 88526657.84108858 -17268868.94440874 -17268868.94440874 -6997783.514615639 0 0 0 0 0 89754933.25489695 -16612045.21109879 -16612045.21109879 -6985294.597613367 0 0 0 0 0 88629378.04608628 -17049286.71138538 -17049286.71138538 -7457274.632786031 0 0 0 0 0 90804999.33139215 -16329200.54907525 -16329200.54907525 -7216313.183004887 0 0 0 0 0 91807181.93370295 -16025288.90037048 -16025288.90037048 -7426557.166869739 0 0 0 0 0 92767448.70748976 -15703817.77996833 -15703817.77996833 -7617497.468735657 0 0 0 0 0 93675445.39299031 -15369044.23035126 -15369044.23035126 -7788853.068111053 0 0 0 0 0 94535104.95739511 -15023023.0908895 -15023023.0908895 -7940885.374347597 0 0 0 0 0 94370163.18416788 -14750788.41988749 -14750788.41988749 -8247393.224415257 0 0 0 0 0 96029128.92764843 -14034973.26502415 -14034973.26502415 -7925461.879001031 0 0 0 0 0 95155335.90424584 -14391182.11153288 -14391182.11153288 -8356650.492750741 0 0 0 0 0 96743371.65970445 -13679004.41684383 -13679004.41684383 -8025158.627382156 0 0 0 0 0 97418945.99715681 -13318384.24587467 -13318384.24587467 -8108787.807391916 0 0 0 0 0 98057096.17799479 -12954349.56059678 -12954349.56059678 -8176986.019803427 0 0 0 0 0 98660625.60239974 -12588106.47542776 -12588106.47542776 -8230715.145060756 0 0 0 0 0 99061479.89602631 -12032104.53374841 -12032104.53374841 -8035178.099982861 0 0 0 0 0 98366747.03287764 -12323216.9109154 -12323216.9109154 -8408446.770033304 0 0 0 0 0 99583361.2424745 -11679788.86879024 -11679788.86879024 -8065920.206160381 0 0 0 0 0 100073633.7023605 -11328520.12134955 -11328520.12134955 -8084481.352083747 0 0 0 0 0 100534371.9515776 -10979277.02667947 -10979277.02667947 -8091586.972593956 0 0 0 0 0 100966431.0280318 -10632827.38116492 -10632827.38116492 -8087962.896152944 0 0 0 0 0 101369782.3214668 -10290466.38387667 -10290466.38387667 -8074546.30042732 0 0 0 0 0 101398524.438834 -9729107.95537102 -9729107.95537102 -8109606.491302596 0 0 0 0 0 101745034.1179597 -9952913.212292304 -9952913.212292304 -8051864.778500992 0 0 0 0 0 101886102.2588743 -9517903.863392727 -9517903.863392727 -7822372.317686807 0 0 0 0 0 102210930.1034921 -9199960.93793473 -9199960.93793473 -7786414.467397734 0 0 0 0 0 102514431.2665927 -8886652.439448146 -8886652.439448146 -7743853.446968548 0 0 0 0 0 102797099.8654177 -8578333.071475564 -8578333.071475564 -7694366.298087339 0 0 0 0 0 103059597.7059228 -8276298.920978864 -8276298.920978864 -7638949.897915841 0 0 0 0 0 103299626.5277136 -7983326.261986521 -7983326.261986521 -7579583.610771183 0 0 0 0 0 102957408.1578131 -7799405.975887599 -7799405.975887599 -7557027.934097596 0 0 0 0 0 103291138.7833132 -7656616.768349305 -7656616.768349305 -7355173.373469931 0 0 0 0 0 103485024.9841846 -7385473.772550642 -7385473.772550642 -7285005.050490988 0 0 0 0 0 103673370.0262406 -7117439.78711452 -7117439.78711452 -7203520.102076196 0 0 0 0 0 103851514.1424829 -6855956.204575707 -6855956.204575707 -7127568.112016007 0 0 0 0 0 103531344.1472469 -6700876.572720227 -6700876.572720227 -7095625.807678986 0 0 0 0 0 103814128.4883309 -6574347.64507312 -6574347.64507312 -6912524.020601236 0 0 0 0 0 103967230.3458005 -6329158.468527555 -6329158.468527555 -6839274.251258384 0 0 0 0 0 104107601.1309934 -6092180.167119929 -6092180.167119929 -6760344.506873433 0 0 0 0 0 104236694.4142504 -5859965.183708758 -5859965.183708758 -6675789.763357014 0 0 0 0 0 104354822.8176768 -5633895.873907214 -5633895.873907214 -6591073.726484101 0 0 0 0 0 104460577.9587328 -5416306.259179892 -5416306.259179892 -6505612.860310538 0 0 0 0 0 104550487.7511256 -5207235.939453981 -5207235.939453981 -6421020.559594674 0 0 0 0 0 104637888.3335867 -4994777.911235687 -4994777.911235687 -6322642.379656277 0 0 0 0 0 104541052.8007501 -4799724.008533709 -4799724.008533709 -6142651.451106882 0 0 0 0 0 104349978.8230406 -4885782.549576179 -4885782.549576179 -6260999.663521891 0 0 0 0 0 104559216.3782769 -4651598.120210786 -4651598.120210786 -6086887.262286255 0 0 0 0 0 104289794.1738788 -4557510.473922987 -4557510.473922987 -6020483.921011891 0 0 0 0 0 104534603.9781353 -4421162.879742787 -4421162.879742787 -5818270.825583413 0 0 0 0 0 104622337.0176116 -4224625.036428589 -4224625.036428589 -5754555.743913575 0 0 0 0 0 104714987.9423714 -4030281.099216994 -4030281.099216994 -5669240.694947019 0 0 0 0 0 104513663.698634 -3927123.94163544 -3927123.94163544 -5666977.205083093 0 0 0 0 0 104715423.7615992 -3805504.511278168 -3805504.511278168 -5506989.903268315 0 0 0 0 0 104781750.6233459 -3618492.14661755 -3618492.14661755 -5434591.979065375 0 0 0 0 0 79918045.50390252 -19209232.34428566 -19209232.34428566 -5566232.283552519 0 0 0 0 0 36577531.57722958 -727026.0740589199 -727026.0740589199 977168.2753737044 0 0 0 0 0 37315240.32375869 -2494353.776191286 -2494353.776191286 1025345.660924053 0 0 0 0 0 37951587.84387878 -4425255.346867996 -4425255.346867996 936326.9762456118 0 0 0 0 0 39157914.03624708 -6370862.12698917 -6370862.12698917 891762.7899067688 0 0 0 0 0 42427863.29889936 -8278226.717485367 -8278226.717485367 1313258.984077488 0 0 0 0 0 42570314.91926081 -8292898.10094159 -8292898.10094159 1102543.266186727 0 0 0 0 0 44083740.11663686 -9857290.75491743 -9857290.75491743 894572.2856297991 0 0 0 0 0 45724509.5234932 -11332124.81533232 -11332124.81533232 628223.0401285563 0 0 0 0 0 47485843.79338354 -12710285.78447963 -12710285.78447963 312319.8098372731 0 0 0 0 0 51084550.91034687 -13856271.62943036 -13856271.62943036 199561.3314602706 0 0 0 0 0 50274473.88452869 -14074669.26231412 -14074669.26231412 231836.3879142286 0 0 0 0 0 52958195.08612937 -14968301.12777643 -14968301.12777643 -208016.4659608557 0 0 0 0 0 54893484.1141658 -15978698.76755057 -15978698.76755057 -646535.3289173354 0 0 0 0 0 56876250.7761235 -16887188.31103402 -16887188.31103402 -1110519.124199985 0 0 0 0 0 58893973.7034338 -17694184.02172762 -17694184.02172762 -1594360.248944854 0 0 0 0 0 60932301.38917794 -18400516.73336173 -18400516.73336173 -2092566.496575103 0 0 0 0 0 62980283.49169832 -19007707.842273 -19007707.842273 -2599280.880027437 0 0 0 0 0 64694492.94749697 -19544583.95479571 -19544583.95479571 -3170992.695119399 0 0 0 0 0 66123187.05197935 -19068838.83057878 -19068838.83057878 -2877370.973807367 0 0 0 0 0 68068121.66360685 -19464137.15087574 -19464137.15087574 -3379712.347403049 0 0 0 0 0 69991724.853176 -19777487.94106919 -19777487.94106919 -3875565.066582151 0 0 0 0 0 71878460.83395313 -20013609.00514687 -20013609.00514687 -4363434.61752828 0 0 0 0 0 73720484.08336705 -20176777.25621762 -20176777.25621762 -4839284.273232881 0 0 0 0 0 75541717.71331118 -20247708.41010451 -20247708.41010451 -5269266.318422377 0 0 0 0 0 76268526.34667729 -20282258.39614513 -20282258.39614513 -5905010.341586542 0 0 0 0 0 77805252.89879839 -19738437.33391021 -19738437.33391021 -5415317.906091968 0 0 0 0 0 79433829.72339134 -19703020.50338136 -19703020.50338136 -5836186.010188148 0 0 0 0 0 80410838.10557573 -19150696.87025722 -19150696.87025722 -6146132.688545163 0 0 0 0 0 81819516.46672653 -19023172.32452191 -19023172.32452191 -6499818.000174292 0 0 0 0 0 83561904.71094079 -18400158.347895 -18400158.347895 -6584259.745730835 0 0 0 0 0 83149443.96802263 -18521285.11057775 -18521285.11057775 -6024131.808249929 0 0 0 0 0 84861186.95825873 -18210898.46609805 -18210898.46609805 -6913712.451848828 0 0 0 0 0 86117184.26970389 -17986945.57893636 -17986945.57893636 -7215442.359257587 0 0 0 0 0 87325919.79191948 -17731005.18507905 -17731005.18507905 -7490649.22384444 0 0 0 0 0 88484526.64855443 -17448470.6626894 -17448470.6626894 -7743700.289420314 0 0 0 0 0 89705203.27292779 -16758777.78432017 -16758777.78432017 -7689651.646975045 0 0 0 0 0 89653844.98396108 -16993746.84433729 -16993746.84433729 -7250911.673183111 0 0 0 0 0 90737707.83835725 -16446354.26798972 -16446354.26798972 -7898450.667899466 0 0 0 0 0 91728341.28758255 -16116410.86346696 -16116410.86346696 -8087978.588849684 0 0 0 0 0 92673113.03727069 -15770213.55969307 -15770213.55969307 -8253826.270059111 0 0 0 0 0 93569402.99817747 -15412794.62501712 -15412794.62501712 -8398574.156728666 0 0 0 0 0 94418556.89328574 -15044949.06332556 -15044949.06332556 -8522319.770353867 0 0 0 0 0 95350707.84324212 -14666459.27713799 -14666459.27713799 -8071523.275270235 0 0 0 0 0 95902255.62163077 -14023910.38219371 -14023910.38219371 -8447815.167502932 0 0 0 0 0 96126036.50874782 -14301883.4730744 -14301883.4730744 -8185545.547595826 0 0 0 0 0 96610251.25628912 -13651890.91072411 -13651890.91072411 -8522543.74246059 0 0 0 0 0 97280408.53066739 -13276404.92051223 -13276404.92051223 -8581115.523619095 0 0 0 0 0 97914335.77264063 -12899069.24628196 -12899069.24628196 -8624762.130398011 0 0 0 0 0 98514157.91644076 -12520562.62825587 -12520562.62825587 -8654792.51934132 0 0 0 0 0 98918333.8760242 -11959821.76199801 -11959821.76199801 -8428478.314648749 0 0 0 0 0 99228296.84122452 -12221255.61337215 -12221255.61337215 -8271330.290418874 0 0 0 0 0 99438015.65211821 -11597491.41746201 -11597491.41746201 -8436070.316801984 0 0 0 0 0 99926940.63326789 -11237567.23514456 -11237567.23514456 -8432155.713628542 0 0 0 0 0 100386711.2207631 -10880348.80540543 -10880348.80540543 -8417188.76497329 0 0 0 0 0 100818670.1883501 -10527112.74520048 -10527112.74520048 -8391863.708626518 0 0 0 0 0 101222450.7703893 -10178228.08929272 -10178228.08929272 -8356298.565837341 0 0 0 0 0 102096062.6136332 -9620078.411258793 -9620078.411258793 -8019209.141242268 0 0 0 0 0 101598690.9909659 -9835371.289848445 -9835371.289848445 -8311803.986819932 0 0 0 0 0 101745312.0298957 -9402187.745575886 -9402187.745575886 -8063944.955440003 0 0 0 0 0 102070622.4694335 -9080044.274227716 -9080044.274227716 -8011068.913498604 0 0 0 0 0 102375210.5911755 -8762821.12824546 -8762821.12824546 -7950865.771520459 0 0 0 0 0 102659689.9801324 -8451806.217412574 -8451806.217412574 -7884439.296488592 0 0 0 0 0 102925096.6390161 -8148317.896119609 -8148317.896119609 -7811540.838288695 0 0 0 0 0 103168497.9922151 -7850336.656884667 -7850336.656884667 -7730725.745364434 0 0 0 0 0 103510680.8603214 -7700785.316262878 -7700785.316262878 -7521174.040704621 0 0 0 0 0 103169662.6219296 -7522099.637144472 -7522099.637144472 -7479739.860934399 0 0 0 0 0 103367625.9997014 -7253266.356713531 -7253266.356713531 -7396738.81534774 0 0 0 0 0 103551477.9093614 -6989775.550373823 -6989775.550373823 -7320132.986459683 0 0 0 0 0 103730973.9891718 -6726124.046329916 -6726124.046329916 -7232963.62565524 0 0 0 0 0 104015584.8226627 -6598936.898990358 -6598936.898990358 -7049280.960532536 0 0 0 0 0 103698363.045525 -6448942.740609669 -6448942.740609669 -7011355.333449438 0 0 0 0 0 103855639.7917508 -6204996.410570589 -6204996.410570589 -6923781.397937016 0 0 0 0 0 103998218.2821135 -5967424.32521446 -5967424.32521446 -6833100.595796376 0 0 0 0 0 104129451.2716552 -5735634.097119643 -5735634.097119643 -6740405.879237274 0 0 0 0 0 104251207.5214868 -5511257.751359934 -5511257.751359934 -6645746.711497052 0 0 0 0 0 104359321.3809123 -5293987.618249323 -5293987.618249323 -6549459.085265815 0 0 0 0 0 104450424.9780687 -5080931.636478362 -5080931.636478362 -6450715.853615845 0 0 0 0 0 104540190.8153698 -4872793.093606065 -4872793.093606065 -6353439.429164902 0 0 0 0 0 104461205.0997202 -4694787.067799898 -4694787.067799898 -6150226.06221343 0 0 0 0 0 104716420.1506819 -4793201.910955044 -4793201.910955044 -6236528.910270748 0 0 0 0 0 104509597.4585225 -4513041.235814122 -4513041.235814122 -6066129.0721895 0 0 0 0 0 104658154.6231861 -4435144.188761634 -4435144.188761634 -5932442.693036831 0 0 0 0 0 104411949.3241292 -4332732.273964634 -4332732.273964634 -5916411.103789848 0 0 0 0 0 104498797.2226473 -4138296.508377774 -4138296.508377774 -5827888.068979914 0 0 0 0 0 104572746.0806485 -3949441.257230966 -3949441.257230966 -5755780.025078948 0 0 0 0 0 104795469.2995712 -3840605.393300914 -3840605.393300914 -5584404.667027816 0 0 0 0 0 104606645.4575475 -3741501.453126752 -3741501.453126752 -5617900.059481642 0 0 0 0 0 104686244.0505693 -3564130.016768118 -3564130.016768118 -5533041.388999633 0 0 0 0 0 104879317.2753216 -3432651.971452254 -3432651.971452254 -5347819.402281962 0 0 0 0 0 79989520.07132962 -19651386.73479781 -19651386.73479781 -6441085.183129115 0 0 0 0 0 35599164.93647949 -956272.4804920765 -956272.4804920765 673595.4786470725 0 0 0 0 0 36837973.82091492 -2590269.165160179 -2590269.165160179 981733.2837598098 0 0 0 0 0 38001585.52507569 -4353725.728213486 -4353725.728213486 1127790.378649778 0 0 0 0 0 39390154.9518657 -6252403.292443139 -6252403.292443139 1099988.561068755 0 0 0 0 0 40483489.47235844 -8093008.151436699 -8093008.151436699 934580.8520319926 0 0 0 0 0 40551521.63341712 -8119717.33535028 -8119717.33535028 757129.1776335794 0 0 0 0 0 43753170.13616184 -9907295.083613221 -9907295.083613221 1057085.809645567 0 0 0 0 0 45218297.02110612 -11443326.13124452 -11443326.13124452 745397.7384796691 0 0 0 0 0 46813851.90326708 -12879841.05493998 -12879841.05493998 382429.7889726677 0 0 0 0 0 48519920.35427712 -14213072.82599663 -14213072.82599663 -27221.12852854871 0 0 0 0 0 52014549.6826744 -15236904.409384 -15236904.409384 -225308.3896327789 0 0 0 0 0 49344398.3777198 -13988136.088472 -13988136.088472 -49258.10284879798 0 0 0 0 0 53829293.18207987 -16294191.92206727 -16294191.92206727 -714151.0880073957 0 0 0 0 0 55703930.91718835 -17245917.44028651 -17245917.44028651 -1228122.891549298 0 0 0 0 0 57625822.66448143 -18092472.96612995 -18092472.96612995 -1761078.467034779 0 0 0 0 0 59580851.84820734 -18834813.89013469 -18834813.89013469 -2307548.352237528 0 0 0 0 0 61557181.4273017 -19474189.27442364 -19474189.27442364 -2860975.310851861 0 0 0 0 0 63541142.46805771 -20013208.82378733 -20013208.82378733 -3416915.464805735 0 0 0 0 0 65027003.72933226 -19518428.35123609 -19518428.35123609 -3109815.592676819 0 0 0 0 0 66595648.90325432 -19962630.61869191 -19962630.61869191 -3713138.509303812 0 0 0 0 0 68488896.26868159 -20294877.56741287 -20294877.56741287 -4248898.333333096 0 0 0 0 0 70345527.30708027 -20547370.51899119 -20547370.51899119 -4775329.39223728 0 0 0 0 0 72157709.56401502 -20720473.91613381 -20720473.91613381 -5287441.823161201 0 0 0 0 0 73941305.26494338 -20813000.29823493 -20813000.29823493 -5769637.16250176 0 0 0 0 0 75669236.72341767 -20822635.47710802 -20822635.47710802 -6223738.810497165 0 0 0 0 0 77282090.1766786 -20253865.00309882 -20253865.00309882 -5702241.243017182 0 0 0 0 0 77935936.62720993 -20246374.89834391 -20246374.89834391 -6338166.043507054 0 0 0 0 0 79558069.41305885 -20159409.98590745 -20159409.98590745 -6743397.321365947 0 0 0 0 0 81402011.41998743 -19118464.82623483 -19118464.82623483 -5939951.790672471 0 0 0 0 0 82852747.18456765 -18988789.91749506 -18988789.91749506 -6291483.146874228 0 0 0 0 0 84540967.87930764 -18365825.7434876 -18365825.7434876 -6369695.27374721 0 0 0 0 0 83219561.91301444 -18861585.93087665 -18861585.93087665 -6855670.382552921 0 0 0 0 0 85887948.69900736 -18167146.67798493 -18167146.67798493 -6696497.917093582 0 0 0 0 0 87169504.75266872 -17935586.31962218 -17935586.31962218 -6999738.611883637 0 0 0 0 0 88390732.09520729 -17674307.64795975 -17674307.64795975 -7278235.462624146 0 0 0 0 0 89557044.79999456 -17385328.84141976 -17385328.84141976 -7532768.051763315 0 0 0 0 0 90740973.81037398 -16695714.17914062 -16695714.17914062 -7483605.827364101 0 0 0 0 0 89598039.37476169 -17141843.23822831 -17141843.23822831 -7976519.101499875 0 0 0 0 0 91779661.49067289 -16377526.02789623 -16377526.02789623 -7696835.011704775 0 0 0 0 0 92767437.31675452 -16040618.03089228 -16040618.03089228 -7887705.45390198 0 0 0 0 0 93706580.11653307 -15689544.2149455 -15689544.2149455 -8060176.937359015 0 0 0 0 0 94595697.68738879 -15326986.00136924 -15326986.00136924 -8211467.563674636 0 0 0 0 0 95437343.55710845 -14954642.41289605 -14954642.41289605 -8343302.183446669 0 0 0 0 0 95225685.37819308 -14669087.94021863 -14669087.94021863 -8629680.30960156 0 0 0 0 0 96859696.68048619 -13930344.02224938 -13930344.02224938 -8282572.677209971 0 0 0 0 0 95992959.4381941 -14285802.00487358 -14285802.00487358 -8717903.453109168 0 0 0 0 0 97553490.41222006 -13554145.04890314 -13554145.04890314 -8363465.403556962 0 0 0 0 0 98207447.74799283 -13174846.83346703 -13174846.83346703 -8428540.101837227 0 0 0 0 0 98823402.08988176 -12794105.03485249 -12794105.03485249 -8478469.779357292 0 0 0 0 0 99404681.54555455 -12412125.10461564 -12412125.10461564 -8513464.008441066 0 0 0 0 0 99761222.71249792 -11855220.8347967 -11855220.8347967 -8297953.010919902 0 0 0 0 0 99079180.32766107 -12142501.11138779 -12142501.11138779 -8669699.783068782 0 0 0 0 0 100261185.2189945 -11490434.50882771 -11490434.50882771 -8312037.942851112 0 0 0 0 0 100730474.015774 -11128209.61594965 -11128209.61594965 -8314374.074262785 0 0 0 0 0 101169887.3119834 -10769019.05660366 -10769019.05660366 -8305530.36183508 0 0 0 0 0 101580461.9990312 -10413960.60937389 -10413960.60937389 -8286342.438142492 0 0 0 0 0 101962128.34187 -10064344.74021952 -10064344.74021952 -8258536.370020116 0 0 0 0 0 101950211.3357378 -9497220.944971072 -9497220.944971072 -8259578.591606829 0 0 0 0 0 102316759.6745532 -9720466.162008459 -9720466.162008459 -8220529.15600561 0 0 0 0 0 102424087.9873279 -9291517.423054477 -9291517.423054477 -7977769.762226129 0 0 0 0 0 102730356.8522729 -8968261.262686614 -8968261.262686614 -7929333.824276067 0 0 0 0 0 103014887.6849324 -8650539.467381088 -8650539.467381088 -7874294.41308918 0 0 0 0 0 103278682.6019069 -8339259.333293958 -8339259.333293958 -7813011.414825975 0 0 0 0 0 103520739.1533367 -8035547.884764059 -8035547.884764059 -7746209.778393192 0 0 0 0 0 103741238.1062133 -7741989.449124944 -7741989.449124944 -7677729.508597656 0 0 0 0 0 103386753.4044514 -7560607.426792063 -7560607.426792063 -7633180.913323737 0 0 0 0 0 103704748.2713545 -7421158.165469752 -7421158.165469752 -7438475.783430465 0 0 0 0 0 103884810.5324855 -7151389.386946591 -7151389.386946591 -7357538.825292786 0 0 0 0 0 104060500.6317058 -6882988.967427449 -6882988.967427449 -7271331.201466521 0 0 0 0 0 104224378.085095 -6619947.413610101 -6619947.413610101 -7187304.149545416 0 0 0 0 0 103897282.9366305 -6468462.675493651 -6468462.675493651 -7142686.524120114 0 0 0 0 0 104166657.4736035 -6347916.409027634 -6347916.409027634 -6968197.668123315 0 0 0 0 0 104305316.7300059 -6103843.085749982 -6103843.085749982 -6885142.358963903 0 0 0 0 0 104432277.2208983 -5866573.754940046 -5866573.754940046 -6797970.544110579 0 0 0 0 0 104547792.1466598 -5635982.41973658 -5635982.41973658 -6708243.27752458 0 0 0 0 0 104651149.8407948 -5413127.794003243 -5413127.794003243 -6617647.205452498 0 0 0 0 0 104742824.241614 -5197005.560462361 -5197005.560462361 -6524360.359726513 0 0 0 0 0 104825875.4275811 -4984269.540346661 -4984269.540346661 -6427491.844569737 0 0 0 0 0 104900338.3128898 -4778127.128771255 -4778127.128771255 -6332103.102515883 0 0 0 0 0 104772754.6171181 -4606608.288938268 -4606608.288938268 -6158531.731520819 0 0 0 0 0 104623158.143943 -4673171.795830393 -4673171.795830393 -6253896.894988087 0 0 0 0 0 104850383.3248694 -4403383.120164824 -4403383.120164824 -6036243.542282953 0 0 0 0 0 104567165.582448 -4321646.002367406 -4321646.002367406 -5974633.395091945 0 0 0 0 0 104743729.823513 -4234864.085677366 -4234864.085677366 -5848654.573775134 0 0 0 0 0 104824761.4091767 -4052387.656379385 -4052387.656379385 -5762277.092877053 0 0 0 0 0 104880031.073591 -3884934.480893739 -3884934.480893739 -5693648.535701861 0 0 0 0 0 104737492.6717248 -3800735.926864447 -3800735.926864447 -5683141.773573385 0 0 0 0 0 104868884.1429774 -3654578.801795213 -3654578.801795213 -5529359.530972293 0 0 0 0 0 104976576.7899098 -3485318.948551875 -3485318.948551875 -5448251.846815345 0 0 0 0 0 104774776.2210367 -3375472.960959152 -3375472.960959152 -5432629.160714372 0 0 0 0 0 104957756.9888995 -3254636.553033202 -3254636.553033202 -5262139.2944927 0 0 0 0 0 81023694.89391118 -19612658.51032438 -19612658.51032438 -6228197.359369254 0 0 0 0 0 34723453.61519665 -734809.463459392 -734809.463459392 357164.6861309189 0 0 0 0 0 35455558.62177002 -2389234.308459244 -2389234.308459244 576900.5278747983 0 0 0 0 0 36083402.01407993 -4176025.738484474 -4176025.738484474 546963.07516712 0 0 0 0 0 37069118.26001294 -6047495.284347872 -6047495.284347872 395145.34221382 0 0 0 0 0 38465195.04702593 -7902413.169595967 -7902413.169595967 321371.2602529637 0 0 0 0 0 41798298.79001788 -9803743.141912282 -9803743.141912282 704446.9658586429 0 0 0 0 0 42095344.86803921 -9758124.287304448 -9758124.287304448 559440.0134779611 0 0 0 0 0 43785556.48969761 -11307279.53514522 -11307279.53514522 310660.8989796761 0 0 0 0 0 45599783.76262982 -12757614.58191529 -12757614.58191529 9397.061773559028 0 0 0 0 0 47523903.42776744 -14104049.62148995 -14104049.62148995 -339274.6664011801 0 0 0 0 0 51287459.4396392 -15161844.85861685 -15161844.85861685 -450060.5327553529 0 0 0 0 0 50323217.15614929 -15438899.63697639 -15438899.63697639 -477426.1839782867 0 0 0 0 0 53300076.1797438 -16228902.29428277 -16228902.29428277 -885001.6808913436 0 0 0 0 0 55365460.89990681 -17188916.70850031 -17188916.70850031 -1347770.370941169 0 0 0 0 0 57468518.51496567 -18042128.47059859 -18042128.47059859 -1832892.062376957 0 0 0 0 0 59597416.62193284 -18789362.93406169 -18789362.93406169 -2334503.017258962 0 0 0 0 0 61735998.56595789 -19432211.72641767 -19432211.72641767 -2846809.800948015 0 0 0 0 0 63875161.3891364 -19973440.30596055 -19973440.30596055 -3364426.64672651 0 0 0 0 0 65525347.58113621 -20455740.44967312 -20455740.44967312 -3968842.089884193 0 0 0 0 0 67059029.03271832 -19936391.51122332 -19936391.51122332 -3620491.879577074 0 0 0 0 0 69070607.63101214 -20267429.68773934 -20267429.68773934 -4128550.248883774 0 0 0 0 0 71050684.58242741 -20513832.52869261 -20513832.52869261 -4625183.429814668 0 0 0 0 0 73001544.37510988 -20683285.95128434 -20683285.95128434 -5111473.407463766 0 0 0 0 0 74904961.35784534 -20772889.19186208 -20772889.19186208 -5571031.079508635 0 0 0 0 0 76753182.34108436 -20787519.65751749 -20787519.65751749 -6012021.02433221 0 0 0 0 0 77404487.18555839 -20776376.95325356 -20776376.95325356 -6646029.287502672 0 0 0 0 0 78969466.45600422 -20204187.01274619 -20204187.01274619 -6126221.591273672 0 0 0 0 0 80605073.39170887 -20109262.49769649 -20109262.49769649 -6522726.639618865 0 0 0 0 0 81443021.52593254 -19514190.12996003 -19514190.12996003 -6809248.838388348 0 0 0 0 0 82864941.19964416 -19334936.13555796 -19334936.13555796 -7156857.263121151 0 0 0 0 0 84588231.06834511 -18658786.66491346 -18658786.66491346 -7191065.350846363 0 0 0 0 0 84264189.84983464 -18817986.20383491 -18817986.20383491 -6634068.130711959 0 0 0 0 0 85899211.03040235 -18422129.58613243 -18422129.58613243 -7501250.112948501 0 0 0 0 0 87150831.39540017 -18152736.32743498 -18152736.32743498 -7783528.47678197 0 0 0 0 0 88348794.7229789 -17856348.8451123 -17856348.8451123 -8040286.635247281 0 0 0 0 0 89495109.40501551 -17534346.39673427 -17534346.39673427 -8274320.243174724 0 0 0 0 0 90668401.77159284 -16814440.20398027 -16814440.20398027 -8188604.722433364 0 0 0 0 0 90678405.32724062 -17071825.80327193 -17071825.80327193 -7764362.850295772 0 0 0 0 0 91689659.68039662 -16467470.71195754 -16467470.71195754 -8376208.524815336 0 0 0 0 0 92666632.23724894 -16105316.47902559 -16105316.47902559 -8542289.459751174 0 0 0 0 0 93594447.28336288 -15730385.46902349 -15730385.46902349 -8686335.735114604 0 0 0 0 0 94472824.4963505 -15345168.00109695 -15345168.00109695 -8809931.100659039 0 0 0 0 0 95304284.80489366 -14951335.25119812 -14951335.25119812 -8912747.54123072 0 0 0 0 0 96233842.69336177 -14572716.16724565 -14572716.16724565 -8454358.543256063 0 0 0 0 0 96720371.23360325 -13897694.18342104 -13897694.18342104 -8789304.116523217 0 0 0 0 0 96987261.98970194 -14185245.20986755 -14185245.20986755 -8549371.170799611 0 0 0 0 0 97408637.49569763 -13506079.24293081 -13506079.24293081 -8843885.62497906 0 0 0 0 0 98058240.7570338 -13112991.69663912 -13112991.69663912 -8882747.192448258 0 0 0 0 0 98670685.02380735 -12719663.29809581 -12719663.29809581 -8906914.34193659 0 0 0 0 0 99249104.2713421 -12326816.60300301 -12326816.60300301 -8918340.639871646 0 0 0 0 0 99610017.98457134 -11766288.32911625 -11766288.32911625 -8671993.271188801 0 0 0 0 0 99950288.53904945 -12031634.62094679 -12031634.62094679 -8537028.710230462 0 0 0 0 0 100108742.7414879 -11392916.18378921 -11392916.18378921 -8662774.709848618 0 0 0 0 0 100577093.5953619 -11022440.89391426 -11022440.89391426 -8641891.362217229 0 0 0 0 0 101016278.2440442 -10656254.31849245 -10656254.31849245 -8610513.26125356 0 0 0 0 0 101427344.3703679 -10295181.39617121 -10295181.39617121 -8569602.476779262 0 0 0 0 0 101810167.3361245 -9939397.637232726 -9939397.637232726 -8518433.560161458 0 0 0 0 0 102647185.5942149 -9381223.588968469 -9381223.588968469 -8173494.719937035 0 0 0 0 0 102166145.1673465 -9589803.394114237 -9589803.394114237 -8459243.939296817 0 0 0 0 0 102279113.4865408 -9164829.631291972 -9164829.631291972 -8200758.51655479 0 0 0 0 0 102586583.2958601 -8837740.158849614 -8837740.158849614 -8134327.847123312 0 0 0 0 0 102873008.7729048 -8517134.656942634 -8517134.656942634 -8061539.994552232 0 0 0 0 0 103139163.2567936 -8203568.0834879 -8203568.0834879 -7982738.461116631 0 0 0 0 0 103385297.8603212 -7899069.582673273 -7899069.582673273 -7897320.954683608 0 0 0 0 0 103609076.531525 -7597733.412397161 -7597733.412397161 -7796593.03151239 0 0 0 0 0 103931008.2406951 -7459079.53772432 -7459079.53772432 -7602301.677476175 0 0 0 0 0 103581936.4126014 -7284749.186484423 -7284749.186484423 -7546830.897689903 0 0 0 0 0 103764306.0681888 -7015164.240994496 -7015164.240994496 -7461835.711430585 0 0 0 0 0 103937203.00778 -6748100.212823318 -6748100.212823318 -7371940.485343635 0 0 0 0 0 104103124.4676838 -6484001.710415279 -6484001.710415279 -7275704.63674712 0 0 0 0 0 104373638.7035009 -6362984.444359034 -6362984.444359034 -7100618.33891598 0 0 0 0 0 104051147.8970816 -6217589.352320454 -6217589.352320454 -7049785.48301973 0 0 0 0 0 104192979.6097582 -5974008.946481481 -5974008.946481481 -6954277.261958944 0 0 0 0 0 104322756.7817733 -5737374.692163719 -5737374.692163719 -6856490.140100793 0 0 0 0 0 104441259.497694 -5507901.0026105 -5507901.0026105 -6756565.962203373 0 0 0 0 0 104547658.2791867 -5285318.65240231 -5285318.65240231 -6654783.482785379 0 0 0 0 0 104640491.6494942 -5068397.245062959 -5068397.245062959 -6552178.609689183 0 0 0 0 0 104726338.037198 -4856913.770553852 -4856913.770553852 -6448394.42464325 0 0 0 0 0 104803936.7988786 -4652271.723064534 -4652271.723064534 -6344226.326091855 0 0 0 0 0 104691163.4896163 -4478472.863012287 -4478472.863012287 -6150744.306622206 0 0 0 0 0 104965497.5967713 -4579078.773444867 -4579078.773444867 -6236128.66436814 0 0 0 0 0 104763714.3709935 -4291900.201967751 -4291900.201967751 -6052291.016323175 0 0 0 0 0 104901824.5671775 -4227378.720615303 -4227378.720615303 -5953315.899341114 0 0 0 0 0 104638535.5883361 -4137973.773423959 -4137973.773423959 -5887951.40499123 0 0 0 0 0 104711326.4094111 -3954478.595570297 -3954478.595570297 -5794144.017395442 0 0 0 0 0 104787231.7627197 -3784601.251755952 -3784601.251755952 -5657868.316555635 0 0 0 0 0 104793705.3448579 -3611065.358419127 -3611065.358419127 -5615803.444933626 0 0 0 0 0 104848850.6214838 -3422860.218006402 -3422860.218006402 -5518009.276406568 0 0 0 0 0 105025110.626682 -3293289.515747151 -3293289.515747151 -5335222.18876057 0 0 0 0 0 104845625.7762902 -3180325.191320736 -3180325.191320736 -5306196.478178515 0 0 0 0 0 105007903.446871 -3092830.878176741 -3092830.878176741 -5180646.442250762 0 0 0 0 0 81074869.6263832 -20017603.27292233 -20017603.27292233 -7126913.164818918 0 0 0 0 0 33451155.68736389 -1033809.357627978 -1033809.357627978 -76342.16057529252 0 0 0 0 0 34502645.75527082 -2612747.07405365 -2612747.07405365 361004.6000447168 0 0 0 0 0 35948336.89484323 -4198833.354477008 -4198833.354477008 583410.173851862 0 0 0 0 0 37103748.34760339 -5991268.382275349 -5991268.382275349 564322.8084252598 0 0 0 0 0 38436172.29897888 -7875192.05370932 -7875192.05370932 456156.4153737816 0 0 0 0 0 39768292.12493434 -9674467.784268372 -9674467.784268372 270959.864162888 0 0 0 0 0 40031551.71777701 -9628897.602409605 -9628897.602409605 163151.1166822662 0 0 0 0 0 43295408.53413238 -11417714.71611869 -11417714.71611869 413167.1484328916 0 0 0 0 0 44930287.35518102 -12930006.69486331 -12930006.69486331 66339.48057970501 0 0 0 0 0 46689834.47716569 -14334981.59435743 -14334981.59435743 -330345.1545506965 0 0 0 0 0 48554966.33014513 -15627700.76195 -15627700.76195 -770817.7954855276 0 0 0 0 0 52207459.20792671 -16554907.86054949 -16554907.86054949 -962588.1709155542 0 0 0 0 0 49539385.1743117 -15341708.80915429 -15341708.80915429 -730745.1448031198 0 0 0 0 0 54156512.9445019 -17560647.33819111 -17560647.33819111 -1476121.874718396 0 0 0 0 0 56157340.46015814 -18455448.98598009 -18455448.98598009 -2011058.542435918 0 0 0 0 0 58196847.16012365 -19240512.92323779 -19240512.92323779 -2561430.577856169 0 0 0 0 0 60258932.69865586 -19917313.65140356 -19917313.65140356 -3121049.650151323 0 0 0 0 0 62333504.94167393 -20488247.94196962 -20488247.94196962 -3683977.519363914 0 0 0 0 0 64407119.07867224 -20957046.74413466 -20957046.74413466 -4245083.271188936 0 0 0 0 0 66001635.41698449 -20416281.38727547 -20416281.38727547 -3882187.561305391 0 0 0 0 0 67501536.37420954 -20806555.63219453 -20806555.63219453 -4514408.753678797 0 0 0 0 0 69458565.92582391 -21069794.76743105 -21069794.76743105 -5049616.186575982 0 0 0 0 0 71380952.9607684 -21252308.72396008 -21252308.72396008 -5575355.835183692 0 0 0 0 0 73243759.86381374 -21351434.39950104 -21351434.39950104 -6077185.628260847 0 0 0 0 0 75079244.81484228 -21377890.39093205 -21377890.39093205 -6553256.79372504 0 0 0 0 0 76846703.95094945 -21328773.02633736 -21328773.02633736 -6989981.629906183 0 0 0 0 0 78503147.15326415 -20730835.08155197 -20730835.08155197 -6428473.776533493 0 0 0 0 0 79066608.03259192 -20678550.8126865 -20678550.8126865 -7058531.953120406 0 0 0 0 0 80695365.60151856 -20529249.5301285 -20529249.5301285 -7449385.426600985 0 0 0 0 0 82531225.72497553 -19474000.86079241 -19474000.86079241 -6595060.756537136 0 0 0 0 0 83994563.99625108 -19286131.31161783 -19286131.31161783 -6932538.359460961 0 0 0 0 0 85641439.17037611 -18610268.42548375 -18610268.42548375 -6967461.631846218 0 0 0 0 0 84276646.81282821 -19123185.06672264 -19123185.06672264 -7491833.070785295 0 0 0 0 0 86979310.07646452 -18366973.96508637 -18366973.96508637 -7278947.014080038 0 0 0 0 0 88252443.63369752 -18090997.52896689 -18090997.52896689 -7564351.166604254 0 0 0 0 0 89466310.56768279 -17786665.24106391 -17786665.24106391 -7823040.316952666 0 0 0 0 0 90627670.80420494 -17457233.68631946 -17457233.68631946 -8057821.359333267 0 0 0 0 0 91755728.21573383 -16737903.70059219 -16737903.70059219 -7979443.13984349 0 0 0 0 0 90603220.17021273 -17190724.81497056 -17190724.81497056 -8488194.108610768 0 0 0 0 0 92777805.9047619 -16384018.15280051 -16384018.15280051 -8171151.628136673 0 0 0 0 0 93745651.46645616 -16016832.63820202 -16016832.63820202 -8343419.827642169 0 0 0 0 0 94663713.25377311 -15636864.25063024 -15636864.25063024 -8494233.227505231 0 0 0 0 0 95532167.2144614 -15246799.64550119 -15246799.64550119 -8624049.646626083 0 0 0 0 0 96352876.71105425 -14847821.1134709 -14847821.1134709 -8733609.045451246 0 0 0 0 0 96093961.50405218 -14551613.65285627 -14551613.65285627 -8998355.775914233 0 0 0 0 0 97698250.1631877 -13792987.12696518 -13792987.12696518 -8626562.012855498 0 0 0 0 0 96840972.84829643 -14146560.10299544 -14146560.10299544 -9064696.193435345 0 0 0 0 0 98368895.86552553 -13397742.43851324 -13397742.43851324 -8687893.887265135 0 0 0 0 0 98999818.17526777 -13001123.21236495 -13001123.21236495 -8733747.961895416 0 0 0 0 0 99591992.54264867 -12604563.50305757 -12604563.50305757 -8764588.865839897 0 0 0 0 0 100149148.9222554 -12208821.74782891 -12208821.74782891 -8781390.065151846 0 0 0 0 0 100459293.6013356 -11653021.16431222 -11653021.16431222 -8546106.110815121 0 0 0 0 0 99792881.29344226 -11935375.44621794 -11935375.44621794 -8914281.47667788 0 0 0 0 0 100936900.5477915 -11277383.02235074 -11277383.02235074 -8543063.551805776 0 0 0 0 0 101383549.0651694 -10905199.06411171 -10905199.06411171 -8528698.601710629 0 0 0 0 0 101800438.0777452 -10537375.56904636 -10537375.56904636 -8503702.257130899 0 0 0 0 0 102188234.6267786 -10175018.45419711 -10175018.45419711 -8469461.856225075 0 0 0 0 0 102548658.7412913 -9818537.928790931 -9818537.928790931 -8425738.932775501 0 0 0 0 0 102497672.3402427 -9247042.658471465 -9247042.658471465 -8393815.747021453 0 0 0 0 0 102882303.5914534 -9468224.015852371 -9468224.015852371 -8373170.50696941 0 0 0 0 0 102955936.0944869 -9047545.276652401 -9047545.276652401 -8118679.874837552 0 0 0 0 0 103242372.0465218 -8720091.857721863 -8720091.857721863 -8057512.848579528 0 0 0 0 0 103507397.4542178 -8399279.156153746 -8399279.156153746 -7989969.646837018 0 0 0 0 0 103751720.2151962 -8085542.634352446 -8085542.634352446 -7916479.278154287 0 0 0 0 0 103971933.4249901 -7782375.313189323 -7782375.313189323 -7839577.546427119 0 0 0 0 0 104165258.4938091 -7491605.067737116 -7491605.067737116 -7763658.416798813 0 0 0 0 0 103804068.6908323 -7312782.370807712 -7312782.370807712 -7699300.593679246 0 0 0 0 0 104107189.5074572 -7180370.41923658 -7180370.41923658 -7513220.183964367 0 0 0 0 0 104279385.5650783 -6905696.344539944 -6905696.344539944 -7418665.079291147 0 0 0 0 0 104440923.1178949 -6637562.44624136 -6637562.44624136 -7326931.781825471 0 0 0 0 0 104588038.5331124 -6374156.677273626 -6374156.677273626 -7234498.744330393 0 0 0 0 0 104255238.0353314 -6227102.927522372 -6227102.927522372 -7176843.823542214 0 0 0 0 0 104510161.3746811 -6112919.216277338 -6112919.216277338 -7011313.737694812 0 0 0 0 0 104634687.7646131 -5869902.56456276 -5869902.56456276 -6919564.534046395 0 0 0 0 0 104747550.9632794 -5634140.709287053 -5634140.709287053 -6825264.931012548 0 0 0 0 0 104848457.4333979 -5405973.229162348 -5405973.229162348 -6729221.885594296 0 0 0 0 0 104938372.9649337 -5184632.021261019 -5184632.021261019 -6631028.630958978 0 0 0 0 0 105018806.9249213 -4968575.400825441 -4968575.400825441 -6529763.577523735 0 0 0 0 0 105090396.3602985 -4758755.427127256 -4758755.427127256 -6428608.699255317 0 0 0 0 0 105153413.9965438 -4555146.822882062 -4555146.822882062 -6326771.656390375 0 0 0 0 0 105028534.4923718 -4381432.565994898 -4381432.565994898 -6136079.180366817 0 0 0 0 0 104870563.6580326 -4452436.65809517 -4452436.65809517 -6239632.068283607 0 0 0 0 0 105078528.4481321 -4198767.481105733 -4198767.481105733 -6039840.059053242 0 0 0 0 0 104819327.9219828 -4106051.101987265 -4106051.101987265 -5951182.096660354 0 0 0 0 0 104953865.4669439 -4046530.386905118 -4046530.386905118 -5860915.929177496 0 0 0 0 0 105004561.2356528 -3868650.205939119 -3868650.205939119 -5763881.137545591 0 0 0 0 0 105023469.777137 -3711841.331575089 -3711841.331575089 -5685576.647436634 0 0 0 0 0 105084761.8902067 -3520452.325812969 -3520452.325812969 -5549703.920391991 0 0 0 0 0 105143951.2381686 -3348753.655782125 -3348753.655782125 -5448042.807678486 0 0 0 0 0 105061712.8888225 -3256181.626608315 -3256181.626608315 -5440864.270925919 0 0 0 0 0 105047962.0013239 -3105785.034614234 -3105785.034614234 -5315702.297607007 0 0 0 0 0 104895768.7821745 -3033804.658154086 -3033804.658154086 -5263743.188359504 0 0 0 0 0 105052300.0395141 -2921747.663153003 -2921747.663153003 -5096910.309355923 0 0 0 0 0 82204289.67030054 -19967113.91483726 -19967113.91483726 -6904311.368136994 0 0 0 0 0 32468562.55064543 -834329.5065094482 -834329.5065094482 -354823.6620735812 0 0 0 0 0 33481226.73941062 -2359122.158032744 -2359122.158032744 1947.958445351234 0 0 0 0 0 34006086.84456776 -3992367.970869693 -3992367.970869693 -25984.81603384635 0 0 0 0 0 34957720.87030624 -5773380.997658307 -5773380.997658307 -104432.9941228325 0 0 0 0 0 36304868.95538847 -7637814.881854195 -7637814.881854195 -215675.7878115877 0 0 0 0 0 37895083.47555643 -9460432.241763592 -9460432.241763592 -322260.8688456845 0 0 0 0 0 41290442.85565301 -11366574.02117575 -11366574.02117575 14869.18625345881 0 0 0 0 0 41759345.05446267 -11255692.19696315 -11255692.19696315 -64055.33883299193 0 0 0 0 0 43628353.24565101 -12781639.85297069 -12781639.85297069 -345676.2906163593 0 0 0 0 0 45618329.06334873 -14199874.20050163 -14199874.20050163 -678165.989524305 0 0 0 0 0 47709511.1592171 -15505365.04378628 -15505365.04378628 -1055974.193953959 0 0 0 0 0 51630910.47392377 -16468767.49834317 -16468767.49834317 -1158940.446866388 0 0 0 0 0 50509553.34791787 -16805961.99838438 -16805961.99838438 -1248817.88799961 0 0 0 0 0 53782318.13955424 -17483747.25572664 -17483747.25572664 -1617843.81368986 0 0 0 0 0 55976287.18513558 -18386136.36192215 -18386136.36192215 -2101467.618726676 0 0 0 0 0 58197678.95402953 -19177251.39654286 -19177251.39654286 -2604183.785119948 0 0 0 0 0 60433821.95982814 -19858313.17025475 -19858313.17025475 -3119437.993031864 0 0 0 0 0 62669635.00350509 -20432140.31306355 -20432140.31306355 -3641876.729167428 0 0 0 0 0 64895082.86653318 -20902228.86780302 -20902228.86780302 -4166160.777762096 0 0 0 0 0 66471353.47329541 -21328117.95539182 -21328117.95539182 -4799616.398336157 0 0 0 0 0 68105964.73697034 -20766295.58431811 -20766295.58431811 -4397520.558326537 0 0 0 0 0 70179403.84785482 -21027878.15666395 -21027878.15666395 -4905784.846344106 0 0 0 0 0 72207398.48366731 -21207376.23782148 -21207376.23782148 -5403714.393355038 0 0 0 0 0 74200714.23556836 -21305022.02224299 -21305022.02224299 -5882005.551685824 0 0 0 0 0 76139021.31169745 -21322339.72391169 -21322339.72391169 -6340763.781195707 0 0 0 0 0 78017528.51610461 -21271129.7313107 -21271129.7313107 -6775886.884816252 0 0 0 0 0 78589325.0991548 -21217836.70490452 -21217836.70490452 -7404462.871106044 0 0 0 0 0 80211285.47129479 -20622507.11116267 -20622507.11116267 -6836199.813846573 0 0 0 0 0 81835108.85846448 -20463945.62355858 -20463945.62355858 -7216768.840960924 0 0 0 0 0 82550561.50962962 -19825166.56296477 -19825166.56296477 -7474375.065165512 0 0 0 0 0 83998633.90475897 -19598922.90592624 -19598922.90592624 -7804918.7106587 0 0 0 0 0 85648514.97379841 -18874434.69169929 -18874434.69169929 -7805665.849207499 0 0 0 0 0 85405899.33362944 -19062021.6175651 -19062021.6175651 -7262048.883227332 0 0 0 0 0 86959121.9086733 -18589157.85000367 -18589157.85000367 -8092041.672633768 0 0 0 0 0 88207466.72865991 -18276102.65426302 -18276102.65426302 -8352162.618808336 0 0 0 0 0 89398473.71651512 -17936633.66802526 -17936633.66802526 -8587943.225641396 0 0 0 0 0 90541040.42634292 -17574771.10599601 -17574771.10599601 -8799633.190502778 0 0 0 0 0 91662106.09342156 -16825801.25711672 -16825801.25711672 -8676095.37404895 0 0 0 0 0 91735639.79835489 -17106416.42792063 -17106416.42792063 -8272145.10012918 0 0 0 0 0 92670854.13007502 -16446169.53915744 -16446169.53915744 -8840994.686147558 0 0 0 0 0 93627561.68575153 -16053717.26382182 -16053717.26382182 -8984044.760344321 0 0 0 0 0 94534615.3290083 -15650253.84963951 -15650253.84963951 -9105439.84255377 0 0 0 0 0 95393156.68725254 -15238401.53347057 -15238401.53347057 -9206355.121096352 0 0 0 0 0 96206149.90154484 -14820474.50845885 -14820474.50845885 -9287137.827935779 0 0 0 0 0 97126791.74037787 -14443249.34097077 -14443249.34097077 -8825280.337582178 0 0 0 0 0 97546818.75629364 -13738731.57468445 -13738731.57468445 -9115049.794017525 0 0 0 0 0 97856475.67928955 -14034289.22293138 -14034289.22293138 -8899154.013131695 0 0 0 0 0 98212993.18512671 -13329005.11721338 -13329005.11721338 -9149105.76409182 0 0 0 0 0 98840356.44594063 -12919252.93498907 -12919252.93498907 -9167454.746263823 0 0 0 0 0 99429995.7615076 -12511389.34500121 -12511389.34500121 -9172358.393386096 0 0 0 0 0 99985122.7756651 -12105669.55883605 -12105669.55883605 -9163971.973115461 0 0 0 0 0 100300861.5945026 -11548195.53954244 -11548195.53954244 -8899124.349009098 0 0 0 0 0 100669782.054144 -11815661.49079549 -11815661.49079549 -8786746.705288861 0 0 0 0 0 100777523.8394246 -11164172.19817603 -11164172.19817603 -8871882.925687036 0 0 0 0 0 101223879.1036455 -10784734.61018737 -10784734.61018737 -8834274.655030416 0 0 0 0 0 101641328.9178931 -10411127.39042454 -10411127.39042454 -8787058.732155137 0 0 0 0 0 102029949.2879391 -10042591.67749461 -10042591.67749461 -8729544.428036598 0 0 0 0 0 102391782.955153 -9680953.264289459 -9680953.264289459 -8663646.37337948 0 0 0 0 0 103192400.6228174 -9124166.813167609 -9124166.813167609 -8311922.138951165 0 0 0 0 0 102727728.4647139 -9326312.108018445 -9326312.108018445 -8590371.512619363 0 0 0 0 0 102807603.3595344 -8910035.74142923 -8910035.74142923 -8321063.33735017 0 0 0 0 0 103095867.2859238 -8579608.139670962 -8579608.139670962 -8241588.642991576 0 0 0 0 0 103363144.6391608 -8256399.572116073 -8256399.572116073 -8156333.990506347 0 0 0 0 0 103610945.1254127 -7941660.557643523 -7941660.557643523 -8064528.285462316 0 0 0 0 0 103837641.9587613 -7634579.553864255 -7634579.553864255 -7962189.498188284 0 0 0 0 0 104032875.4633222 -7340826.253688586 -7340826.253688586 -7854210.327906544 0 0 0 0 0 104338824.8232046 -7207087.95383699 -7207087.95383699 -7669032.966798952 0 0 0 0 0 103981351.0682809 -7038173.044585129 -7038173.044585129 -7606444.979711521 0 0 0 0 0 104154364.156336 -6765534.83385929 -6765534.83385929 -7511737.02369403 0 0 0 0 0 104316556.8962213 -6495463.776569501 -6495463.776569501 -7409663.789956694 0 0 0 0 0 104466839.3469501 -6232586.950071501 -6232586.950071501 -7304783.922001656 0 0 0 0 0 104722270.9217483 -6118278.747356633 -6118278.747356633 -7139307.572971342 0 0 0 0 0 104394741.3299484 -5977493.982425742 -5977493.982425742 -7075804.562330963 0 0 0 0 0 104522478.0682322 -5735302.813704268 -5735302.813704268 -6972670.072787479 0 0 0 0 0 104638617.0511924 -5500522.994657319 -5500522.994657319 -6867529.914183064 0 0 0 0 0 104742715.5143943 -5272826.108363417 -5272826.108363417 -6760394.050139324 0 0 0 0 0 104834865.7641362 -5051787.276863129 -5051787.276863129 -6652488.679788897 0 0 0 0 0 104917540.2319428 -4836961.715657617 -4836961.715657617 -6543953.176685057 0 0 0 0 0 104991921.5674506 -4628233.370441474 -4628233.370441474 -6434529.008152224 0 0 0 0 0 105057446.4625468 -4425614.599405764 -4425614.599405764 -6324932.616726817 0 0 0 0 0 104940308.1666146 -4261933.994587963 -4261933.994587963 -6134391.980459548 0 0 0 0 0 105210350.665694 -4356611.455424746 -4356611.455424746 -6223654.665868629 0 0 0 0 0 104990977.2982219 -4076024.701566697 -4076024.701566697 -6028823.25004704 0 0 0 0 0 105123015.6743656 -4016403.039607719 -4016403.039607719 -5940385.857358986 0 0 0 0 0 104868183.3137037 -3927439.55803539 -3927439.55803539 -5851985.556993356 0 0 0 0 0 104915211.4708248 -3756634.303597508 -3756634.303597508 -5752047.191381106 0 0 0 0 0 104940111.2176792 -3588126.119427435 -3588126.119427435 -5651789.702347559 0 0 0 0 0 104966620.5710112 -3423845.778803191 -3423845.778803191 -5552286.65601314 0 0 0 0 0 105024521.6353934 -3266794.37602436 -3266794.37602436 -5455155.456228561 0 0 0 0 0 105085333.161362 -3092737.582144978 -3092737.582144978 -5295579.919478684 0 0 0 0 0 105077875.714501 -2959620.621081265 -2959620.621081265 -5169759.260927319 0 0 0 0 0 104959438.2265854 -2869804.525242008 -2869804.525242008 -5148820.067059005 0 0 0 0 0 105083907.0112251 -2767901.210217553 -2767901.210217553 -5013362.766487287 0 0 0 0 0 82221563.18086499 -20329047.34253803 -20329047.34253803 -7811214.682154382 0 0 0 0 0 31211748.94186038 -1080737.556800816 -1080737.556800816 -716255.9377739744 0 0 0 0 0 32229767.27926013 -2797775.574091483 -2797775.574091483 -548992.3952622825 0 0 0 0 0 34062662.68081611 -3954338.225617956 -3954338.225617956 68045.67105901372 0 0 0 0 0 35021185.88791659 -5728254.506283068 -5728254.506283068 2860.929547464969 0 0 0 0 0 36210199.00467184 -7634446.550240367 -7634446.550240367 -105155.6068428253 0 0 0 0 0 37644758.97659218 -9511736.815120807 -9511736.815120807 -251862.8664919382 0 0 0 0 0 39200693.53509406 -11285233.20175456 -11285233.20175456 -465473.6704930589 0 0 0 0 0 39651545.15144932 -11170606.41954624 -11170606.41954624 -510016.4479373129 0 0 0 0 0 42969524.27996843 -12956420.91480058 -12956420.91480058 -307227.2822291048 0 0 0 0 0 44779885.99190265 -14436345.52327748 -14436345.52327748 -685271.8228048548 0 0 0 0 0 46708101.15128069 -15800403.75901894 -15800403.75901894 -1111398.751349031 0 0 0 0 0 48732447.6014472 -17044940.29700629 -17044940.29700629 -1578877.614865893 0 0 0 0 0 52536401.48670746 -17869061.64103646 -17869061.64103646 -1758903.926625003 0 0 0 0 0 49882210.33963653 -16695687.44536337 -16695687.44536337 -1473727.684512933 0 0 0 0 0 54619802.78631786 -18815579.43043466 -18815579.43043466 -2293216.985350832 0 0 0 0 0 56745386.78662607 -19646326.52233921 -19646326.52233921 -2845163.009037824 0 0 0 0 0 58899152.31921597 -20363097.29434032 -20363097.29434032 -3408655.005727366 0 0 0 0 0 61065412.7831995 -20968050.69190968 -20968050.69190968 -3977351.936422298 0 0 0 0 0 63234325.67242882 -21465260.98185978 -21465260.98185978 -4545675.657405675 0 0 0 0 0 65392354.24594793 -21859028.57698956 -21859028.57698956 -5107995.812966311 0 0 0 0 0 67096634.6869682 -21273148.72787419 -21273148.72787419 -4687759.715148432 0 0 0 0 0 68516287.60391302 -21606792.78950702 -21606792.78950702 -5343403.307682144 0 0 0 0 0 70532545.7022385 -21797530.38525061 -21797530.38525061 -5871620.047296133 0 0 0 0 0 72507819.32235101 -21903488.63194488 -21903488.63194488 -6385772.693183314 0 0 0 0 0 74443946.02735204 -21930375.70032178 -21930375.70032178 -6873035.616959533 0 0 0 0 0 76326857.8747206 -21888921.74135859 -21888921.74135859 -7337242.591026524 0 0 0 0 0 78108410.62822069 -21775898.19830314 -21775898.19830314 -7756138.008806237 0 0 0 0 0 79782869.34447035 -21152242.43303576 -21152242.43303576 -7177727.495353901 0 0 0 0 0 80261046.60427848 -21051410.75817402 -21051410.75817402 -7782350.256295094 0 0 0 0 0 81896417.62599513 -20848261.96438088 -20848261.96438088 -8163851.408963182 0 0 0 0 0 83726251.94536643 -19771289.76154771 -19771289.76154771 -7246418.818535306 0 0 0 0 0 85189010.57575959 -19533598.29016491 -19533598.29016491 -7575115.24404805 0 0 0 0 0 86787004.13878918 -18808742.10463095 -18808742.10463095 -7575959.833002524 0 0 0 0 0 85407706.95808385 -19334206.29345524 -19334206.29345524 -8119049.013142145 0 0 0 0 0 88110552.8311459 -18517997.01680038 -18517997.01680038 -7865156.833467854 0 0 0 0 0 89374689.78852256 -18198022.3090381 -18198022.3090381 -8127361.842096373 0 0 0 0 0 90579269.22805315 -17851471.01595455 -17851471.01595455 -8365008.160808734 0 0 0 0 0 91726178.2168344 -17481784.94435409 -17481784.94435409 -8579059.227604266 0 0 0 0 0 92791801.2894121 -16735615.0171914 -16735615.0171914 -8465295.610389648 0 0 0 0 0 91636015.69010803 -17193353.59960257 -17193353.59960257 -8987689.800259952 0 0 0 0 0 93793187.43411118 -16350581.80635706 -16350581.80635706 -8637595.353763582 0 0 0 0 0 94739851.34648727 -15952726.56903258 -15952726.56903258 -8786891.821910275 0 0 0 0 0 95635086.08725436 -15543965.86966377 -15543965.86966377 -8914694.676135812 0 0 0 0 0 96480877.82373475 -15126973.83652977 -15126973.83652977 -9021926.433593217 0 0 0 0 0 97277428.7021286 -14704441.22160878 -14704441.22160878 -9110313.425522041 0 0 0 0 0 96973518.37299266 -14397852.09873199 -14397852.09873199 -9349832.811350126 0 0 0 0 0 98543008.92829955 -13622755.59763776 -13622755.59763776 -8956371.709485259 0 0 0 0 0 97697907.57659693 -13972722.25693862 -13972722.25693862 -9394715.51689234 0 0 0 0 0 99188353.33459212 -13209832.01368985 -13209832.01368985 -8997184.088970304 0 0 0 0 0 99793292.88911529 -12796894.16029424 -12796894.16029424 -9022889.224732693 0 0 0 0 0 100361063.5916779 -12386049.6968616 -12386049.6968616 -9034428.600284539 0 0 0 0 0 100892170.1028593 -11978172.78241296 -11978172.78241296 -9032416.007698508 0 0 0 0 0 101155173.162182 -11426125.59666466 -11426125.59666466 -8777410.810589274 0 0 0 0 0 100504906.7861842 -11702306.30401776 -11702306.30401776 -9140502.776306115 0 0 0 0 0 101608521.0117404 -11040729.22375377 -11040729.22375377 -8757228.31763369 0 0 0 0 0 102031401.9101981 -10659880.30445574 -10659880.30445574 -8726311.436347995 0 0 0 0 0 102424565.4750867 -10284656.9620619 -10284656.9620619 -8684942.99260773 0 0 0 0 0 102789728.8580498 -9915609.660103535 -9915609.660103535 -8635076.012855887 0 0 0 0 0 103127324.3215688 -9553287.497211162 -9553287.497211162 -8576327.095631547 0 0 0 0 0 103039506.5001277 -8978960.389787309 -8978960.389787309 -8510689.756062075 0 0 0 0 0 103439816.2268004 -9197719.67841612 -9197719.67841612 -8508729.669628637 0 0 0 0 0 103480002.2063496 -8786726.591914648 -8786726.591914648 -8244226.719851403 0 0 0 0 0 103745772.7611432 -8456206.508851994 -8456206.508851994 -8170058.35383646 0 0 0 0 0 103990884.3816748 -8133170.88592947 -8133170.88592947 -8089946.868655898 0 0 0 0 0 104213647.7169395 -7818070.488758093 -7818070.488758093 -8004423.064377648 0 0 0 0 0 104409276.8188695 -7519902.352610718 -7519902.352610718 -7923037.181806329 0 0 0 0 0 104578222.6560435 -7230560.501081818 -7230560.501081818 -7829478.946864015 0 0 0 0 0 104208815.371265 -7057311.832416146 -7057311.832416146 -7751932.579986393 0 0 0 0 0 104505819.343507 -6927158.599050106 -6927158.599050106 -7567639.98013779 0 0 0 0 0 104665034.02599 -6650326.501822932 -6650326.501822932 -7468707.130367968 0 0 0 0 0 104810255.2800278 -6381332.265057789 -6381332.265057789 -7369330.511579151 0 0 0 0 0 104941776.7594418 -6119530.343165073 -6119530.343165073 -7268345.908549991 0 0 0 0 0 104604080.924137 -5977247.078028035 -5977247.078028035 -7197841.839375312 0 0 0 0 0 104844211.2624853 -5869650.83754941 -5869650.83754941 -7041767.78884981 0 0 0 0 0 104954368.6936053 -5628415.852528105 -5628415.852528105 -6942150.809415456 0 0 0 0 0 105052890.0678525 -5394765.88548644 -5394765.88548644 -6840693.134883852 0 0 0 0 0 105139954.3767756 -5168506.52955079 -5168506.52955079 -6737676.867318188 0 0 0 0 0 105217536.6180952 -4948633.344289978 -4948633.344289978 -6631929.874805116 0 0 0 0 0 105286022.8843461 -4735056.528157465 -4735056.528157465 -6525344.669843495 0 0 0 0 0 105345868.6208856 -4527772.021275117 -4527772.021275117 -6418273.423374948 0 0 0 0 0 105398402.0568726 -4326713.535506468 -4326713.535506468 -6310710.424476876 0 0 0 0 0 105258518.9567197 -4167090.413402157 -4167090.413402157 -6122719.357631176 0 0 0 0 0 105118324.9053265 -4230249.84261369 -4230249.84261369 -6215168.651110351 0 0 0 0 0 105299508.634151 -3983089.829976948 -3983089.829976948 -6018353.014894638 0 0 0 0 0 105037313.0898147 -3896162.717858988 -3896162.717858988 -5923107.296209028 0 0 0 0 0 105160509.5903181 -3840423.295192138 -3840423.295192138 -5840977.852134427 0 0 0 0 0 105189596.0608322 -3672040.31442217 -3672040.31442217 -5742294.043714274 0 0 0 0 0 105223384.7601486 -3499704.687632863 -3499704.687632863 -5633436.714025398 0 0 0 0 0 105240689.4880131 -3344152.742554611 -3344152.742554611 -5540393.822782663 0 0 0 0 0 105267753.3964746 -3174137.010496044 -3174137.010496044 -5424355.934631358 0 0 0 0 0 105192316.3631357 -3031271.122075757 -3031271.122075757 -5372968.254586748 0 0 0 0 0 105160658.9663538 -2921822.661244946 -2921822.661244946 -5265760.236659585 0 0 0 0 0 105157379.4160824 -2797036.277223906 -2797036.277223906 -5138060.451353197 0 0 0 0 0 105054538.1223492 -2737751.24721178 -2737751.24721178 -5095979.454490129 0 0 0 0 0 83448494.46244591 -20262972.04034416 -20262972.04034416 -7582863.425922159 0 0 0 0 0 30339615.374676 -815919.3004404698 -815919.3004404698 -1124862.036008343 0 0 0 0 0 32598082.25095795 -2877711.566047271 -2877711.566047271 -599277.4883877923 0 0 0 0 0 31412005.53665898 -3713352.410621748 -3713352.410621748 -740199.7496204342 0 0 0 0 0 32579266.62020018 -5451308.33042137 -5451308.33042137 -776451.8944772225 0 0 0 0 0 34031990.79803526 -7366817.894001801 -7366817.894001801 -810978.986131379 0 0 0 0 0 35660294.04047086 -9247160.299034726 -9247160.299034726 -905553.1724528632 0 0 0 0 0 37465953.80026815 -11045676.19593928 -11045676.19593928 -1042528.83490586 0 0 0 0 0 40922164.60818483 -12954884.18003557 -12954884.18003557 -751223.7916135283 0 0 0 0 0 41572282.33710191 -12776186.67414041 -12776186.67414041 -763702.0802021644 0 0 0 0 0 43627338.79887716 -14271291.58446412 -14271291.58446412 -1072894.604814106 0 0 0 0 0 45793612.38642937 -15649223.80640388 -15649223.80640388 -1432732.689310949 0 0 0 0 0 48052295.92554998 -16906557.82040107 -16906557.82040107 -1835568.130032781 0 0 0 0 0 52122831.84547867 -17769124.28746617 -17769124.28746617 -1925705.671218264 0 0 0 0 0 50839975.09339577 -18168476.46323846 -18168476.46323846 -2081441.775743468 0 0 0 0 0 54411290.90922761 -18724387.45215299 -18724387.45215299 -2405075.691571462 0 0 0 0 0 56731181.19444878 -19562162.41518603 -19562162.41518603 -2905765.606454593 0 0 0 0 0 59067833.57969476 -20284367.33936309 -20284367.33936309 -3421871.292366136 0 0 0 0 0 61407139.869008 -20893284.30048452 -20893284.30048452 -3946678.137830545 0 0 0 0 0 63734743.35358384 -21392774.94613527 -21392774.94613527 -4475454.368344656 0 0 0 0 0 66039859.39036976 -21787111.27564363 -21787111.27564363 -5002377.811925462 0 0 0 0 0 67531123.36113587 -22154310.28080482 -22154310.28080482 -5660174.482013658 0 0 0 0 0 69266300.34872966 -21550088.16973286 -21550088.16973286 -5202738.505095031 0 0 0 0 0 71394646.97555315 -21737338.20685702 -21737338.20685702 -5706511.424719604 0 0 0 0 0 73474098.12282959 -21840390.3119516 -21840390.3119516 -6197456.662373223 0 0 0 0 0 75499094.24972811 -21864909.90934554 -21864909.90934554 -6666825.167850485 0 0 0 0 0 77460072.29768123 -21816150.809018 -21816150.809018 -7114191.093928971 0 0 0 0 0 79361757.95582852 -21700570.76104497 -21700570.76104497 -7530068.623105226 0 0 0 0 0 79852684.19023 -21591424.95377265 -21591424.95377265 -8138616.48614895 0 0 0 0 0 81490907.17181656 -20980716.30749375 -20980716.30749375 -7553223.781044391 0 0 0 0 0 83136191.83086839 -20764646.06868717 -20764646.06868717 -7919166.818691188 0 0 0 0 0 83722406.36672601 -20086386.42136346 -20086386.42136346 -8144350.224104052 0 0 0 0 0 85162630.50520419 -19804913.80771657 -19804913.80771657 -8453640.845579276 0 0 0 0 0 86765928.14297578 -19035619.70688691 -19035619.70688691 -8411129.673861455 0 0 0 0 0 86597831.66653384 -19260612.96885369 -19260612.96885369 -7884791.317868276 0 0 0 0 0 88065510.45764887 -18705613.23647847 -18705613.23647847 -8675110.216917412 0 0 0 0 0 89304926.6934164 -18348142.0790774 -18348142.0790774 -8912745.390269613 0 0 0 0 0 90489516.80503361 -17967505.0614612 -17967505.0614612 -9124263.996103277 0 0 0 0 0 91621654.22107458 -17567409.06520258 -17567409.06520258 -9311213.327454569 0 0 0 0 0 92680528.60136084 -16795115.72167793 -16795115.72167793 -9151814.566710876 0 0 0 0 0 92815772.61764057 -17094477.68943465 -17094477.68943465 -8772432.052871088 0 0 0 0 0 93668913.40183894 -16383351.20146012 -16383351.20146012 -9292331.088040221 0 0 0 0 0 94604265.25495583 -15961007.28722592 -15961007.28722592 -9410913.144897845 0 0 0 0 0 95490073.89251357 -15530305.33992862 -15530305.33992862 -9508406.795858942 0 0 0 0 0 96327677.04722966 -15093242.91693283 -15093242.91693283 -9585697.598798258 0 0 0 0 0 97117207.54164404 -14652174.57178059 -14652174.57178059 -9643493.388556391 0 0 0 0 0 98026273.54522192 -14278056.76104744 -14278056.76104744 -9180738.712169839 0 0 0 0 0 98379896.99953996 -13546045.4627709 -13546045.4627709 -9422829.460485382 0 0 0 0 0 98729922.57273725 -13848996.18567092 -13848996.18567092 -9232499.534030331 0 0 0 0 0 99021558.92428184 -13119632.41459276 -13119632.41459276 -9435908.225068048 0 0 0 0 0 99624497.64521644 -12695700.11912681 -12695700.11912681 -9434317.176701467 0 0 0 0 0 100190783.1889762 -12274462.85836376 -12274462.85836376 -9418640.12936764 0 0 0 0 0 100719737.5365195 -11855773.51094206 -11855773.51094206 -9389618.481005032 0 0 0 0 0 100989417.4483284 -11304228.1692014 -11304228.1692014 -9106793.386920866 0 0 0 0 0 101386540.8626038 -11573313.24325096 -11573313.24325096 -9018442.768177332 0 0 0 0 0 101442497.9957654 -10911448.09232707 -10911448.09232707 -9062578.484767642 0 0 0 0 0 101865973.4595737 -10524436.72002882 -10524436.72002882 -9007959.642846361 0 0 0 0 0 102259897.3769137 -10143398.55763111 -10143398.55763111 -8944241.023222528 0 0 0 0 0 102626657.5416171 -9769699.868868591 -9769699.868868591 -8871787.319873501 0 0 0 0 0 102966619.5235776 -9403081.172445552 -9403081.172445552 -8790715.342779096 0 0 0 0 0 103728601.1092287 -8849889.890068995 -8849889.890068995 -8434050.219142346 0 0 0 0 0 103281722.8494737 -9044667.975105887 -9044667.975105887 -8703396.586529056 0 0 0 0 0 103329023.2754122 -8638660.482092422 -8638660.482092422 -8424386.174386071 0 0 0 0 0 103597142.5657061 -8306019.130442817 -8306019.130442817 -8331974.489021768 0 0 0 0 0 103844611.1051759 -7981003.079519466 -7981003.079519466 -8234758.196281694 0 0 0 0 0 104073720.1762644 -7668233.02670165 -7668233.02670165 -8129040.760107659 0 0 0 0 0 104277757.7706026 -7362796.585756823 -7362796.585756823 -8013726.827112822 0 0 0 0 0 104447937.9517913 -7071516.128385023 -7071516.128385023 -7899339.070610344 0 0 0 0 0 104740988.4307593 -6944062.387497121 -6944062.387497121 -7721411.368734185 0 0 0 0 0 104376812.5097895 -6778565.832290491 -6778565.832290491 -7652903.494283815 0 0 0 0 0 104538484.1486556 -6502658.14525151 -6502658.14525151 -7544338.923516717 0 0 0 0 0 104686187.6376948 -6233770.058572448 -6233770.058572448 -7433416.760914175 0 0 0 0 0 104821012.5062431 -5972674.066986043 -5972674.066986043 -7320187.025052945 0 0 0 0 0 105060896.0100932 -5865347.097418789 -5865347.097418789 -7164862.760638056 0 0 0 0 0 104729161.8168576 -5729446.112923584 -5729446.112923584 -7088989.075886601 0 0 0 0 0 104842642.9901769 -5489238.136407584 -5489238.136407584 -6978411.821580083 0 0 0 0 0 104944550.5825151 -5256495.068755449 -5256495.068755449 -6866310.738590945 0 0 0 0 0 105035007.0269261 -5030830.090362452 -5030830.090362452 -6752256.377511051 0 0 0 0 0 105114686.7355837 -4812465.178935949 -4812465.178935949 -6639125.502249192 0 0 0 0 0 105186217.411418 -4599887.396934579 -4599887.396934579 -6524232.992750802 0 0 0 0 0 105248843.0162226 -4394155.227981812 -4394155.227981812 -6409528.240403371 0 0 0 0 0 105304588.4495884 -4195297.001237135 -4195297.001237135 -6294745.811782623 0 0 0 0 0 105169732.7362167 -4041766.14633238 -4041766.14633238 -6104964.760183438 0 0 0 0 0 105443190.1160117 -4132945.270864816 -4132945.270864816 -6203721.065878727 0 0 0 0 0 105212972.8187458 -3859178.734172098 -3859178.734172098 -5994797.268521272 0 0 0 0 0 105333474.4453419 -3804751.810322035 -3804751.810322035 -5914668.014078352 0 0 0 0 0 105078130.2987119 -3722662.19562692 -3722662.19562692 -5817356.467473588 0 0 0 0 0 105106710.6218902 -3552529.445384116 -3552529.445384116 -5711782.977601433 0 0 0 0 0 105140836.5678307 -3389273.823389678 -3389273.823389678 -5608784.320730716 0 0 0 0 0 105155139.0288055 -3231026.041487113 -3231026.041487113 -5517194.159345481 0 0 0 0 0 105165053.5056619 -3096515.567455553 -3096515.567455553 -5441389.400282731 0 0 0 0 0 105318973.3978402 -2979619.652897506 -2979619.652897506 -5296556.121365439 0 0 0 0 0 105250378.7618047 -2881025.250721413 -2881025.250721413 -5203348.950801331 0 0 0 0 0 105175705.5690742 -2786456.93344963 -2786456.93344963 -5118621.889145734 0 0 0 0 0 105146295.5586365 -2687404.088602042 -2687404.088602042 -5030187.869020715 0 0 0 0 0 83449311.44485815 -20594611.54965298 -20594611.54965298 -8499483.479440026 0 0 0 0 0 28948126.05302782 -1152087.303888839 -1152087.303888839 -1670222.040037554 0 0 0 0 0 30271323.22556096 -3105087.527182047 -3105087.527182047 -1257900.210498943 0 0 0 0 0 32878955.42709905 -5326134.282308956 -5326134.282308956 -693287.2775824057 0 0 0 0 0 34032400.7934965 -7345396.85292101 -7345396.85292101 -723942.2801271185 0 0 0 0 0 35434309.4729039 -9293467.194450572 -9293467.194450572 -840172.9925507786 0 0 0 0 0 37031428.16193781 -11161636.95698103 -11161636.95698103 -1022669.240030833 0 0 0 0 0 38782647.72123487 -12922656.34992106 -12922656.34992106 -1274608.498687092 0 0 0 0 0 39428972.07402265 -12737263.84566103 -12737263.84566103 -1256032.860562169 0 0 0 0 0 42785767.40746808 -14514398.78766062 -14514398.78766062 -1102365.03338575 0 0 0 0 0 44776676.69180541 -15953583.8634533 -15953583.8634533 -1508086.584468825 0 0 0 0 0 46874722.23166431 -17268400.15800034 -17268400.15800034 -1959969.946955566 0 0 0 0 0 49062550.64180604 -18456546.0673912 -18456546.0673912 -2450425.522978134 0 0 0 0 0 53009508.86085428 -19170316.02236894 -19170316.02236894 -2611803.279171297 0 0 0 0 0 50383972.02177984 -18041924.08219643 -18041924.08219643 -2276489.541846687 0 0 0 0 0 55225798.56199613 -20050115.54357674 -20050115.54357674 -3162621.95699443 0 0 0 0 0 57473713.0130532 -20809769.33814012 -20809769.33814012 -3727110.762882611 0 0 0 0 0 59738144.04947004 -21451663.12829806 -21451663.12829806 -4298921.397329898 0 0 0 0 0 62005428.50122643 -21979532.45482177 -21979532.45482177 -4872090.657231865 0 0 0 0 0 64263689.58036741 -22397880.98258673 -22397880.98258673 -5441026.776112952 0 0 0 0 0 66501099.07636458 -22711693.21332798 -22711693.21332798 -6000240.121496947 0 0 0 0 0 68311149.75318046 -22081445.12384056 -22081445.12384056 -5523357.118481821 0 0 0 0 0 69640456.46377802 -22356132.47885889 -22356132.47885889 -6197735.086276683 0 0 0 0 0 71710647.48140712 -22469311.13754538 -22469311.13754538 -6717233.38974821 0 0 0 0 0 73733724.37625767 -22500214.32298374 -22500214.32298374 -7215375.908931665 0 0 0 0 0 75704739.15793629 -22455932.14721535 -22455932.14721535 -7687561.322032037 0 0 0 0 0 77614574.15390342 -22340372.59736338 -22340372.59736338 -8132184.644041294 0 0 0 0 0 79417676.18042406 -22149256.94503044 -22149256.94503044 -8519072.810843747 0 0 0 0 0 81113174.38311598 -21516946.19327294 -21516946.19327294 -7919646.797204984 0 0 0 0 0 81529224.77065882 -21369231.62151089 -21369231.62151089 -8512126.70238135 0 0 0 0 0 83167324.6336026 -21108041.44688069 -21108041.44688069 -8870902.773327382 0 0 0 0 0 84964635.40793946 -20011544.14894855 -20011544.14894855 -7912646.267767471 0 0 0 0 0 86429176.00449039 -19724423.03083298 -19724423.03083298 -8217053.690351395 0 0 0 0 0 87967867.54171988 -18955473.84069222 -18955473.84069222 -8178400.94439199 0 0 0 0 0 86572071.99673405 -19492411.70383153 -19492411.70383153 -8743374.131259616 0 0 0 0 0 89280034.8347258 -18618845.19112985 -18618845.19112985 -8443913.709334532 0 0 0 0 0 90530337.47672954 -18254346.79095317 -18254346.79095317 -8683679.161253655 0 0 0 0 0 91719354.60139614 -17866670.19856456 -17866670.19856456 -8898942.646477526 0 0 0 0 0 92846595.93262361 -17460333.53176988 -17460333.53176988 -9091305.647071475 0 0 0 0 0 93848357.92088681 -16691089.91562868 -16691089.91562868 -8942964.043729186 0 0 0 0 0 92697210.70327851 -17150315.99986419 -17150315.99986419 -9473524.686982656 0 0 0 0 0 94825567.65488635 -16274030.12717363 -16274030.12717363 -9090064.241558809 0 0 0 0 0 95748567.052016 -15846428.27566606 -15846428.27566606 -9215279.993135601 0 0 0 0 0 96618946.15556192 -15410641.06029013 -15410641.06029013 -9319856.26838601 0 0 0 0 0 97438336.01420325 -14969079.83529316 -14969079.83529316 -9404537.54577525 0 0 0 0 0 98207671.52564006 -14523983.05613538 -14523983.05613538 -9470249.557006884 0 0 0 0 0 97860335.16241513 -14208349.90887673 -14208349.90887673 -9682334.579771932 0 0 0 0 0 99389970.93037781 -13418993.14351205 -13418993.14351205 -9268548.341666013 0 0 0 0 0 98559364.9125306 -13764178.36487665 -13764178.36487665 -9705293.087533403 0 0 0 0 0 100009590.4770124 -12989562.83470975 -12989562.83470975 -9288714.229111381 0 0 0 0 0 100588571.7586855 -12561847.41223497 -12561847.41223497 -9293930.377381373 0 0 0 0 0 101129500.4473434 -12138602.68176171 -12138602.68176171 -9286813.011018606 0 0 0 0 0 101630215.9100356 -11718999.03682718 -11718999.03682718 -9265234.608810017 0 0 0 0 0 101846597.0587875 -11173608.38756995 -11173608.38756995 -8991728.810425146 0 0 0 0 0 101214262.4671834 -11442704.46364255 -11442704.46364255 -9348124.689624086 0 0 0 0 0 102275047.0218549 -10779360.31634208 -10779360.31634208 -8953822.008710176 0 0 0 0 0 102672877.4528494 -10391132.32079707 -10391132.32079707 -8905704.777281793 0 0 0 0 0 103041611.6402998 -10009549.92460339 -10009549.92460339 -8848482.815703729 0 0 0 0 0 103382642.6559367 -9635109.308054756 -9635109.308054756 -8781935.583796456 0 0 0 0 0 103697836.5359971 -9268482.908435266 -9268482.908435266 -8708090.936629832 0 0 0 0 0 103572908.3866601 -8694100.078710586 -8694100.078710586 -8609637.118445516 0 0 0 0 0 103987698.0452927 -8909593.8169806 -8909593.8169806 -8626536.996518042 0 0 0 0 0 103994848.4954396 -8509627.476492824 -8509627.476492824 -8353056.127230516 0 0 0 0 0 104239374.7540883 -8177075.564733688 -8177075.564733688 -8266045.860811191 0 0 0 0 0 104465201.0454289 -7852700.220405007 -7852700.220405007 -8173553.422712461 0 0 0 0 0 104658866.227534 -7543038.348167865 -7543038.348167865 -8081470.074648924 0 0 0 0 0 104830624.0464684 -7245372.684560671 -7245372.684560671 -7985411.650548631 0 0 0 0 0 104990552.3669871 -6956611.431128408 -6956611.431128408 -7876050.188924191 0 0 0 0 0 104610081.1826144 -6786782.88043314 -6786782.88043314 -7791166.13430851 0 0 0 0 0 104897458.9507331 -6659211.427175018 -6659211.427175018 -7609505.415382344 0 0 0 0 0 105040383.5742803 -6384115.122716612 -6384115.122716612 -7505329.342579537 0 0 0 0 0 105169225.5877926 -6116363.384460328 -6116363.384460328 -7397908.161929614 0 0 0 0 0 105285020.7718501 -5856609.525814638 -5856609.525814638 -7288560.12779746 0 0 0 0 0 104943244.421045 -5719435.177700668 -5719435.177700668 -7205391.44423077 0 0 0 0 0 105168064.5787008 -5618742.223227116 -5618742.223227116 -7059425.608323623 0 0 0 0 0 105263778.9810631 -5379747.172094215 -5379747.172094215 -6952246.412048454 0 0 0 0 0 105348488.6027649 -5148280.315020385 -5148280.315020385 -6843436.951726558 0 0 0 0 0 105422222.0799805 -4924497.689946834 -4924497.689946834 -6733908.826335851 0 0 0 0 0 105487546.3445095 -4706793.059228739 -4706793.059228739 -6621467.86836595 0 0 0 0 0 105543930.6236972 -4496054.385720223 -4496054.385720223 -6509484.297994417 0 0 0 0 0 105592352.1754036 -4291995.579444177 -4291995.579444177 -6396970.620274377 0 0 0 0 0 105633129.9693733 -4094939.814993474 -4094939.814993474 -6284686.257218744 0 0 0 0 0 105480725.029385 -3945728.811676154 -3945728.811676154 -6096000.943840948 0 0 0 0 0 105352407.4095606 -4003378.101446192 -4003378.101446192 -6180001.159524732 0 0 0 0 0 105511304.0605175 -3764841.56717094 -3764841.56717094 -5987675.843139357 0 0 0 0 0 105249364.5469782 -3682549.483270493 -3682549.483270493 -5884697.23846777 0 0 0 0 0 105360440.1811269 -3632412.138740638 -3632412.138740638 -5811082.952091428 0 0 0 0 0 105383176.7225974 -3464104.096067505 -3464104.096067505 -5706232.071008656 0 0 0 0 0 105398899.2636735 -3304618.898887464 -3304618.898887464 -5604717.763714411 0 0 0 0 0 105414698.9389104 -3148275.055912056 -3148275.055912056 -5497655.06189381 0 0 0 0 0 105406233.4938839 -3005381.517909488 -3005381.517909488 -5388469.708520884 0 0 0 0 0 105340012.5031352 -2923074.017192021 -2923074.017192021 -5391281.609400064 0 0 0 0 0 105319336.1608557 -2828317.262830157 -2828317.262830157 -5298498.552758535 0 0 0 0 0 105269380.2684891 -2739619.874606014 -2739619.874606014 -5206411.891749261 0 0 0 0 0 105218803.721954 -2649171.989692006 -2649171.989692006 -5101471.186595747 0 0 0 0 0 84747358.36436407 -20507617.4016428 -20507617.4016428 -8262272.125707283 0 0 0 0 0 27960856.19409614 -834500.3607144204 -834500.3607144204 -2146161.377256328 0 0 0 0 0 29448476.82620881 -2845670.693078876 -2845670.693078876 -1640701.690891547 0 0 0 0 0 30369775.61703195 -5018872.344156364 -5018872.344156364 -1501783.948160705 0 0 0 0 0 31736938.18762135 -7060032.268245392 -7060032.268245392 -1466484.323480892 0 0 0 0 0 33350525.50940061 -9013622.195341503 -9013622.195341503 -1529057.841077977 0 0 0 0 0 35176227.20875999 -10885443.31049624 -10885443.31049624 -1653555.672747654 0 0 0 0 0 37199469.00130729 -12663097.26039428 -12663097.26039428 -1829364.20932761 0 0 0 0 0 40703707.49988376 -14564117.22998136 -14564117.22998136 -1592069.48327402 0 0 0 0 0 41545729.46402571 -14313684.58592585 -14313684.58592585 -1535182.349277582 0 0 0 0 0 43788926.01393309 -15768409.24819361 -15768409.24819361 -1870068.688415578 0 0 0 0 0 46135049.93020561 -17097433.61259785 -17097433.61259785 -2253070.932568746 0 0 0 0 0 48561846.32269404 -18298885.94952834 -18298885.94952834 -2677363.776567069 0 0 0 0 0 52770393.28284513 -19053800.90400584 -19053800.90400584 -2748198.504781868 0 0 0 0 0 51322045.73031981 -19517119.25027921 -19517119.25027921 -2972307.454205967 0 0 0 0 0 55192840.25701324 -19941911.63024406 -19941911.63024406 -3244078.261319774 0 0 0 0 0 57635273.00258036 -20707968.51349334 -20707968.51349334 -3757714.679525479 0 0 0 0 0 60081993.86761286 -21354944.00496922 -21354944.00496922 -4282548.032631692 0 0 0 0 0 62518784.72930422 -21886347.58734871 -21886347.58734871 -4812847.713609557 0 0 0 0 0 64932267.29342962 -22306450.15748795 -22306450.15748795 -5343469.961807764 0 0 0 0 0 67311235.99421334 -22620265.63018641 -22620265.63018641 -5868843.15598308 0 0 0 0 0 68708193.36121199 -22926528.77242011 -22926528.77242011 -6545215.774671547 0 0 0 0 0 70539378.26565599 -22281129.16174366 -22281129.16174366 -6033931.616733916 0 0 0 0 0 72715794.75653856 -22391745.05245692 -22391745.05245692 -6530132.095206686 0 0 0 0 0 74832529.55028188 -22419162.78965734 -22419162.78965734 -7008574.575956084 0 0 0 0 0 76879642.61484303 -22370997.65737937 -22370997.65737937 -7465617.983045707 0 0 0 0 0 78844446.49429412 -22251368.80217084 -22251368.80217084 -7899892.211021547 0 0 0 0 0 80719154.69737262 -22062295.36997515 -22062295.36997515 -8300090.114510916 0 0 0 0 0 81160575.48770103 -21913008.93637488 -21913008.93637488 -8882402.785748171 0 0 0 0 0 82826471.00059913 -21277178.28802462 -21277178.28802462 -8271593.193627231 0 0 0 0 0 84495903.38221049 -21004222.88626352 -21004222.88626352 -8618435.893642168 0 0 0 0 0 84944204.36412703 -20295414.60272218 -20295414.60272218 -8805825.044353047 0 0 0 0 0 86381794.43693963 -19960243.75646044 -19960243.75646044 -9092474.345137481 0 0 0 0 0 87920557.22065546 -19145512.05942478 -19145512.05942478 -9009093.156881286 0 0 0 0 0 87831130.26653366 -19402373.86809791 -19402373.86809791 -8501262.235173002 0 0 0 0 0 89209807.06030986 -18770226.4190212 -18770226.4190212 -9248510.949501541 0 0 0 0 0 90440097.62918916 -18370137.22391709 -18370137.22391709 -9460422.425199479 0 0 0 0 0 91611463.79339731 -17949756.10176659 -17949756.10176659 -9646269.576323874 0 0 0 0 0 92722887.88397619 -17512409.99665936 -17512409.99665936 -9806637.120214436 0 0 0 0 0 93717222.27399351 -16719346.07079509 -16719346.07079509 -9611963.957452804 0 0 0 0 0 93913671.58522458 -17037446.55501106 -17037446.55501106 -9259567.420900205 0 0 0 0 0 94683207.00058417 -16277257.22427481 -16277257.22427481 -9727304.908806026 0 0 0 0 0 95596348.72615613 -15826631.31954571 -15826631.31954571 -9820763.160062348 0 0 0 0 0 96458473.49397524 -15370015.55212257 -15370015.55212257 -9893273.037989492 0 0 0 0 0 97271011.365228 -14909401.90547611 -14909401.90547611 -9945773.497988494 0 0 0 0 0 98034438.8400072 -14446615.10324884 -14446615.10324884 -9979154.035916833 0 0 0 0 0 98928681.16994327 -14076994.55193036 -14076994.55193036 -9517826.010618126 0 0 0 0 0 99216351.01965791 -13320981.8680015 -13320981.8680015 -9711786.642711183 0 0 0 0 0 99604514.99866578 -13629054.58456804 -13629054.58456804 -9547555.607895834 0 0 0 0 0 99832918.40369216 -12878917.73550066 -12878917.73550066 -9704098.277084235 0 0 0 0 0 100411322.2326082 -12441540.6758283 -12441540.6758283 -9681961.615057472 0 0 0 0 0 100951550.5423278 -12006849.37330123 -12006849.37330123 -9643325.695382545 0 0 0 0 0 101452126.4272465 -11579503.94064334 -11579503.94064334 -9594463.490787907 0 0 0 0 0 101674899.988743 -11036054.33421125 -11036054.33421125 -9296482.729212478 0 0 0 0 0 102097672.6803745 -11304809.29494268 -11304809.29494268 -9231163.440431267 0 0 0 0 0 102104231.0479455 -10635444.48922244 -10635444.48922244 -9234375.305230798 0 0 0 0 0 102503247.2020599 -10241660.30647188 -10241660.30647188 -9162807.586851195 0 0 0 0 0 102873763.9436988 -9855338.977830024 -9855338.977830024 -9082277.30624973 0 0 0 0 0 103216714.9264177 -9477171.623023892 -9477171.623023892 -8994336.930734053 0 0 0 0 0 103534294.2756675 -9106962.227303777 -9106962.227303777 -8898780.010898212 0 0 0 0 0 104254443.305904 -8559262.735221131 -8559262.735221131 -8538491.968462169 0 0 0 0 0 103827070.5805715 -8745827.722757248 -8745827.722757248 -8797212.579908911 0 0 0 0 0 103841639.3930682 -8351592.805199116 -8351592.805199116 -8510293.186691891 0 0 0 0 0 104089241.9337886 -8017898.95715566 -8017898.95715566 -8405217.427118804 0 0 0 0 0 104318995.628408 -7693395.646481982 -7693395.646481982 -8294762.543232003 0 0 0 0 0 104525072.8357511 -7380127.329719241 -7380127.329719241 -8170771.987311476 0 0 0 0 0 104695542.3629296 -7082743.43946779 -7082743.43946779 -8051381.408359665 0 0 0 0 0 104854368.4768042 -6790270.278256777 -6790270.278256777 -7933731.244815235 0 0 0 0 0 105139636.5940455 -6665626.045184962 -6665626.045184962 -7757895.281616926 0 0 0 0 0 104767485.6965502 -6505752.180458155 -6505752.180458155 -7680352.719643423 0 0 0 0 0 104913475.2575936 -6230516.536048472 -6230516.536048472 -7562469.997129163 0 0 0 0 0 105045511.5121714 -5963585.508174527 -5963585.508174527 -7442954.730200403 0 0 0 0 0 105164961.8315314 -5704776.365119403 -5704776.365119403 -7321584.556094001 0 0 0 0 0 105388843.23249 -5604727.345441397 -5604727.345441397 -7177055.348980757 0 0 0 0 0 105053638.4860002 -5473969.213316352 -5473969.213316352 -7089062.123389386 0 0 0 0 0 105152637.6225028 -5236215.320520631 -5236215.320520631 -6971380.446874835 0 0 0 0 0 105240728.4277799 -5005947.451925487 -5005947.451925487 -6852529.712746616 0 0 0 0 0 105318202.2762421 -4783054.354461745 -4783054.354461745 -6732962.313169015 0 0 0 0 0 105386007.7589753 -4567108.24311302 -4567108.24311302 -6613218.910263639 0 0 0 0 0 105445421.1039593 -4358062.298044021 -4358062.298044021 -6493304.827704811 0 0 0 0 0 105497025.6785239 -4155996.855227291 -4155996.855227291 -6373361.108765841 0 0 0 0 0 105540931.0476435 -3960984.653596552 -3960984.653596552 -6253637.834218203 0 0 0 0 0 105392814.1324035 -3818134.106138453 -3818134.106138453 -6065459.407142769 0 0 0 0 0 105666682.8544697 -3904713.801253539 -3904713.801253539 -6172265.849696149 0 0 0 0 0 105425993.7870605 -3638879.726156713 -3638879.726156713 -5951114.94222808 0 0 0 0 0 105535297.8118805 -3589765.156020462 -3589765.156020462 -5879514.77288488 0 0 0 0 0 105278396.4117785 -3511159.074080729 -3511159.074080729 -5774800.584910126 0 0 0 0 0 105305063.7152756 -3346465.903865351 -3346465.903865351 -5664910.4529532 0 0 0 0 0 105323996.2727938 -3188407.6505016 -3188407.6505016 -5554238.658691658 0 0 0 0 0 105351899.8718216 -3036623.955806026 -3036623.955806026 -5449349.704310219 0 0 0 0 0 105400700.0743962 -2896336.254675247 -2896336.254675247 -5347701.604792147 0 0 0 0 0 105417868.6921285 -2780622.928469798 -2780622.928469798 -5221721.202286188 0 0 0 0 0 105362522.9048679 -2692491.332522724 -2692491.332522724 -5129800.707908323 0 0 0 0 0 105313453.4826219 -2606231.342660698 -2606231.342660698 -5033072.238972981 0 0 0 0 0 84717115.17388903 -20791866.36899919 -20791866.36899919 -9183695.35581829 0 0 0 0 0 26606943.73284404 -1206308.779361269 -1206308.779361269 -2713483.664530091 0 0 0 0 0 28073342.42611835 -3225109.351883074 -3225109.351883074 -2172608.283841765 0 0 0 0 0 29980929.73464713 -5182055.482030845 -5182055.482030845 -1726824.567944248 0 0 0 0 0 31714881.28141542 -7071074.585517821 -7071074.585517821 -1485448.915287121 0 0 0 0 0 33182698.12162455 -9059623.313449627 -9059623.313449627 -1525246.85712377 0 0 0 0 0 34776280.23825876 -11000085.51454874 -11000085.51454874 -1666909.598837427 0 0 0 0 0 36565922.63430302 -12854342.94005912 -12854342.94005912 -1884522.371470622 0 0 0 0 0 38526341.26599343 -14584187.58573389 -14584187.58573389 -2165833.55775336 0 0 0 0 0 39376840.26156553 -14322562.58438639 -14322562.58438639 -2073444.513646016 0 0 0 0 0 42760373.26396756 -16082188.17755877 -16082188.17755877 -1969338.300414101 0 0 0 0 0 44932996.16753932 -17471723.76503125 -17471723.76503125 -2399536.819508298 0 0 0 0 0 47203587.39132333 -18729105.86899707 -18729105.86899707 -2872467.091750904 0 0 0 0 0 49554473.60654122 -19852299.70955666 -19852299.70955666 -3380731.773147502 0 0 0 0 0 53633263.61027554 -20449475.65930895 -20449475.65930895 -3518256.006010404 0 0 0 0 0 51049283.88746782 -19370979.88596468 -19370979.88596468 -3136920.015334946 0 0 0 0 0 55980154.35792627 -21255124.96314317 -21255124.96314317 -4081204.252175672 0 0 0 0 0 58346842.16431925 -21936444.21147641 -21936444.21147641 -4652262.841192793 0 0 0 0 0 60718402.46767042 -22497691.28784577 -22497691.28784577 -5227259.134604499 0 0 0 0 0 63081006.02970511 -22943162.44198098 -22943162.44198098 -5800530.836312293 0 0 0 0 0 65423034.53292871 -23277615.15723352 -23277615.15723352 -6365817.026355297 0 0 0 0 0 67733143.46861455 -23506954.87873034 -23506954.87873034 -6916846.391664031 0 0 0 0 0 69645131.34924631 -22833703.36941571 -22833703.36941571 -6384392.568403835 0 0 0 0 0 70874543.86735308 -23048115.13288391 -23048115.13288391 -7071724.075449298 0 0 0 0 0 72991523.84870823 -23082039.04128724 -23082039.04128724 -7575334.18117006 0 0 0 0 0 75053675.32784922 -23035682.20535573 -23035682.20535573 -8053027.817531855 0 0 0 0 0 77048993.07191943 -22915770.84880801 -22915770.84880801 -8501845.478867944 0 0 0 0 0 78983260.16920228 -22725684.87992125 -22725684.87992125 -8907833.931148866 0 0 0 0 0 80784577.4024861 -22465373.05451563 -22465373.05451563 -9275838.626719253 0 0 0 0 0 82510321.34802021 -21813623.92779501 -21813623.92779501 -8650605.775453933 0 0 0 0 0 82857254.78927873 -21630519.42910712 -21630519.42910712 -9240909.994744347 0 0 0 0 0 84497325.1630303 -21302949.47438585 -21302949.47438585 -9575735.240201307 0 0 0 0 0 86267588.59058969 -20205198.62669861 -20205198.62669861 -8570748.167122476 0 0 0 0 0 87712660.2859807 -19860668.34533284 -19860668.34533284 -8859005.621683845 0 0 0 0 0 89188953.1273994 -19049413.13540294 -19049413.13540294 -8771373.121817874 0 0 0 0 0 87776768.41000465 -19595954.83933863 -19595954.83933863 -9359198.66502771 0 0 0 0 0 90486225.7711035 -18666819.15863629 -18666819.15863629 -9013662.784626201 0 0 0 0 0 91717583.18818597 -18260167.44075668 -18260167.44075668 -9229852.107997783 0 0 0 0 0 92884385.86574872 -17833629.42121545 -17833629.42121545 -9420980.980939973 0 0 0 0 0 93987847.1491327 -17390252.05534149 -17390252.05534149 -9587309.536165969 0 0 0 0 0 94922080.16572896 -16600910.41800355 -16600910.41800355 -9404547.620388037 0 0 0 0 0 93776078.25008115 -17060948.81919407 -17060948.81919407 -9942338.7654854 0 0 0 0 0 95873155.93391575 -16153570.48428493 -16153570.48428493 -9526997.153680682 0 0 0 0 0 96769048.48597842 -15698031.73710842 -15698031.73710842 -9627603.425756782 0 0 0 0 0 97611413.8750836 -15237005.56696793 -15237005.56696793 -9708110.317130163 0 0 0 0 0 98401398.95783 -14772319.06426158 -14772319.06426158 -9768685.245632311 0 0 0 0 0 99141151.25206944 -14306339.26702726 -14306339.26702726 -9811073.232125688 0 0 0 0 0 98751115.89413933 -13984035.04717479 -13984035.04717479 -9994884.724558879 0 0 0 0 0 100237480.5406281 -13182680.01864582 -13182680.01864582 -9561712.224230405 0 0 0 0 0 99423567.57509001 -13522586.86650235 -13522586.86650235 -9995101.874525048 0 0 0 0 0 100831833.9638185 -12737126.59792385 -12737126.59792385 -9559914.919594692 0 0 0 0 0 101383724.6108479 -12296120.9714324 -12296120.9714324 -9545983.375440378 0 0 0 0 0 101892485.6790361 -11861394.4984312 -11861394.4984312 -9519170.043030087 0 0 0 0 0 102364546.6958025 -11433260.54528162 -11433260.54528162 -9478353.711764319 0 0 0 0 0 102532648.073975 -10896301.81921827 -10896301.81921827 -9186099.474414 0 0 0 0 0 101919560.0355276 -11158447.64055657 -11158447.64055657 -9535575.767674416 0 0 0 0 0 102935435.921305 -10494687.72127629 -10494687.72127629 -9131371.485690173 0 0 0 0 0 103307996.446658 -10100171.52639738 -10100171.52639738 -9066620.337738557 0 0 0 0 0 103650767.4802379 -9713527.182933405 -9713527.182933405 -8993027.614844916 0 0 0 0 0 103967731.4289347 -9335383.877076864 -9335383.877076864 -8911419.253797518 0 0 0 0 0 104258097.6091581 -8965511.741049772 -8965511.741049772 -8821935.432628753 0 0 0 0 0 104096631.5563968 -8393376.094483843 -8393376.094483843 -8689790.652834198 0 0 0 0 0 104525004.6502012 -8604694.235584607 -8604694.235584607 -8726357.623979283 0 0 0 0 0 104498879.0223947 -8217306.398571509 -8217306.398571509 -8444499.439515039 0 0 0 0 0 104720395.0652881 -7884156.765316131 -7884156.765316131 -8345202.729297643 0 0 0 0 0 104922242.9857154 -7560907.320088611 -7560907.320088611 -8240530.351732744 0 0 0 0 0 105087892.7053203 -7258990.175632283 -7258990.175632283 -8142595.669635113 0 0 0 0 0 105244036.6125202 -6964880.886380838 -6964880.886380838 -8028679.198573837 0 0 0 0 0 105390726.0158262 -6667482.008879021 -6667482.008879021 -7903324.840416763 0 0 0 0 0 105006701.5758748 -6503062.268379226 -6503062.268379226 -7814557.074325331 0 0 0 0 0 105278664.1820463 -6382349.539220065 -6382349.539220065 -7642194.037615794 0 0 0 0 0 105404210.9356421 -6108582.219402472 -6108582.219402472 -7528334.574819839 0 0 0 0 0 105516804.7451175 -5843109.891821431 -5843109.891821431 -7412225.352916604 0 0 0 0 0 105617065.8856829 -5586042.523655363 -5586042.523655363 -7294798.561918661 0 0 0 0 0 105272002.2676882 -5454263.062385232 -5454263.062385232 -7199331.651381336 0 0 0 0 0 105481264.3880905 -5360669.418424781 -5360669.418424781 -7063984.303413717 0 0 0 0 0 105562636.1967242 -5124360.972210982 -5124360.972210982 -6949525.356006412 0 0 0 0 0 105633517.9883382 -4895718.822345282 -4895718.822345282 -6834009.119528718 0 0 0 0 0 105695014.5902626 -4674174.709224628 -4674174.709224628 -6717204.975392362 0 0 0 0 0 105747488.7977709 -4459971.898800167 -4459971.898800167 -6599833.340692217 0 0 0 0 0 105791858.3022242 -4252652.847300512 -4252652.847300512 -6482175.92571342 0 0 0 0 0 105828425.7276365 -4052518.565392013 -4052518.565392013 -6364733.059931016 0 0 0 0 0 105857674.7008225 -3859501.873160901 -3859501.873160901 -6247493.810115504 0 0 0 0 0 105693569.7276715 -3721031.62943792 -3721031.62943792 -6059649.692505036 0 0 0 0 0 105577375.6104123 -3772918.925218171 -3772918.925218171 -6134475.070382073 0 0 0 0 0 105714080.3510881 -3543547.972239721 -3543547.972239721 -5947181.768287621 0 0 0 0 0 105452326.9752981 -3465365.418828197 -3465365.418828197 -5837350.279855208 0 0 0 0 0 105553860.9193257 -3419839.624210902 -3419839.624210902 -5771254.873323789 0 0 0 0 0 105566446.520942 -3256249.649776462 -3256249.649776462 -5663839.944778759 0 0 0 0 0 105574269.0418547 -3098493.380163058 -3098493.380163058 -5555784.807446892 0 0 0 0 0 105585312.1905801 -2947708.821793295 -2947708.821793295 -5448958.386938884 0 0 0 0 0 105556305.4384909 -2815492.241201661 -2815492.241201661 -5359883.942924716 0 0 0 0 0 105487781.8177117 -2728407.968534977 -2728407.968534977 -5317898.903044171 0 0 0 0 0 105428799.8708646 -2640114.544356481 -2640114.544356481 -5225939.512186376 0 0 0 0 0 105376465.9926087 -2550544.274419525 -2550544.274419525 -5128287.433054118 0 0 0 0 0 86110901.73133351 -20689722.35678861 -20689722.35678861 -8941790.337989332 0 0 0 0 0 25517476.36134514 -838830.63116305 -838830.63116305 -3282666.192996738 0 0 0 0 0 26968550.64619426 -2849645.918163421 -2849645.918163421 -2756384.852625899 0 0 0 0 0 28581939.11724389 -4771552.648977224 -4771552.648977224 -2368165.733651851 0 0 0 0 0 29499542.59689833 -6754917.764583106 -6754917.764583106 -2226614.295763329 0 0 0 0 0 30985083.86505885 -8749471.677411208 -8749471.677411208 -2262698.847985208 0 0 0 0 0 32797451.01826103 -10689444.82334844 -10689444.82334844 -2351195.520113332 0 0 0 0 0 34867481.57848443 -12552651.41186034 -12552651.41186034 -2495569.742555577 0 0 0 0 0 37112424.30141564 -14296917.04561476 -14296917.04561476 -2699267.387072395 0 0 0 0 0 40649905.25744597 -16183296.4320847 -16183296.4320847 -2507427.002835316 0 0 0 0 0 41691492.960867 -15857929.01599992 -15857929.01599992 -2377307.491937818 0 0 0 0 0 44125581.57257451 -17263199.55643313 -17263199.55643313 -2734339.010527388 0 0 0 0 0 46650159.39046955 -18535003.92934716 -18535003.92934716 -3136808.666363521 0 0 0 0 0 49243533.1864 -19671281.4688701 -19671281.4688701 -3578264.662291118 0 0 0 0 0 53578528.39371185 -20313288.14395206 -20313288.14395206 -3623976.458691243 0 0 0 0 0 51964426.47139074 -20840910.7440173 -20840910.7440173 -3916758.41810555 0 0 0 0 0 56131091.22598505 -21127377.94241649 -21127377.94241649 -4132006.032700249 0 0 0 0 0 58684485.64135367 -21814935.93117914 -21814935.93117914 -4654160.983242117 0 0 0 0 0 61232116.12967025 -22380280.77383669 -22380280.77383669 -5184254.735292565 0 0 0 0 0 63763905.67582803 -22828129.33458515 -22828129.33458515 -5715555.086320761 0 0 0 0 0 66262171.61943254 -23164392.59534179 -23164392.59534179 -6242202.967338043 0 0 0 0 0 68708509.031023 -23393841.2251521 -23393841.2251521 -6760666.596123063 0 0 0 0 0 70001225.93163212 -23637375.83790332 -23637375.83790332 -7449904.115741093 0 0 0 0 0 71925054.20477404 -22952608.12789388 -22952608.12789388 -6885589.787065664 0 0 0 0 0 74142914.22361021 -22982755.54183745 -22982755.54183745 -7368448.229807297 0 0 0 0 0 76292943.90337853 -22930557.11716893 -22930557.11716893 -7829382.993796431 0 0 0 0 0 78366482.42019087 -22805909.05902501 -22805909.05902501 -8267043.605166434 0 0 0 0 0 80321132.49266915 -22617436.73734669 -22617436.73734669 -8679346.32967425 0 0 0 0 0 82190144.43548727 -22360140.98175625 -22360140.98175625 -9041399.732760353 0 0 0 0 0 82537100.27217065 -22164691.23262884 -22164691.23262884 -9625599.251497386 0 0 0 0 0 84236115.84379882 -21516749.33951906 -21516749.33951906 -8990528.240874585 0 0 0 0 0 85918331.40244071 -21183857.00194991 -21183857.00194991 -9315753.531114455 0 0 0 0 0 86214494.2637987 -20442197.13788754 -20442197.13788754 -9469661.891649729 0 0 0 0 0 87643313.01350313 -20055905.71531412 -20055905.71531412 -9719371.79589702 0 0 0 0 0 89114437.45446679 -19202352.49853387 -19202352.49853387 -9598445.582853919 0 0 0 0 0 89100262.63565417 -19487100.67494178 -19487100.67494178 -9114323.244885126 0 0 0 0 0 90390878.84398708 -18781666.49147938 -18781666.49147938 -9809661.732688596 0 0 0 0 0 91603878.69745252 -18340525.36052075 -18340525.36052075 -9994069.695919877 0 0 0 0 0 92754342.06952251 -17881807.33105216 -17881807.33105216 -10152037.41540781 0 0 0 0 0 93843372.32788554 -17408669.44673274 -17408669.44673274 -10284163.17532706 0 0 0 0 0 94772503.1462606 -16598231.70682589 -16598231.70682589 -10054264.59736506 0 0 0 0 0 95029336.43951271 -16933131.00143571 -16933131.00143571 -9729648.418971395 0 0 0 0 0 95713478.12511733 -16127058.3396656 -16127058.3396656 -10143119.86216457 0 0 0 0 0 96601024.85852897 -15650049.48188403 -15650049.48188403 -10210558.90024789 0 0 0 0 0 97436240.79290661 -15169139.07264349 -15169139.07264349 -10257028.353239 0 0 0 0 0 98220691.07013464 -14686839.2824708 -14686839.2824708 -10284247.51493965 0 0 0 0 0 98956061.71696059 -14204721.81062065 -14204721.81062065 -10292872.03910185 0 0 0 0 0 99832832.34387298 -13840681.64876433 -13840681.64876433 -9834979.986694232 0 0 0 0 0 100053444.1046593 -13062952.28884446 -13062952.28884446 -9979647.927647276 0 0 0 0 0 100479041.2700249 -13375643.09103074 -13375643.09103074 -9842139.450114271 0 0 0 0 0 100645477.6953225 -12606346.34175122 -12606346.34175122 -9951282.741260331 0 0 0 0 0 101198770.2130389 -12154898.56652503 -12154898.56652503 -9904810.891587747 0 0 0 0 0 101708576.8308638 -11711969.72697336 -11711969.72697336 -9847334.166398294 0 0 0 0 0 102181149.0845042 -11276078.93294735 -11276078.93294735 -9778500.072766451 0 0 0 0 0 102355562.0916396 -10743758.47882831 -10743758.47882831 -9465651.035117034 0 0 0 0 0 102803994.556532 -11010428.60397526 -11010428.60397526 -9424416.132253196 0 0 0 0 0 102760021.6827833 -10336474.44975667 -10336474.44975667 -9386125.680533607 0 0 0 0 0 103134424.794157 -9936906.312419374 -9936906.312419374 -9296811.458190819 0 0 0 0 0 103479917.1076185 -9547118.09231557 -9547118.09231557 -9201211.728760272 0 0 0 0 0 103799238.8976609 -9164970.159110898 -9164970.159110898 -9096157.115345512 0 0 0 0 0 104092396.9080786 -8793349.359148886 -8793349.359148886 -8987252.770051712 0 0 0 0 0 104768923.0022903 -8252834.68362833 -8252834.68362833 -8624618.796342434 0 0 0 0 0 104362408.4661161 -8430527.023050463 -8430527.023050463 -8871441.86191651 0 0 0 0 0 104343910.690831 -8049657.238693697 -8049657.238693697 -8577440.897033786 0 0 0 0 0 104569784.0307265 -7716493.508021655 -7716493.508021655 -8458422.680210434 0 0 0 0 0 104775032.0829863 -7396925.989026366 -7396925.989026366 -8331757.644139075 0 0 0 0 0 104951575.7289446 -7086861.812824761 -7086861.812824761 -8198024.389281389 0 0 0 0 0 105103164.6766244 -6789682.294163214 -6789682.294163214 -8075128.241882855 0 0 0 0 0 105251812.921638 -6497241.475626347 -6497241.475626347 -7952965.493260085 0 0 0 0 0 105526021.9853597 -6376704.962959996 -6376704.962959996 -7781354.690626106 0 0 0 0 0 105148470.3692201 -6222457.76554341 -6222457.76554341 -7691834.448657693 0 0 0 0 0 105277679.0231344 -5949670.163547626 -5949670.163547626 -7565409.340791875 0 0 0 0 0 105393715.0694201 -5685572.677912409 -5685572.677912409 -7437850.172863122 0 0 0 0 0 105497653.6622274 -5429815.983627383 -5429815.983627383 -7309076.190142421 0 0 0 0 0 105705709.3629875 -5337028.92621505 -5337028.92621505 -7175587.631593556 0 0 0 0 0 105367694.5720713 -5211612.839080332 -5211612.839080332 -7075849.816467025 0 0 0 0 0 105452471.282894 -4976764.662705003 -4976764.662705003 -6951429.134562477 0 0 0 0 0 105526732.0427053 -4749538.974724094 -4749538.974724094 -6826452.85698477 0 0 0 0 0 105591625.693235 -4529816.498669351 -4529816.498669351 -6701129.532951249 0 0 0 0 0 105647265.0433228 -4317366.372037235 -4317366.372037235 -6575819.789388824 0 0 0 0 0 105694852.0557442 -4112175.603970368 -4112175.603970368 -6450742.091353553 0 0 0 0 0 105734771.0585606 -3914180.873452448 -3914180.873452448 -6325842.798525977 0 0 0 0 0 105767050.3956589 -3723472.838971342 -3723472.838971342 -6201901.616890882 0 0 0 0 0 105607002.9838241 -3591299.217768576 -3591299.217768576 -6015886.845006048 0 0 0 0 0 105880362.845158 -3673228.44260168 -3673228.44260168 -6130279.968774736 0 0 0 0 0 105630176.6468857 -3415696.897895561 -3415696.897895561 -5897908.896540785 0 0 0 0 0 105728790.5680586 -3371816.361100123 -3371816.361100123 -5835018.33370386 0 0 0 0 0 105473737.9134128 -3297828.380854396 -3297828.380854396 -5724162.447641492 0 0 0 0 0 105489249.1567826 -3136684.755801692 -3136684.755801692 -5611039.137075759 0 0 0 0 0 105501895.1133495 -2984382.391833154 -2984382.391833154 -5498490.206513072 0 0 0 0 0 105513239.6469625 -2838318.977645874 -2838318.977645874 -5400528.139818443 0 0 0 0 0 105541112.0425955 -2694818.804428499 -2694818.804428499 -5255648.624559453 0 0 0 0 0 105527952.4779587 -2592147.688986704 -2592147.688986704 -5148722.603580115 0 0 0 0 0 105481459.987269 -2501973.466146741 -2501973.466146741 -5051165.420767355 0 0 0 0 0 86054607.45503289 -20934528.05198185 -20934528.05198185 -9858916.828040246 0 0 0 0 0 24168038.59324364 -1268311.922266739 -1268311.922266739 -3936914.813589761 0 0 0 0 0 25461129.90571234 -3301568.181371681 -3301568.181371681 -3409810.559828994 0 0 0 0 0 27032709.45603789 -5203319.89714767 -5203319.89714767 -2952123.802222719 0 0 0 0 0 28883874.37830297 -6981122.366986917 -6981122.366986917 -2483623.55482121 0 0 0 0 0 30857447.11514707 -8806798.321142877 -8806798.321142877 -2345644.887749259 0 0 0 0 0 32466717.22164042 -10801380.26204766 -10801380.26204766 -2426031.551118106 0 0 0 0 0 34258197.94881251 -12749967.86839111 -12749967.86839111 -2600302.751402044 0 0 0 0 0 36269670.7452757 -14568416.76465403 -14568416.76465403 -2836511.633950445 0 0 0 0 0 38448960.0804956 -16251684.36318042 -16251684.36318042 -3133653.735111467 0 0 0 0 0 39502265.86308357 -15912966.24411586 -15912966.24411586 -2965816.145922034 0 0 0 0 0 42903078.56263021 -17649932.42499362 -17649932.42499362 -2906866.237718794 0 0 0 0 0 45260223.71523679 -18980432.14750253 -18980432.14750253 -3355616.743173992 0 0 0 0 0 47705084.12515081 -20170640.86850888 -20170640.86850888 -3843986.114536916 0 0 0 0 0 50215851.38403618 -21219766.77762222 -21219766.77762222 -4364626.543267258 0 0 0 0 0 54414407.62576056 -21696297.93983655 -21696297.93983655 -4473040.660913844 0 0 0 0 0 51884313.23857459 -20671599.43341096 -20671599.43341096 -4051115.894671785 0 0 0 0 0 56887039.29988618 -22420176.89941517 -22420176.89941517 -5040657.707556369 0 0 0 0 0 59370137.63857816 -23016159.99901756 -23016159.99901756 -5612271.107930711 0 0 0 0 0 61844410.24130575 -23491154.16771236 -23491154.16771236 -6186973.250198438 0 0 0 0 0 64296431.91036835 -23847942.00220344 -23847942.00220344 -6754790.949011449 0 0 0 0 0 66713394.42202338 -24095494.05686858 -24095494.05686858 -7313031.536980973 0 0 0 0 0 69088271.33585995 -24236926.18779137 -24236926.18779137 -7851548.236366816 0 0 0 0 0 71097140.32871942 -23522716.73062262 -23522716.73062262 -7265912.045960706 0 0 0 0 0 72217797.58754376 -23675193.58582047 -23675193.58582047 -7961054.694808702 0 0 0 0 0 74375884.24375448 -23627198.89657981 -23627198.89657981 -8446562.424567278 0 0 0 0 0 76469538.90728453 -23501738.02501826 -23501738.02501826 -8904000.597168278 0 0 0 0 0 78474994.02265598 -23306822.27936163 -23306822.27936163 -9325036.470283121 0 0 0 0 0 80370589.41327272 -23038843.0973242 -23038843.0973242 -9698416.857235804 0 0 0 0 0 82197388.75859571 -22719925.31544751 -22719925.31544751 -10043778.38361956 0 0 0 0 0 83983607.50215772 -22043878.01993126 -22043878.01993126 -9371207.142215619 0 0 0 0 0 84239827.42485574 -21822156.3291942 -21822156.3291942 -9963597.133849049 0 0 0 0 0 85888398.23526411 -21433399.97712503 -21433399.97712503 -10261338.82516939 0 0 0 0 0 87610068.68974875 -20328590.75040834 -20328590.75040834 -9224915.618703293 0 0 0 0 0 89046368.43992227 -19940424.99999054 -19940424.99999054 -9481616.469444241 0 0 0 0 0 90448352.8178229 -19088436.79774783 -19088436.79774783 -9356525.99634295 0 0 0 0 0 89024768.88777415 -19644439.32116212 -19644439.32116212 -9961626.426073747 0 0 0 0 0 91723341.07101393 -18661421.20147805 -18661421.20147805 -9572939.189257851 0 0 0 0 0 92931065.56675917 -18213938.42716625 -18213938.42716625 -9762890.909270894 0 0 0 0 0 94072365.74565528 -17749195.02903082 -17749195.02903082 -9927036.194852917 0 0 0 0 0 95147749.58209053 -17270294.73292711 -17270294.73292711 -10066229.04219013 0 0 0 0 0 96010248.19285364 -16465100.57258741 -16465100.57258741 -9848876.530271282 0 0 0 0 0 94872328.10159102 -16924300.61467402 -16924300.61467402 -10391933.16527335 0 0 0 0 0 96932113.49090771 -15988973.80452171 -15988973.80452171 -9945771.544268792 0 0 0 0 0 97797925.79367697 -15507445.91706208 -15507445.91706208 -10021015.71865532 0 0 0 0 0 98609135.30156225 -15022823.03112384 -15022823.03112384 -10076320.15737443 0 0 0 0 0 99367235.75982773 -14537082.48151853 -14537082.48151853 -10112121.46766614 0 0 0 0 0 100075726.2268877 -14051962.51214626 -14051962.51214626 -10130092.41303136 0 0 0 0 0 99643768.5316692 -13724025.05221731 -13724025.05221731 -10285194.20270445 0 0 0 0 0 101083452.2033243 -12913118.04218009 -12913118.04218009 -9833781.640552452 0 0 0 0 0 100287338.9241926 -13246245.64790548 -13246245.64790548 -10261897.40634674 0 0 0 0 0 101650623.2870196 -12452353.09978767 -12452353.09978767 -9809601.79293594 0 0 0 0 0 102171377.1673095 -12000797.49387917 -12000797.49387917 -9778141.485802405 0 0 0 0 0 102649031.7405383 -11556855.31593141 -11556855.31593141 -9729823.761538643 0 0 0 0 0 103092391.269438 -11119993.49722492 -11119993.49722492 -9668229.032001035 0 0 0 0 0 103211341.2521983 -10594501.06931192 -10594501.06931192 -9361063.944283601 0 0 0 0 0 102621332.5420728 -10847592.81649036 -10847592.81649036 -9701001.499406027 0 0 0 0 0 103587768.0506453 -10187068.93494665 -10187068.93494665 -9289745.267129745 0 0 0 0 0 103933105.4594725 -9787775.304419728 -9787775.304419728 -9207088.739400387 0 0 0 0 0 104250377.2678019 -9397573.974471517 -9397573.974471517 -9118905.224723369 0 0 0 0 0 104540680.2217128 -9017279.44822789 -9017279.44822789 -9020572.545229342 0 0 0 0 0 104807537.6887265 -8645583.299605295 -8645583.299605295 -8916746.428124666 0 0 0 0 0 104609574.3482976 -8077373.548987354 -8077373.548987354 -8750819.961709369 0 0 0 0 0 105049859.7898893 -8283596.767580491 -8283596.767580491 -8807156.001581954 0 0 0 0 0 104991772.3224411 -7909961.661408813 -7909961.661408813 -8517477.681188967 0 0 0 0 0 105188023.8741523 -7579242.245970121 -7579242.245970121 -8408365.389804976 0 0 0 0 0 105354813.2562919 -7267673.975630798 -7267673.975630798 -8299181.348205011 0 0 0 0 0 105500603.8846411 -6963627.718715243 -6963627.718715243 -8185156.87876225 0 0 0 0 0 105644882.2831262 -6663610.155182749 -6663610.155182749 -8047973.987153484 0 0 0 0 0 105782081.1313744 -6365957.146010629 -6365957.146010629 -7915236.039255093 0 0 0 0 0 105392261.7947819 -6208907.616924145 -6208907.616924145 -7820719.06987373 0 0 0 0 0 105647002.7874885 -6095753.281537035 -6095753.281537035 -7658960.662418606 0 0 0 0 0 105755655.2467877 -5824801.838899426 -5824801.838899426 -7536173.648766418 0 0 0 0 0 105852493.2027683 -5562558.327019074 -5562558.327019074 -7412108.786221298 0 0 0 0 0 105937203.9977138 -5308528.924641829 -5308528.924641829 -7286743.298400612 0 0 0 0 0 105589778.1736654 -5182324.826757118 -5182324.826757118 -7179478.986681235 0 0 0 0 0 105783344.6693068 -5095987.940707677 -5095987.940707677 -7055212.389968013 0 0 0 0 0 105850518.9109738 -4862839.11449521 -4862839.11449521 -6933882.739236588 0 0 0 0 0 105908099.7538201 -4637286.124229638 -4637286.124229638 -6811652.227855864 0 0 0 0 0 105956608.3319184 -4419367.704255574 -4419367.704255574 -6689039.667232193 0 0 0 0 0 105996698.4330272 -4208823.969115917 -4208823.969115917 -6566148.656908873 0 0 0 0 0 106028994.2294965 -4005595.399164711 -4005595.399164711 -6443424.23069468 0 0 0 0 0 106053772.2895125 -3809846.786164309 -3809846.786164309 -6321339.773000492 0 0 0 0 0 106071900.8938007 -3621042.741333532 -3621042.741333532 -6199271.618967231 0 0 0 0 0 105896865.2159243 -3493343.976360908 -3493343.976360908 -6013262.322515862 0 0 0 0 0 105792600.4492167 -3539452.531248439 -3539452.531248439 -6078649.421875204 0 0 0 0 0 105907662.0137743 -3319680.807806139 -3319680.807806139 -5896884.180767328 0 0 0 0 0 105647672.1447509 -3246039.007135259 -3246039.007135259 -5780859.241914354 0 0 0 0 0 105737884.2075471 -3205986.292112291 -3205986.292112291 -5723673.377894365 0 0 0 0 0 105740633.8224591 -3046377.859263027 -3046377.859263027 -5613025.970871353 0 0 0 0 0 105735859.3000195 -2895104.558843656 -2895104.558843656 -5503245.069017173 0 0 0 0 0 105747863.0298386 -2750221.022812261 -2750221.022812261 -5389665.111666341 0 0 0 0 0 105688013.7735359 -2631138.958108225 -2631138.958108225 -5321783.045808873 0 0 0 0 0 105594777.2302872 -2535959.377672364 -2535959.377672364 -5245367.304252625 0 0 0 0 0 105536490.1243229 -2446536.683799281 -2446536.683799281 -5145752.749552117 0 0 0 0 0 87510118.84070371 -20807044.81037061 -20807044.81037061 -9608706.22819324 0 0 0 0 0 23076127.19607677 -846158.7471070018 -846158.7471070018 -4599179.12700828 0 0 0 0 0 24721267.944431 -2961475.282084424 -2961475.282084424 -3949833.633243045 0 0 0 0 0 26425491.25415685 -4918771.506062525 -4918771.506062525 -3416739.177778517 0 0 0 0 0 27819037.94454787 -6623527.304115729 -6623527.304115729 -3036731.26720386 0 0 0 0 0 28649361.9540684 -8490172.585792419 -8490172.585792419 -3092606.550068847 0 0 0 0 0 30334470.15210848 -10446611.52194624 -10446611.52194624 -3177150.733762109 0 0 0 0 0 32445162.78454294 -12400063.9229443 -12400063.9229443 -3271379.022440605 0 0 0 0 0 34744166.24699472 -14229399.63818735 -14229399.63818735 -3431692.76654108 0 0 0 0 0 37207761.98300469 -15927531.30567581 -15927531.30567581 -3651448.469021067 0 0 0 0 0 40778627.83772669 -17798179.82199647 -17798179.82199647 -3494769.64072893 0 0 0 0 0 42022024.6092831 -17396985.84635562 -17396985.84635562 -3289491.511146029 0 0 0 0 0 44647430.27266635 -18743850.75079921 -18743850.75079921 -3663007.953941763 0 0 0 0 0 47349084.2487985 -19949049.8919492 -19949049.8919492 -4079832.009246687 0 0 0 0 0 50105799.54882465 -21012029.34357702 -21012029.34357702 -4532287.777331884 0 0 0 0 0 54552521.0613433 -21537149.23201829 -21537149.23201829 -4548268.205577848 0 0 0 0 0 52772837.12394913 -22128876.36325385 -22128876.36325385 -4909264.678526949 0 0 0 0 0 57225251.17792815 -22268774.09461752 -22268774.09461752 -5063218.106663205 0 0 0 0 0 59883964.39008214 -22870890.75336197 -22870890.75336197 -5588035.080659526 0 0 0 0 0 62531734.28056109 -23350688.54977064 -23350688.54977064 -6117696.575053732 0 0 0 0 0 65142816.0416039 -23710839.58551621 -23710839.58551621 -6645468.922212769 0 0 0 0 0 67721194.47193995 -23958810.25369877 -23958810.25369877 -7164956.554594564 0 0 0 0 0 70230419.310808 -24100028.66827936 -24100028.66827936 -7671652.576811654 0 0 0 0 0 71410604.78058609 -24279802.6881537 -24279802.6881537 -8367742.548848375 0 0 0 0 0 73420497.62748133 -23557817.66705628 -23557817.66705628 -7753670.230003668 0 0 0 0 0 75671189.08167806 -23506108.54291692 -23506108.54291692 -8219687.186365635 0 0 0 0 0 77844493.21696772 -23374696.45987768 -23374696.45987768 -8661239.965165095 0 0 0 0 0 79921129.08735822 -23177537.08561033 -23177537.08561033 -9083440.355336322 0 0 0 0 0 81882054.22906493 -22906787.35480355 -22906787.35480355 -9449015.423492523 0 0 0 0 0 83753740.04399122 -22582438.4588705 -22582438.4588705 -9798599.727288019 0 0 0 0 0 83975161.33037142 -22354475.57256012 -22354475.57256012 -10376214.26935288 0 0 0 0 0 85726454.66727445 -21688873.28173024 -21688873.28173024 -9698656.975285636 0 0 0 0 0 87387767.4866733 -21292464.79348884 -21292464.79348884 -9995698.29033367 0 0 0 0 0 87529547.04204252 -20526429.35767445 -20526429.35767445 -10112486.16964087 0 0 0 0 0 88942445.77959026 -20089114.11979052 -20089114.11979052 -10339358.09110476 0 0 0 0 0 90347392.98887788 -19201586.01029857 -19201586.01029857 -10171566.43701369 0 0 0 0 0 90421783.72418784 -19518224.08850494 -19518224.08850494 -9712765.500648135 0 0 0 0 0 91603500.71712269 -18738812.96139247 -18738812.96139247 -10354454.4465711 0 0 0 0 0 92794254.66786055 -18257810.81098648 -18257810.81098648 -10509510.73805914 0 0 0 0 0 93920469.14681005 -17761787.37782711 -17761787.37782711 -10637759.76680041 0 0 0 0 0 94983285.85712638 -17254883.67067331 -17254883.67067331 -10740275.56840359 0 0 0 0 0 95842644.94422492 -16431401.61350069 -16431401.61350069 -10476206.92162245 0 0 0 0 0 96160346.22111271 -16780738.41522619 -16780738.41522619 -10181384.45872418 0 0 0 0 0 96755980.33097394 -15932925.24776715 -15932925.24776715 -10537441.40350186 0 0 0 0 0 97614713.71529832 -15431041.33136076 -15431041.33136076 -10577389.98377541 0 0 0 0 0 98420083.0095581 -14927803.94834567 -14927803.94834567 -10597218.65246361 0 0 0 0 0 99173709.9423905 -14425733.97674638 -14425733.97674638 -10599078.08260971 0 0 0 0 0 99878736.79460594 -13925374.85137931 -13925374.85137931 -10582512.13556023 0 0 0 0 0 100736665.4489849 -13568219.58790372 -13568219.58790372 -10129962.46689986 0 0 0 0 0 100889547.2512024 -12772103.39917576 -12772103.39917576 -10224744.0309255 0 0 0 0 0 101351895.005688 -13087184.68162409 -13087184.68162409 -10114029.27252256 0 0 0 0 0 101455917.8430354 -12303575.46958626 -12303575.46958626 -10173839.44667532 0 0 0 0 0 101980040.4850805 -11840997.77528262 -11840997.77528262 -10104912.73135273 0 0 0 0 0 102459314.9888156 -11389191.88917462 -11389191.88917462 -10026768.476743 0 0 0 0 0 102904090.4785969 -10946369.64639484 -10946369.64639484 -9939620.840530014 0 0 0 0 0 103030703.1117563 -10427705.22124073 -10427705.22124073 -9614298.346599713 0 0 0 0 0 103503052.0552011 -10690222.986205 -10690222.986205 -9596349.832566144 0 0 0 0 0 103409346.1487272 -10013845.60146302 -10013845.60146302 -9513891.44073206 0 0 0 0 0 103756780.470341 -9612771.068074772 -9612771.068074772 -9412854.428509105 0 0 0 0 0 104078327.1844127 -9217465.346555531 -9217465.346555531 -9294615.562868964 0 0 0 0 0 104370115.1212901 -8836111.124360222 -8836111.124360222 -9179465.500986299 0 0 0 0 0 104640307.1248852 -8462367.378117392 -8462367.378117392 -9054809.851076338 0 0 0 0 0 105270828.6037059 -7931450.791592356 -7931450.791592356 -8691857.941707661 0 0 0 0 0 104886565.2032378 -8099449.641631389 -8099449.641631389 -8925362.136260659 0 0 0 0 0 104836158.8793262 -7734052.812014672 -7734052.812014672 -8625726.320404708 0 0 0 0 0 105043351.0725677 -7403577.20463229 -7403577.20463229 -8489100.416310605 0 0 0 0 0 105216037.7745833 -7084722.888945782 -7084722.888945782 -8353117.215906567 0 0 0 0 0 105369267.6348475 -6779943.130269511 -6779943.130269511 -8208520.251017384 0 0 0 0 0 105505557.4360097 -6487442.546464593 -6487442.546464593 -8086289.865373202 0 0 0 0 0 105643355.8037235 -6191450.022698839 -6191450.022698839 -7950384.850959926 0 0 0 0 0 105898631.5759274 -6078171.233054061 -6078171.233054061 -7788713.328631762 0 0 0 0 0 105517634.5355749 -5930505.737768194 -5930505.737768194 -7687172.48106206 0 0 0 0 0 105630098.8008719 -5661379.082020722 -5661379.082020722 -7553386.751911492 0 0 0 0 0 105730434.1554807 -5400388.106467012 -5400388.106467012 -7418067.199743141 0 0 0 0 0 105818877.1936019 -5148057.17655273 -5148057.17655273 -7282059.599250202 0 0 0 0 0 106010739.1550083 -5062842.265959545 -5062842.265959545 -7160277.534834814 0 0 0 0 0 105670847.1962402 -4942977.520326455 -4942977.520326455 -7049232.972992742 0 0 0 0 0 105741498.2805768 -4711572.234242465 -4711572.234242465 -6918524.374009728 0 0 0 0 0 105802480.8110485 -4488037.069341596 -4488037.069341596 -6787690.605336045 0 0 0 0 0 105854338.3435653 -4272175.105414465 -4272175.105414465 -6656973.666653302 0 0 0 0 0 105897778.8762549 -4063851.725489312 -4063851.725489312 -6526589.270464346 0 0 0 0 0 105933461.6973014 -3863036.782930141 -3863036.782930141 -6396683.667346417 0 0 0 0 0 105961670.6169471 -3669559.52926518 -3669559.52926518 -6267532.956953004 0 0 0 0 0 105982963.3208906 -3483123.775865911 -3483123.775865911 -6139418.357462885 0 0 0 0 0 105811939.0388468 -3361827.315521064 -3361827.315521064 -5956208.990633204 0 0 0 0 0 106083943.5180891 -3438879.659465201 -3438879.659465201 -6077646.369441254 0 0 0 0 0 105825569.8083964 -3190425.054050299 -3190425.054050299 -5834812.566928837 0 0 0 0 0 105912898.1638665 -3152212.825933492 -3152212.825933492 -5781599.335369935 0 0 0 0 0 105659495.8737883 -3082485.196588411 -3082485.196588411 -5664739.689311918 0 0 0 0 0 105666566.489843 -2926080.136043609 -2926080.136043609 -5548065.303062163 0 0 0 0 0 105671241.7881206 -2782088.149487501 -2782088.149487501 -5428413.338536098 0 0 0 0 0 105667193.2078525 -2638048.717776007 -2638048.717776007 -5327454.01006712 0 0 0 0 0 105689467.7761097 -2486319.644608098 -2486319.644608098 -5165916.286410681 0 0 0 0 0 105649923.049263 -2393082.209435003 -2393082.209435003 -5060776.006209243 0 0 0 0 0 87429254.27467811 -21006196.25535766 -21006196.25535766 -10519912.43096425 0 0 0 0 0 21648806.6655799 -1341006.873823188 -1341006.873823188 -5371639.785631329 0 0 0 0 0 22918439.97366449 -3442083.280231542 -3442083.280231542 -4692648.913640596 0 0 0 0 0 24383844.34558988 -5375284.494972602 -5375284.494972602 -4136830.51703731 0 0 0 0 0 26060253.25874677 -7159988.992269021 -7159988.992269021 -3778073.299008438 0 0 0 0 0 28433890.16709769 -8569653.123118084 -8569653.123118084 -3156105.735633495 0 0 0 0 0 30098476.53774012 -10557466.80054435 -10557466.80054435 -3350068.173464905 0 0 0 0 0 31870563.8858823 -12608758.90811365 -12608758.90811365 -3456344.532368209 0 0 0 0 0 33923966.64137147 -14510773.38500489 -14510773.38500489 -3625119.074157266 0 0 0 0 0 36162269.71597876 -16278037.78162285 -16278037.78162285 -3866694.063607236 0 0 0 0 0 38565303.09608859 -17907580.32619391 -17907580.32619391 -4174351.069896929 0 0 0 0 0 39822109.13651716 -17492723.26225822 -17492723.26225822 -3931339.14157381 0 0 0 0 0 43226168.91112014 -19205525.39053727 -19205525.39053727 -3910087.073042856 0 0 0 0 0 45767206.74262565 -20467435.22837008 -20467435.22837008 -4371967.575075108 0 0 0 0 0 48383230.38723739 -21581320.63355473 -21581320.63355473 -4869324.095000652 0 0 0 0 0 51051627.76389659 -22548523.33230862 -22548523.33230862 -5396907.466173626 0 0 0 0 0 55357366.75931173 -22899649.61332138 -22899649.61332138 -5469311.812548083 0 0 0 0 0 52895448.62383632 -21933043.12882206 -21933043.12882206 -5013186.49970545 0 0 0 0 0 57946316.69614748 -23534305.8052877 -23534305.8052877 -6037003.649197117 0 0 0 0 0 60536589.29998966 -24039753.607177 -24039753.607177 -6606495.791091649 0 0 0 0 0 63106032.65171044 -24423070.87976023 -24423070.87976023 -7171858.930914756 0 0 0 0 0 65647572.82945043 -24688517.94874161 -24688517.94874161 -7730828.674846651 0 0 0 0 0 68134747.58014764 -24843239.07328988 -24843239.07328988 -8275872.632577131 0 0 0 0 0 70565812.19986595 -24893837.44255015 -24893837.44255015 -8797565.293423949 0 0 0 0 0 72665261.55866958 -24141356.06661237 -24141356.06661237 -8161997.507014931 0 0 0 0 0 73670199.46404622 -24231591.49678731 -24231591.49678731 -8858321.392262697 0 0 0 0 0 75861858.71408035 -24100277.69879191 -24100277.69879191 -9321601.585172372 0 0 0 0 0 77985907.65309781 -23899604.02912205 -23899604.02912205 -9753449.302263215 0 0 0 0 0 79972591.91683148 -23618794.11621587 -23618794.11621587 -10137175.00462619 0 0 0 0 0 81893407.81112577 -23289871.02535621 -23289871.02535621 -10497826.39987184 0 0 0 0 0 83717249.76100717 -22902142.50100669 -22902142.50100669 -10803098.53053025 0 0 0 0 0 85533071.52047129 -22203544.88388405 -22203544.88388405 -10103761.92312978 0 0 0 0 0 85688723.29730691 -21942080.14722899 -21942080.14722899 -10667607.59391112 0 0 0 0 0 87322237.80323912 -21495780.36752502 -21495780.36752502 -10938262.22647939 0 0 0 0 0 88999592.50606234 -20399103.0511165 -20399103.0511165 -9872270.290427016 0 0 0 0 0 90416031.51572973 -19954750.95728893 -19954750.95728893 -10097548.423398 0 0 0 0 0 91737590.19521023 -19070288.67433498 -19070288.67433498 -9928604.071410796 0 0 0 0 0 90308749.11481047 -19628871.23276062 -19628871.23276062 -10548486.25345767 0 0 0 0 0 92987125.75202194 -18601051.48716391 -18601051.48716391 -10117348.99532168 0 0 0 0 0 94167657.27430792 -18114034.92082666 -18114034.92082666 -10278876.89783044 0 0 0 0 0 95278926.09579447 -17612249.6159361 -17612249.6159361 -10414366.76281516 0 0 0 0 0 96323353.25447786 -17099755.63043153 -17099755.63043153 -10524982.77547961 0 0 0 0 0 97109477.70832118 -16283104.96899063 -16283104.96899063 -10274107.25122952 0 0 0 0 0 95984719.67421553 -16739365.1024016 -16739365.1024016 -10818996.00030485 0 0 0 0 0 97999306.94295374 -15780209.47947791 -15780209.47947791 -10344181.48537892 0 0 0 0 0 98831977.22588573 -15274437.61832396 -15274437.61832396 -10392921.52557901 0 0 0 0 0 99608265.88569567 -14768217.80351287 -14768217.80351287 -10422191.4266439 0 0 0 0 0 100333553.9996441 -14263004.06412544 -14263004.06412544 -10432473.12588809 0 0 0 0 0 101007826.0462773 -13760051.46881156 -13760051.46881156 -10425190.57491001 0 0 0 0 0 100536624.7145662 -13428018.80604056 -13428018.80604056 -10551089.44531889 0 0 0 0 0 101927384.6273045 -12610216.89439639 -12610216.89439639 -10083068.34474995 0 0 0 0 0 101150597.5329244 -12936091.92830626 -12936091.92830626 -10504757.26249101 0 0 0 0 0 102459504.5475964 -12139998.43672824 -12139998.43672824 -10039338.87820202 0 0 0 0 0 102947799.7841906 -11677655.8741677 -11677655.8741677 -9984900.201333439 0 0 0 0 0 103396434.0811506 -11225422.57528382 -11225422.57528382 -9916392.789439391 0 0 0 0 0 103809365.4670277 -10781147.28122948 -10781147.28122948 -9835204.12283591 0 0 0 0 0 103881891.7442843 -10268784.55317955 -10268784.55317955 -9514529.92353335 0 0 0 0 0 103316714.4931408 -10511878.33422075 -10511878.33422075 -9843018.540758777 0 0 0 0 0 104228211.0339211 -9858358.948643897 -9858358.948643897 -9427776.616753235 0 0 0 0 0 104549117.5160786 -9454095.897974234 -9454095.897974234 -9325148.266413532 0 0 0 0 0 104837704.8771464 -9064273.464516507 -9064273.464516507 -9225573.088209243 0 0 0 0 0 105101697.3309317 -8680710.578168718 -8680710.578168718 -9109510.796983162 0 0 0 0 0 105343123.3652151 -8308639.621849962 -8308639.621849962 -8991429.139876528 0 0 0 0 0 105111048.5710065 -7747115.256271125 -7747115.256271125 -8792307.48494049 0 0 0 0 0 105561133.9310495 -7947225.580547218 -7947225.580547218 -8868389.209950227 0 0 0 0 0 105471461.6996929 -7589212.39652594 -7589212.39652594 -8572168.111565752 0 0 0 0 0 105637762.5514476 -7265023.239709487 -7265023.239709487 -8457837.632355226 0 0 0 0 0 105785335.7806632 -6951470.534449961 -6951470.534449961 -8331072.058491487 0 0 0 0 0 105908724.4984547 -6649501.081571713 -6649501.081571713 -8205309.277585491 0 0 0 0 0 106041195.5543981 -6349625.999128385 -6349625.999128385 -8053488.095704716 0 0 0 0 0 106161121.8534678 -6055877.070225285 -6055877.070225285 -7916515.45579002 0 0 0 0 0 105765768.3788976 -5905750.925548048 -5905750.925548048 -7808945.193244021 0 0 0 0 0 106001417.5938471 -5801141.302020985 -5801141.302020985 -7659582.332818478 0 0 0 0 0 106095429.0838176 -5534035.786886076 -5534035.786886076 -7528877.523041165 0 0 0 0 0 106175912.6012341 -5274882.552702848 -5274882.552702848 -7397187.915770938 0 0 0 0 0 106244930.1306923 -5024577.84793487 -5024577.84793487 -7264371.50288295 0 0 0 0 0 105896037.6828212 -4904243.92858671 -4904243.92858671 -7145702.550490346 0 0 0 0 0 106073781.4243005 -4825323.660187182 -4825323.660187182 -7032980.983545449 0 0 0 0 0 106127013.702167 -4595828.623840652 -4595828.623840652 -6905134.157373003 0 0 0 0 0 106171110.4782681 -4374267.546673392 -4374267.546673392 -6776992.96637554 0 0 0 0 0 106206732.7731533 -4160422.278467145 -4160422.278467145 -6648759.188127237 0 0 0 0 0 106234415.463169 -3954204.347120348 -3954204.347120348 -6520767.798766134 0 0 0 0 0 106254576.0773221 -3755616.236013567 -3755616.236013567 -6393381.69262885 0 0 0 0 0 106268118.7477021 -3564309.713421557 -3564309.713421557 -6266517.592153497 0 0 0 0 0 106275511.8123851 -3379873.180736708 -3379873.180736708 -6140129.305274684 0 0 0 0 0 106090322.6062062 -3263203.618348988 -3263203.618348988 -5956750.186887735 0 0 0 0 0 105998004.4371477 -3303437.221988902 -3303437.221988902 -6012364.07472208 0 0 0 0 0 106091367.1416593 -3093992.518957501 -3093992.518957501 -5836913.193873079 0 0 0 0 0 105833763.6921222 -3025086.590887495 -3025086.590887495 -5714941.729735287 0 0 0 0 0 105912292.3775867 -2990826.087240669 -2990826.087240669 -5667518.246944705 0 0 0 0 0 105903302.9289024 -2836555.34757243 -2836555.34757243 -5555300.016101154 0 0 0 0 0 105878495.074903 -2696385.028450924 -2696385.028450924 -5448060.56959934 0 0 0 0 0 105893997.146314 -2543438.350187648 -2543438.350187648 -5310381.960849619 0 0 0 0 0 105760350.349023 -2432840.933571718 -2432840.933571718 -5265613.453327034 0 0 0 0 0 105698220.1980254 -2337532.281210407 -2337532.281210407 -5155218.447835674 0 0 0 0 0 88960983.99372321 -20863703.46311766 -20863703.46311766 -10268550.67637013 0 0 0 0 0 20525944.8608856 -840714.7673253809 -840714.7673253809 -6164440.814192533 0 0 0 0 0 22257178.19784542 -3017028.755762386 -3017028.755762386 -5370678.429230702 0 0 0 0 0 24475558.671562 -5110362.04344845 -5110362.04344845 -4652458.953227391 0 0 0 0 0 26921382.94553199 -7216111.230792664 -7216111.230792664 -4007095.360981394 0 0 0 0 0 25627614.10160715 -8301084.946835743 -8301084.946835743 -4044169.070252265 0 0 0 0 0 27700394.27752461 -10081387.86278361 -10081387.86278361 -4239739.68066576 0 0 0 0 0 29917612.05899057 -12173541.05180407 -12173541.05180407 -4217396.001728986 0 0 0 0 0 32283161.22927568 -14101627.089242 -14101627.089242 -4294773.434473373 0 0 0 0 0 34829494.25746182 -15890244.08577487 -15890244.08577487 -4450344.238867413 0 0 0 0 0 37519358.57083888 -17541955.6231889 -17541955.6231889 -4673291.929735626 0 0 0 0 0 41097929.91722742 -19397245.99409631 -19397245.99409631 -4547326.514003309 0 0 0 0 0 42549268.33499116 -18918926.71582113 -18918926.71582113 -4266767.884748465 0 0 0 0 0 45366897.98127036 -20198409.37712873 -20198409.37712873 -4650670.873407664 0 0 0 0 0 48239602.23912068 -21328732.67399764 -21328732.67399764 -5075459.220029329 0 0 0 0 0 51156663.52198207 -22310329.0611956 -22310329.0611956 -5533856.08623681 0 0 0 0 0 55694222.79945428 -22713389.89598418 -22713389.89598418 -5515551.362288992 0 0 0 0 0 53752812.05312172 -23370083.59774915 -23370083.59774915 -5943780.552058771 0 0 0 0 0 58482532.67744047 -23356111.42497323 -23356111.42497323 -6031313.60475677 0 0 0 0 0 61243657.79245905 -23868867.03393495 -23868867.03393495 -6552824.524755117 0 0 0 0 0 63977870.26086627 -24256819.2971281 -24256819.2971281 -7075684.865990656 0 0 0 0 0 66674130.54302487 -24526892.22112434 -24526892.22112434 -7594535.225101479 0 0 0 0 0 69314546.56015857 -24682486.05392852 -24682486.05392852 -8102944.359214411 0 0 0 0 0 71875856.77117826 -24731656.71860621 -24731656.71860621 -8594616.496903965 0 0 0 0 0 72933438.65316989 -24846228.63345095 -24846228.63345095 -9291393.062798284 0 0 0 0 0 75022220.39761424 -24090490.22041167 -24090490.22041167 -8631449.289264385 0 0 0 0 0 77297599.50093637 -23955512.81535436 -23955512.81535436 -9076901.055305984 0 0 0 0 0 79480950.52047935 -23747382.18331591 -23747382.18331591 -9495836.363741064 0 0 0 0 0 81563919.03327332 -23469031.32978746 -23469031.32978746 -9887577.212363295 0 0 0 0 0 83517108.42116496 -23124362.89200803 -23124362.89200803 -10229201.95221817 0 0 0 0 0 85400317.77976021 -22736486.00091501 -22736486.00091501 -10539603.05756362 0 0 0 0 0 85489820.48748693 -22468462.25621176 -22468462.25621176 -11096863.11845293 0 0 0 0 0 87261384.01287934 -21790042.51754091 -21790042.51754091 -10397978.45208596 0 0 0 0 0 88907637.91138041 -21333188.03351485 -21333188.03351485 -10666607.19477463 0 0 0 0 0 88892709.01148218 -20544217.31377196 -20544217.31377196 -10738486.42898214 0 0 0 0 0 90292548.56882787 -20060925.58431268 -20060925.58431268 -10933894.80197136 0 0 0 0 0 91610200.25448711 -19144846.70882004 -19144846.70882004 -10728825.91888691 0 0 0 0 0 91763386.4436312 -19483708.55883584 -19483708.55883584 -10299538.47496403 0 0 0 0 0 92843348.12989807 -18640364.26160964 -18640364.26160964 -10879462.94032951 0 0 0 0 0 94008237.15486115 -18120565.54086489 -18120565.54086489 -11003074.08608731 0 0 0 0 0 95106246.60182615 -17589272.77224769 -17589272.77224769 -11100663.21004072 0 0 0 0 0 96139580.72927804 -17050295.44396805 -17050295.44396805 -11171860.28279874 0 0 0 0 0 96924892.13991067 -16218609.59997955 -16218609.59997955 -10875034.52297185 0 0 0 0 0 97302910.95401418 -16579123.30189929 -16579123.30189929 -10611395.31311225 0 0 0 0 0 97807478.64521013 -15694387.9433143 -15694387.9433143 -10907346.29844035 0 0 0 0 0 98634355.64953695 -15169230.51675223 -15169230.51675223 -10918122.36055078 0 0 0 0 0 99406491.36859794 -14646784.36580504 -14646784.36580504 -10912541.11764041 0 0 0 0 0 100128156.7564685 -14125900.22862756 -14125900.22862756 -10887248.13758486 0 0 0 0 0 100800160.2529417 -13609658.20765998 -13609658.20765998 -10845860.15635566 0 0 0 0 0 101637174.5141245 -13260050.19203362 -13260050.19203362 -10400653.1923943 0 0 0 0 0 101725676.2823957 -12449375.22854316 -12449375.22854316 -10443541.13807335 0 0 0 0 0 102220549.7651781 -12764667.45751269 -12764667.45751269 -10361352.52337058 0 0 0 0 0 102257663.8582198 -11969887.51941875 -11969887.51941875 -10368243.32866207 0 0 0 0 0 102749464.9852139 -11499982.85271096 -11499982.85271096 -10280150.21412299 0 0 0 0 0 103200499.9059564 -11040859.97920935 -11040859.97920935 -10181881.13816844 0 0 0 0 0 103616141.8044817 -10591816.99241711 -10591816.99241711 -10074908.57290597 0 0 0 0 0 103698292.2615219 -10086222.91671513 -10086222.91671513 -9736148.784421781 0 0 0 0 0 104190520.033534 -10345673.08851008 -10345673.08851008 -9744244.033148151 0 0 0 0 0 104046973.377325 -9671518.33143626 -9671518.33143626 -9621478.078135902 0 0 0 0 0 104369400.6245571 -9265568.612597149 -9265568.612597149 -9501246.761669006 0 0 0 0 0 104664138.517238 -8870407.758196605 -8870407.758196605 -9370657.986685453 0 0 0 0 0 104931578.804856 -8487477.231337378 -8487477.231337378 -9238420.044450739 0 0 0 0 0 105176000.3212349 -8115102.242033412 -8115102.242033412 -9101072.487001508 0 0 0 0 0 105758590.8973114 -7596421.26723169 -7596421.26723169 -8740155.892079582 0 0 0 0 0 105398465.0071694 -7753597.660345665 -7753597.660345665 -8958342.003412843 0 0 0 0 0 105316402.4477365 -7406258.730451211 -7406258.730451211 -8655112.859871039 0 0 0 0 0 105497596.9328659 -7074974.890214611 -7074974.890214611 -8501530.061176913 0 0 0 0 0 105649489.4586791 -6761756.865612828 -6761756.865612828 -8362344.204354058 0 0 0 0 0 105786645.1228106 -6460591.984893615 -6460591.984893615 -8205920.855342349 0 0 0 0 0 105905913.7759921 -6168553.402760047 -6168553.402760047 -8072800.592502321 0 0 0 0 0 106018856.2695409 -5879895.69708567 -5879895.69708567 -7934939.30603077 0 0 0 0 0 106258377.2790636 -5771869.037942104 -5771869.037942104 -7782320.225702693 0 0 0 0 0 105873751.0394052 -5632070.418423258 -5632070.418423258 -7667825.89497043 0 0 0 0 0 105970726.750495 -5365752.800965074 -5365752.800965074 -7526301.925934293 0 0 0 0 0 106055130.5054708 -5108446.060876812 -5108446.060876812 -7383194.929203859 0 0 0 0 0 106128073.1087155 -4860239.785575549 -4860239.785575549 -7240512.517258486 0 0 0 0 0 106303489.865472 -4782786.826357377 -4782786.826357377 -7130947.519367598 0 0 0 0 0 105962668.0080461 -4668732.041017422 -4668732.041017422 -7009096.320682738 0 0 0 0 0 106019507.4109569 -4441427.233041896 -4441427.233041896 -6872540.701585085 0 0 0 0 0 106067134.4701465 -4222138.950990117 -4222138.950990117 -6736246.78459029 0 0 0 0 0 106106229.4341477 -4010717.211016212 -4010717.211016212 -6600486.519823783 0 0 0 0 0 106137512.8824207 -3806998.710450007 -3806998.710450007 -6465320.14438016 0 0 0 0 0 106161268.232055 -3610864.528313319 -3610864.528313319 -6331000.832543199 0 0 0 0 0 106177997.1267036 -3422149.876152141 -3422149.876152141 -6198100.937817439 0 0 0 0 0 106188513.8524614 -3240430.091630149 -3240430.091630149 -6066340.025700477 0 0 0 0 0 106007391.4452265 -3130262.452906256 -3130262.452906256 -5886233.576042336 0 0 0 0 0 106277331.2609784 -3202161.676396743 -3202161.676396743 -6014531.940944924 0 0 0 0 0 106011546.8310277 -2963630.24244386 -2963630.24244386 -5761266.436184759 0 0 0 0 0 106087223.8939585 -2931477.165534331 -2931477.165534331 -5718879.773469582 0 0 0 0 0 105836044.0678452 -2866111.919177922 -2866111.919177922 -5596645.312188183 0 0 0 0 0 105832827.2197445 -2716689.677449029 -2716689.677449029 -5476307.559683078 0 0 0 0 0 105815397.2515306 -2584953.877123166 -2584953.877123166 -5360824.95454076 0 0 0 0 0 105794043.1516346 -2490202.769738668 -2490202.769738668 -5355194.405251907 0 0 0 0 0 105824234.3712521 -2277343.047829132 -2277343.047829132 -5059496.275814494 0 0 0 0 0 105922146.5569856 -2355731.300055427 -2355731.300055427 -5157625.69646942 0 0 0 0 0 88845869.8036743 -21008205.41929059 -21008205.41929059 -11156285.30751426 0 0 0 0 0 19092884.11259343 -1403801.211423033 -1403801.211423033 -7050558.29751946 0 0 0 0 0 20492573.3858357 -3598948.436106864 -3598948.436106864 -6275831.862596044 0 0 0 0 0 22117167.9808161 -5653215.552415371 -5653215.552415371 -5539945.098962326 0 0 0 0 0 23871628.71856216 -7601999.105527919 -7601999.105527919 -4903355.950149564 0 0 0 0 0 27658796.87191661 -10129821.90045511 -10129821.90045511 -4399296.106224726 0 0 0 0 0 29365149.83676453 -12387059.21392211 -12387059.21392211 -4435681.873906041 0 0 0 0 0 31492702.91157605 -14388804.53223148 -14388804.53223148 -4540912.285974152 0 0 0 0 0 33779585.83802125 -16254974.59413419 -16254974.59413419 -4719433.010505787 0 0 0 0 0 36246591.45371898 -17975186.94372296 -17975186.94372296 -4969281.451362035 0 0 0 0 0 38875487.48264275 -19548510.17722857 -19548510.17722857 -5283808.390941259 0 0 0 0 0 40357264.45790403 -19052018.15196283 -19052018.15196283 -4959096.310699832 0 0 0 0 0 43739447.71809931 -20736474.48810014 -20736474.48810014 -4973931.426389257 0 0 0 0 0 46460679.64569519 -21920899.87425958 -21920899.87425958 -5440963.508417669 0 0 0 0 0 49246654.42960952 -22950297.07383619 -22950297.07383619 -5942962.890540911 0 0 0 0 0 52067561.05219865 -23826872.93287223 -23826872.93287223 -6469781.39299865 0 0 0 0 0 56460826.64961796 -24050088.37004276 -24050088.37004276 -6503923.834935712 0 0 0 0 0 54086510.40190525 -23144455.46902326 -23144455.46902326 -6017142.472445029 0 0 0 0 0 59157982.86265441 -24590813.2780847 -24590813.2780847 -7066617.579527785 0 0 0 0 0 61850845.26039889 -24999279.53853319 -24999279.53853319 -7625615.8748563 0 0 0 0 0 64508532.41105923 -25283852.29011344 -25283852.29011344 -8180193.342374622 0 0 0 0 0 67130162.19559237 -25454202.51447871 -25454202.51447871 -8723245.197287977 0 0 0 0 0 69682047.53357249 -25515956.99651701 -25515956.99651701 -9251416.749237105 0 0 0 0 0 72163654.89983465 -25469349.62058267 -25469349.62058267 -9746281.117028229 0 0 0 0 0 74344310.4041791 -24682474.77337171 -24682474.77337171 -9065554.482685899 0 0 0 0 0 75228027.05224292 -24711162.73159735 -24711162.73159735 -9757376.840825584 0 0 0 0 0 77447327.34737426 -24497317.12965865 -24497317.12965865 -10192894.4654084 0 0 0 0 0 79570831.46416819 -24212708.66547898 -24212708.66547898 -10598194.40279681 0 0 0 0 0 81578253.44765769 -23864613.97065189 -23864613.97065189 -10948235.08471661 0 0 0 0 0 83490013.86155009 -23457645.51889405 -23457645.51889405 -11273466.58582737 0 0 0 0 0 85321172.22328413 -22993175.68856638 -22993175.68856638 -11550145.82779083 0 0 0 0 0 87162119.92987433 -22300634.69703396 -22300634.69703396 -10832107.52345278 0 0 0 0 0 87193150.25254011 -21992519.42436944 -21992519.42436944 -11359413.68960553 0 0 0 0 0 88807350.013364 -21485102.43194405 -21485102.43194405 -11595572.11995595 0 0 0 0 0 90430382.14731908 -20399828.17384107 -20399828.17384107 -10493751.43185393 0 0 0 0 0 91816007.64527799 -19907341.37694002 -19907341.37694002 -10694651.03720169 0 0 0 0 0 93054795.44634277 -18993680.14796064 -18993680.14796064 -10485583.31693598 0 0 0 0 0 91631671.87690382 -19556653.76236749 -19556653.76236749 -11114311.88862532 0 0 0 0 0 94275541.07300878 -18484268.70292774 -18484268.70292774 -10643185.56122196 0 0 0 0 0 95423168.7715949 -17959169.32160886 -17959169.32160886 -10774379.6448756 0 0 0 0 0 96500555.96890497 -17422482.66958545 -17422482.66958545 -10879704.35067403 0 0 0 0 0 97507904.6229306 -16877693.17300012 -16877693.17300012 -10960430.47227927 0 0 0 0 0 98218235.35429144 -16054097.81436738 -16054097.81436738 -10678103.26916746 0 0 0 0 0 97110322.23260655 -16507321.99567337 -16507321.99567337 -11223927.08260575 0 0 0 0 0 99071304.62457064 -15526764.22678256 -15526764.22678256 -10720237.75099499 0 0 0 0 0 99864610.52757524 -14999289.5490438 -14999289.5490438 -10739484.35563933 0 0 0 0 0 100609389.5683004 -14473690.37714307 -14473690.37714307 -10742937.79836653 0 0 0 0 0 101295838.4258749 -13950258.70301727 -13950258.70301727 -10727745.73313933 0 0 0 0 0 101935738.6895599 -13432076.95647455 -13432076.95647455 -10694736.22407407 0 0 0 0 0 101426616.3108536 -13097309.15371544 -13097309.15371544 -10790711.45967892 0 0 0 0 0 102761841.9606535 -12276622.63790113 -12276622.63790113 -10309050.3141546 0 0 0 0 0 102010927.9157691 -12592676.52106006 -12592676.52106006 -10719808.70914425 0 0 0 0 0 103257342.2188531 -11797771.97991908 -11797771.97991908 -10244372.72710096 0 0 0 0 0 103712131.1152822 -11327789.7560609 -11327789.7560609 -10167095.04607566 0 0 0 0 0 104129767.1588629 -10868289.44758927 -10868289.44758927 -10077158.3418382 0 0 0 0 0 104512370.0545207 -10419044.05075499 -10419044.05075499 -9977420.447675657 0 0 0 0 0 104538104.11972 -9922167.617128694 -9922167.617128694 -9647532.990631206 0 0 0 0 0 103999736.0886878 -10153559.76695171 -10153559.76695171 -9959433.682052018 0 0 0 0 0 104857413.9140217 -9507550.653419802 -9507550.653419802 -9539768.606153 0 0 0 0 0 105148275.984529 -9103383.091273757 -9103383.091273757 -9425471.437478732 0 0 0 0 0 105411593.1782998 -8709323.283831028 -8709323.283831028 -9304026.055358894 0 0 0 0 0 105649220.6699107 -8327128.548561143 -8327128.548561143 -9176927.412665768 0 0 0 0 0 105865157.6490916 -7956176.141388096 -7956176.141388096 -9044562.437746413 0 0 0 0 0 105599553.0608468 -7403596.978103939 -7403596.978103939 -8813244.571075117 0 0 0 0 0 106057780.8369568 -7596891.541798091 -7596891.541798091 -8908959.325218922 0 0 0 0 0 105935129.0244469 -7256651.883329207 -7256651.883329207 -8608245.578481792 0 0 0 0 0 106079511.2855828 -6933781.90251724 -6933781.90251724 -8484547.153111788 0 0 0 0 0 106214184.6034398 -6617676.000963697 -6617676.000963697 -8340765.675502443 0 0 0 0 0 106315557.3627581 -6318161.664753033 -6318161.664753033 -8209260.23412527 0 0 0 0 0 106421264.4769682 -6027054.607202576 -6027054.607202576 -8055640.861272048 0 0 0 0 0 106526004.1475833 -5739866.859446047 -5739866.859446047 -7900106.229871609 0 0 0 0 0 106124057.5624569 -5598174.856486605 -5598174.856486605 -7781456.091618535 0 0 0 0 0 106345838.7675087 -5500626.344982751 -5500626.344982751 -7644338.32076655 0 0 0 0 0 106422786.6870683 -5235896.816836359 -5235896.816836359 -7506647.57826232 0 0 0 0 0 106485944.108181 -4980824.706382998 -4980824.706382998 -7367332.097605643 0 0 0 0 0 106539737.1854024 -4734863.09828026 -4734863.09828026 -7227424.28975897 0 0 0 0 0 106190357.9835891 -4620690.525067261 -4620690.525067261 -7097825.31604749 0 0 0 0 0 106352094.3713503 -4549384.998797192 -4549384.998797192 -6997205.818225882 0 0 0 0 0 106391522.9376097 -4324207.371117442 -4324207.371117442 -6863375.881788729 0 0 0 0 0 106422266.5391724 -4107081.949204917 -4107081.949204917 -6729628.270365558 0 0 0 0 0 106445182.6462187 -3897862.424202449 -3897862.424202449 -6596210.062772246 0 0 0 0 0 106460598.7300839 -3696488.293214311 -3696488.293214311 -6463558.429687307 0 0 0 0 0 106469054.2550037 -3502713.484287034 -3502713.484287034 -6331742.417118825 0 0 0 0 0 106471571.6954555 -3316158.625798341 -3316158.625798341 -6200408.552957723 0 0 0 0 0 106468536.4844543 -3136526.090544562 -3136526.090544562 -6070107.371644242 0 0 0 0 0 106273722.0353055 -3031042.187825815 -3031042.187825815 -5890060.011396898 0 0 0 0 0 106193399.4376943 -3065351.795651102 -3065351.795651102 -5935752.472897499 0 0 0 0 0 106265216.9468949 -2866478.531645154 -2866478.531645154 -5766740.80679951 0 0 0 0 0 106010917.3819693 -2802920.379707026 -2802920.379707026 -5638294.48981176 0 0 0 0 0 106075698.8985015 -2775783.630481154 -2775783.630481154 -5603381.991222245 0 0 0 0 0 106045880.712497 -2634526.312716421 -2634526.312716421 -5497697.786560338 0 0 0 0 0 105961476.2011107 -2525868.140221351 -2525868.140221351 -5413392.833730867 0 0 0 0 0 106028647.134131 -2394353.515301183 -2394353.515301183 -5235900.287655979 0 0 0 0 0 105862644.9297086 -2222037.638401434 -2222037.638401434 -5152509.704822479 0 0 0 0 0 105916034.793028 -2313622.352849394 -2313622.352849394 -5260712.032386498 0 0 0 0 0 90454168.41730407 -20846705.77116198 -20846705.77116198 -10910574.22484446 0 0 0 0 0 17908109.64380849 -855562.3043146527 -855562.3043146527 -7921085.949885376 0 0 0 0 0 19696473.599045 -3105851.099891695 -3105851.099891695 -7068665.363585179 0 0 0 0 0 21645940.43299937 -5236811.058593648 -5236811.058593648 -6257772.674899193 0 0 0 0 0 23841503.90892347 -7295196.88978048 -7295196.88978048 -5467597.443883406 0 0 0 0 0 25163423.41495988 -9701120.894267567 -9701120.894267567 -5279749.521751579 0 0 0 0 0 27315500.1295987 -11907734.97187073 -11907734.97187073 -5251962.754352585 0 0 0 0 0 29728870.88564926 -13911933.94684526 -13911933.94684526 -5285931.094071558 0 0 0 0 0 32357525.99483495 -15795703.45969463 -15795703.45969463 -5372518.2616249 0 0 0 0 0 35154980.43041448 -17539287.33549338 -17539287.33549338 -5527550.906565844 0 0 0 0 0 38073915.49968033 -19139382.00501357 -19139382.00501357 -5754161.562560654 0 0 0 0 0 41616928.25431015 -20970880.18068358 -20970880.18068358 -5660668.318206182 0 0 0 0 0 43294337.36594915 -20412572.26592407 -20412572.26592407 -5300203.539390114 0 0 0 0 0 46292884.07623751 -21616107.57441595 -21616107.57441595 -5688579.788238102 0 0 0 0 0 49333160.76762858 -22663740.39586771 -22663740.39586771 -6116895.223497801 0 0 0 0 0 52395868.49487846 -23556255.65317768 -23556255.65317768 -6575933.489575443 0 0 0 0 0 57014562.15315071 -23835082.5601129 -23835082.5601129 -6516840.69015705 0 0 0 0 0 54903263.39945266 -24552973.77630526 -24552973.77630526 -7014487.973350148 0 0 0 0 0 59907880.06476626 -24384564.88875169 -24384564.88875169 -7029424.883975408 0 0 0 0 0 62763833.55045915 -24802347.82886448 -24802347.82886448 -7543144.815199741 0 0 0 0 0 65573165.49777088 -25092485.26020019 -25092485.26020019 -8055119.742901982 0 0 0 0 0 68336760.67804755 -25263976.42014852 -25263976.42014852 -8561245.313514277 0 0 0 0 0 71047637.20049854 -25325988.67287327 -25325988.67287327 -9053206.292196712 0 0 0 0 0 73634912.08094278 -25280535.29025017 -25280535.29025017 -9522811.123645565 0 0 0 0 0 74566399.45960544 -25331152.39835323 -25331152.39835323 -10213736.78852145 0 0 0 0 0 76725891.00951806 -24544845.56445732 -24544845.56445732 -9512485.562057089 0 0 0 0 0 79015000.55217387 -24327254.06739815 -24327254.06739815 -9933787.837183813 0 0 0 0 0 81204931.33819582 -24036950.89394768 -24036950.89394768 -10324036.79472716 0 0 0 0 0 83298849.20648952 -23679242.12254957 -23679242.12254957 -10670485.05299442 0 0 0 0 0 85259592.77868849 -23271885.16669807 -23271885.16669807 -11003009.14437897 0 0 0 0 0 87088255.30194063 -22806986.75413618 -22806986.75413618 -11285629.82718684 0 0 0 0 0 87061769.02721834 -22495551.29683326 -22495551.29683326 -11797948.97252725 0 0 0 0 0 88848688.60841179 -21816607.76534524 -21816607.76534524 -11082630.02653598 0 0 0 0 0 90467318.89085992 -21301770.75819694 -21301770.75819694 -11320006.13898363 0 0 0 0 0 90296036.89532186 -20499563.23348478 -20499563.23348478 -11348426.7057199 0 0 0 0 0 91665653.98318866 -19969924.27990048 -19969924.27990048 -11509387.18381865 0 0 0 0 0 92904307.02007204 -19028140.59256402 -19028140.59256402 -11261039.62298357 0 0 0 0 0 93134355.71102393 -19391007.14746165 -19391007.14746165 -10864022.94725983 0 0 0 0 0 94108064.38643858 -18483965.54920333 -18483965.54920333 -11379617.15644569 0 0 0 0 0 95241612.14657483 -17927922.73349722 -17927922.73349722 -11471444.60865423 0 0 0 0 0 96307764.74718727 -17363985.38739702 -17363985.38739702 -11537505.0400041 0 0 0 0 0 97308231.16891426 -16797680.63797363 -16797680.63797363 -11577576.10208246 0 0 0 0 0 98018299.52649893 -15959594.82688237 -15959594.82688237 -11248020.3992064 0 0 0 0 0 98452958.0362809 -16328408.12357987 -16328408.12357987 -11017364.55321155 0 0 0 0 0 98865262.72847998 -15410051.67029196 -15410051.67029196 -11245472.4701426 0 0 0 0 0 99654727.3778179 -14868506.31854893 -14868506.31854893 -11234798.11962913 0 0 0 0 0 100394946.4330173 -14324706.19738506 -14324706.19738506 -11199129.0156933 0 0 0 0 0 101080367.9562136 -13788791.78740121 -13788791.78740121 -11147638.51742403 0 0 0 0 0 101717426.0618266 -13256552.32344277 -13256552.32344277 -11079532.22931398 0 0 0 0 0 102529930.1020944 -12916573.51209768 -12916573.51209768 -10644164.82965732 0 0 0 0 0 102552824.7309964 -12095826.74224469 -12095826.74224469 -10634176.14471732 0 0 0 0 0 103080675.5452167 -12410556.21121399 -12410556.21121399 -10583535.20831335 0 0 0 0 0 103050014.1254986 -11608712.53535061 -11608712.53535061 -10536380.25405113 0 0 0 0 0 103507892.4722484 -11133233.14921728 -11133233.14921728 -10428144.7161831 0 0 0 0 0 103928160.2431228 -10668804.40791577 -10668804.40791577 -10310453.91179764 0 0 0 0 0 104314674.9013484 -10216112.27228919 -10216112.27228919 -10184671.41987677 0 0 0 0 0 104350940.5814177 -9725829.519793037 -9725829.519793037 -9835829.586988961 0 0 0 0 0 104860823.3692195 -9981757.584892442 -9981757.584892442 -9870175.55857968 0 0 0 0 0 104672489.6218311 -9308080.995508663 -9308080.995508663 -9703906.639185693 0 0 0 0 0 104966105.7089152 -8901373.650813267 -8901373.650813267 -9566530.562911825 0 0 0 0 0 105235102.3480713 -8506745.87786088 -8506745.87786088 -9423557.501513768 0 0 0 0 0 105477862.3118869 -8124411.614310829 -8124411.614310829 -9276185.463643027 0 0 0 0 0 105697422.6139122 -7753490.780231435 -7753490.780231435 -9125239.483605878 0 0 0 0 0 106230021.6699193 -7248782.346746432 -7248782.346746432 -8768422.853562735 0 0 0 0 0 105896018.7489276 -7394139.747037378 -7394139.747037378 -8969403.969898375 0 0 0 0 0 105779805.9866428 -7064459.047200727 -7064459.047200727 -8665385.799283125 0 0 0 0 0 105941320.5996757 -6737532.480111811 -6737532.480111811 -8505850.398348948 0 0 0 0 0 106079460.3702097 -6425058.965957624 -6425058.965957624 -8361175.425050099 0 0 0 0 0 106212494.5860995 -6121531.53784457 -6121531.53784457 -8180013.292514449 0 0 0 0 0 106295476.289946 -5842938.127855548 -5842938.127855548 -8037186.710972246 0 0 0 0 0 106375878.1089307 -5569385.832103356 -5569385.832103356 -7918526.84579163 0 0 0 0 0 106611017.1950008 -5459318.872142605 -5459318.872142605 -7763186.190315153 0 0 0 0 0 106218551.8779861 -5326214.57860487 -5326214.57860487 -7633991.847348763 0 0 0 0 0 106298917.8854295 -5063047.488812112 -5063047.488812112 -7482955.167202058 0 0 0 0 0 106367018.2732073 -4810597.886378425 -4810597.886378425 -7333257.47580737 0 0 0 0 0 106424673.134205 -4567111.472079356 -4567111.472079356 -7184202.010215041 0 0 0 0 0 106583384.4501401 -4497687.943070416 -4497687.943070416 -7087573.832164262 0 0 0 0 0 106242694.9365302 -4389695.625621716 -4389695.625621716 -6955470.322669261 0 0 0 0 0 106285819.2672204 -4166960.601055119 -4166960.601055119 -6813427.025209854 0 0 0 0 0 106320257.9988319 -3952476.274025735 -3952476.274025735 -6672125.628377381 0 0 0 0 0 106346754.1762217 -3746003.936513396 -3746003.936513396 -6531743.817018893 0 0 0 0 0 106365880.7217808 -3547292.671399494 -3547292.671399494 -6392399.154065729 0 0 0 0 0 106378064.6549023 -3356205.89682906 -3356205.89682906 -6254021.247770302 0 0 0 0 0 106383569.5229794 -3172639.544364715 -3172639.544364715 -6117738.022450392 0 0 0 0 0 106383710.082048 -2995860.2891973 -2995860.2891973 -5982592.138724893 0 0 0 0 0 106192933.2552719 -2896950.973047062 -2896950.973047062 -5806300.261653817 0 0 0 0 0 106460330.6679726 -2963674.211955122 -2963674.211955122 -5941105.840376584 0 0 0 0 0 106187662.1417453 -2735193.65836132 -2735193.65836132 -5677981.178028011 0 0 0 0 0 106253650.6442591 -2708194.16364455 -2708194.16364455 -5644906.809227715 0 0 0 0 0 106006713.65021 -2649607.061392463 -2649607.061392463 -5513835.74870184 0 0 0 0 0 106005112.8962862 -2500429.394763299 -2500429.394763299 -5365955.296711122 0 0 0 0 0 105982904.9077294 -2356727.850920089 -2356727.850920089 -5331145.395888661 0 0 0 0 0 105987349.3303362 -2162065.958474181 -2162065.958474181 -5056637.220011832 0 0 0 0 0 106093606.2837379 -2232498.162901886 -2232498.162901886 -5140485.248469209 0 0 0 0 0 90317114.26081324 -20950068.35249678 -20950068.35249678 -11775285.55914633 0 0 0 0 0 16447304.68103083 -1460185.183073546 -1460185.183073546 -8875800.514848839 0 0 0 0 0 17867288.98378878 -3772427.830913256 -3772427.830913256 -8112693.154974451 0 0 0 0 0 19661112.75557457 -5838952.008117144 -5838952.008117144 -7195765.941980407 0 0 0 0 0 21850374.6028937 -7834029.373164179 -7834029.373164179 -6258537.757178541 0 0 0 0 0 24429250.46957449 -10011693.52632178 -10011693.52632178 -5738907.01579207 0 0 0 0 0 26821216.63405473 -12137885.70179711 -12137885.70179711 -5606174.769971058 0 0 0 0 0 28950433.97669308 -14217437.01064378 -14217437.01064378 -5621616.575423942 0 0 0 0 0 31303983.26382906 -16179568.53755449 -16179568.53755449 -5719583.212057282 0 0 0 0 0 33837184.80947666 -17998144.83221387 -17998144.83221387 -5892998.733589756 0 0 0 0 0 36535363.49627883 -19663079.45999699 -19663079.45999699 -6138096.85456379 0 0 0 0 0 39394217.10019484 -21166388.81038032 -21166388.81038032 -6448931.641671722 0 0 0 0 0 41110668.08233295 -20584894.17786975 -20584894.17786975 -6042893.829449438 0 0 0 0 0 44449675.29853956 -22233010.54961304 -22233010.54961304 -6089679.407150978 0 0 0 0 0 47349820.54122606 -23330211.81037206 -23330211.81037206 -6556457.878616153 0 0 0 0 0 50299440.94943876 -24266342.70691743 -24266342.70691743 -7053903.425062513 0 0 0 0 0 53268449.50491154 -25043380.55017802 -25043380.55017802 -7573139.854317985 0 0 0 0 0 57729925.35000349 -25137058.46104337 -25137058.46104337 -7569260.519611148 0 0 0 0 0 55457959.64195174 -24296424.51268283 -24296424.51268283 -7056619.896159196 0 0 0 0 0 60532817.91057336 -25575797.3250205 -25575797.3250205 -8117952.588272474 0 0 0 0 0 63316780.7982903 -25882357.6325077 -25882357.6325077 -8662467.675743764 0 0 0 0 0 66064818.67031633 -26067277.39018589 -26067277.39018589 -9198854.082305901 0 0 0 0 0 68757298.9728902 -26138381.84696675 -26138381.84696675 -9725364.365361324 0 0 0 0 0 71357429.85056184 -26099194.48936645 -26099194.48936645 -10221777.78306354 0 0 0 0 0 73874769.0731232 -25959641.07862199 -25959641.07862199 -10691164.14499891 0 0 0 0 0 76128205.00757924 -25140877.11602388 -25140877.11602388 -9969657.703197893 0 0 0 0 0 76887103.526271 -25108917.87863836 -25108917.87863836 -10651260.33405818 0 0 0 0 0 79119940.30358644 -24809811.34424848 -24809811.34424848 -11053877.58270979 0 0 0 0 0 81245788.65536168 -24439785.91229113 -24439785.91229113 -11424228.07426291 0 0 0 0 0 83265677.35578811 -24010243.46400836 -24010243.46400836 -11755649.68662683 0 0 0 0 0 85174725.20702721 -23533775.07906282 -23533775.07906282 -12029086.12670254 0 0 0 0 0 86985152.42563152 -23009814.42260306 -23009814.42260306 -12262349.18909447 0 0 0 0 0 88827868.1556799 -22305892.38239675 -22305892.38239675 -11533343.87465341 0 0 0 0 0 88742960.6376849 -21968220.61510119 -21968220.61510119 -12029743.19118322 0 0 0 0 0 90336401.91046008 -21402835.86419907 -21402835.86419907 -12218875.33677696 0 0 0 0 0 91887194.45476417 -20330642.81406499 -20330642.81406499 -11104661.62842771 0 0 0 0 0 93246352.21309938 -19794424.85966651 -19794424.85966651 -11266502.13825505 0 0 0 0 0 94396185.07083069 -18859184.87515332 -18859184.87515332 -11019212.55699407 0 0 0 0 0 92975760.80464645 -19421375.51450555 -19421375.51450555 -11655513.42531214 0 0 0 0 0 95581759.05455495 -18309953.70545616 -18309953.70545616 -11145398.06822282 0 0 0 0 0 96692761.60790335 -17749011.04673639 -17749011.04673639 -11245036.7124899 0 0 0 0 0 97731162.99458018 -17180756.27196855 -17180756.27196855 -11319591.0149471 0 0 0 0 0 98698170.30709814 -16606032.46871554 -16606032.46871554 -11365856.66325 0 0 0 0 0 99329659.98515892 -15780096.86784307 -15780096.86784307 -11057908.90686743 0 0 0 0 0 98245915.69312206 -16227314.48252022 -16227314.48252022 -11597747.03437093 0 0 0 0 0 100144309.1623067 -15231356.63104934 -15231356.63104934 -11068379.58927486 0 0 0 0 0 100903839.8220435 -14681972.74341771 -14681972.74341771 -11061724.95093261 0 0 0 0 0 101603695.5579665 -14137057.84812419 -14137057.84812419 -11037924.8874929 0 0 0 0 0 102255343.0660381 -13600232.94289073 -13600232.94289073 -10996091.31186292 0 0 0 0 0 102850896.5478065 -13066880.38307861 -13066880.38307861 -10935187.1434844 0 0 0 0 0 102310394.5996118 -12734027.01468899 -12734027.01468899 -11002147.60723696 0 0 0 0 0 103582602.04122 -11914092.03714936 -11914092.03714936 -10509392.09655652 0 0 0 0 0 102863611.5933909 -12217188.55903132 -12217188.55903132 -10904514.03070449 0 0 0 0 0 104042094.1756408 -11427712.0539096 -11427712.0539096 -10422012.82503779 0 0 0 0 0 104462488.351529 -10952307.22583397 -10952307.22583397 -10322944.5022586 0 0 0 0 0 104847105.92391 -10488423.18025411 -10488423.18025411 -10213373.25451034 0 0 0 0 0 105197412.4160405 -10036148.341136 -10036148.341136 -10094769.10380017 0 0 0 0 0 105179528.364995 -9554517.526563345 -9554517.526563345 -9753373.373409692 0 0 0 0 0 104666907.8289874 -9774632.855703177 -9774632.855703177 -10050183.80739667 0 0 0 0 0 105469249.7611723 -9138941.301040463 -9138941.301040463 -9630192.844885334 0 0 0 0 0 105731250.7701763 -8733411.67231751 -8733411.67231751 -9499027.946443349 0 0 0 0 0 105967540.1200049 -8339967.490700549 -8339967.490700549 -9362251.545805797 0 0 0 0 0 106179557.9682277 -7959325.4726659 -7959325.4726659 -9221400.408506533 0 0 0 0 0 106369722.4716585 -7590109.929356501 -7590109.929356501 -9075674.065910153 0 0 0 0 0 106071920.3786754 -7047645.231027707 -7047645.231027707 -8812942.303587046 0 0 0 0 0 106537323.2073538 -7233748.053888911 -7233748.053888911 -8927540.369833812 0 0 0 0 0 106383251.7563832 -6911766.379936364 -6911766.379936364 -8624594.458305733 0 0 0 0 0 106512037.1408577 -6588149.679919978 -6588149.679919978 -8484014.41017803 0 0 0 0 0 106638688.7122812 -6265883.142657994 -6265883.142657994 -8323450.10846046 0 0 0 0 0 106715130.7107356 -5980271.4926314 -5980271.4926314 -8205296.11356279 0 0 0 0 0 106787398.9273286 -5710058.461860492 -5710058.461860492 -8048113.077603053 0 0 0 0 0 106890974.476196 -5416872.681223535 -5416872.681223535 -7863386.875038171 0 0 0 0 0 106476218.1297349 -5285793.050780678 -5285793.050780678 -7746109.698235998 0 0 0 0 0 106683247.8395077 -5188788.955251819 -5188788.955251819 -7615483.777105317 0 0 0 0 0 106738540.3420655 -4931773.656180757 -4931773.656180757 -7468156.371320575 0 0 0 0 0 106783254.4031659 -4681616.946158185 -4681616.946158185 -7321531.520700103 0 0 0 0 0 106820685.1948237 -4440238.680482422 -4440238.680482422 -7175840.129484203 0 0 0 0 0 106472192.7289264 -4332604.446744167 -4332604.446744167 -7036151.699903329 0 0 0 0 0 106617959.1759337 -4268955.463169615 -4268955.463169615 -6947880.753128516 0 0 0 0 0 106643468.2925904 -4048543.654726823 -4048543.654726823 -6808463.128625846 0 0 0 0 0 106661186.3875399 -3836440.835368734 -3836440.835368734 -6669554.100882573 0 0 0 0 0 106671608.0919672 -3632376.657995796 -3632376.657995796 -6531430.587906256 0 0 0 0 0 106675211.3008602 -3436074.139081556 -3436074.139081556 -6394308.016594434 0 0 0 0 0 106672177.5322066 -3247554.586055784 -3247554.586055784 -6258581.041707629 0 0 0 0 0 106663921.922403 -3066095.019329147 -3066095.019329147 -6123303.958933865 0 0 0 0 0 106650590.9146947 -2891680.527605449 -2891680.527605449 -5989649.641122352 0 0 0 0 0 106446922.0804802 -2797322.608712169 -2797322.608712169 -5813356.868361591 0 0 0 0 0 106378530.1059275 -2825742.47318881 -2825742.47318881 -5849190.114965758 0 0 0 0 0 106429065.257067 -2637329.797377958 -2637329.797377958 -5686525.616089433 0 0 0 0 0 106177632.0373155 -2577408.689071639 -2577408.689071639 -5554172.806169323 0 0 0 0 0 106231968.7999239 -2554575.917913871 -2554575.917913871 -5524272.338550454 0 0 0 0 0 106194212.6372056 -2419816.728481203 -2419816.728481203 -5424218.351251747 0 0 0 0 0 106205717.7396022 -2262192.23496284 -2262192.23496284 -5248979.545131836 0 0 0 0 0 106025624.5599051 -2104147.355801474 -2104147.355801474 -5150502.362855105 0 0 0 0 0 106092894.0391178 -2187536.671686205 -2187536.671686205 -5229446.344334602 0 0 0 0 0 91978177.15523425 -20763876.2950589 -20763876.2950589 -11525223.54958506 0 0 0 0 0 15276246.79024989 -732253.4857906433 -732253.4857906433 -10048183.8620391 0 0 0 0 0 17568789.85125244 -3238002.768225541 -3238002.768225541 -8991275.185150709 0 0 0 0 0 19617671.48227605 -5509987.100869929 -5509987.100869929 -7809801.868403612 0 0 0 0 0 21199491.20464087 -7380927.903483961 -7380927.903483961 -6998617.277192892 0 0 0 0 0 22703738.75506892 -9443649.491043681 -9443649.491043681 -6596092.779000588 0 0 0 0 0 24615577.91931111 -11560704.16945244 -11560704.16945244 -6529420.694562513 0 0 0 0 0 27076803.89684399 -13661948.42014642 -13661948.42014642 -6446577.608155449 0 0 0 0 0 29763427.9313928 -15641653.1277431 -15641653.1277431 -6453264.233905427 0 0 0 0 0 32637163.61515567 -17483163.19423405 -17483163.19423405 -6529994.499811584 0 0 0 0 0 35674767.25802603 -19170824.72580947 -19170824.72580947 -6679970.621836147 0 0 0 0 0 38831660.57594697 -20699967.97520199 -20699967.97520199 -6901129.994981227 0 0 0 0 0 42354596.74625015 -22505161.6834435 -22505161.6834435 -6820719.626956602 0 0 0 0 0 44243419.65160994 -21867537.12839855 -21867537.12839855 -6387112.895281301 0 0 0 0 0 47417682.74333853 -22985392.67371285 -22985392.67371285 -6774446.129116875 0 0 0 0 0 50618974.525424 -23940720.24092768 -23940720.24092768 -7199970.54895849 0 0 0 0 0 53822846.93335937 -24735287.56414903 -24735287.56414903 -7651321.569966484 0 0 0 0 0 58502394.20134139 -24888881.83522205 -24888881.83522205 -7549569.976291731 0 0 0 0 0 56239967.00962503 -25668655.99842842 -25668655.99842842 -8108864.840264829 0 0 0 0 0 61504717.29395401 -25340647.08583987 -25340647.08583987 -8052830.200808529 0 0 0 0 0 64444202.0920885 -25654662.10874588 -25654662.10874588 -8550477.921657635 0 0 0 0 0 67320807.4876845 -25846381.61564912 -25846381.61564912 -9046873.814833347 0 0 0 0 0 70136292.61838418 -25921454.13860634 -25921454.13860634 -9535082.826706463 0 0 0 0 0 72872227.09902693 -25881437.66435543 -25881437.66435543 -10007560.19636108 0 0 0 0 0 75500200.62867308 -25740222.8248041 -25740222.8248041 -10451948.30612177 0 0 0 0 0 76305052.09077618 -25729570.85620901 -25729570.85620901 -11128811.80587926 0 0 0 0 0 78527553.03951955 -24915929.35946649 -24915929.35946649 -10390303.26430711 0 0 0 0 0 80817844.15863428 -24613362.42515218 -24613362.42515218 -10781541.44440891 0 0 0 0 0 83003574.50077422 -24239593.5349537 -24239593.5349537 -11140080.74116941 0 0 0 0 0 85083410.80654119 -23801633.51877858 -23801633.51877858 -11458235.48097201 0 0 0 0 0 87026464.38251252 -23325318.6676835 -23325318.6676835 -11757318.01619199 0 0 0 0 0 88820805.96393915 -22801477.44199197 -22801477.44199197 -12002113.71070698 0 0 0 0 0 88700035.79900743 -22451616.05270198 -22451616.05270198 -12474614.10361772 0 0 0 0 0 90485957.74254923 -21764822.75242051 -21764822.75242051 -11746325.71060356 0 0 0 0 0 92055914.62803023 -21195231.72590065 -21195231.72590065 -11945553.3660487 0 0 0 0 0 91732822.29737808 -20390522.90338563 -20390522.90338563 -11926470.54602448 0 0 0 0 0 93071338.5632783 -19813335.60349712 -19813335.60349712 -12056357.1054774 0 0 0 0 0 94220496.51361643 -18851662.06784668 -18851662.06784668 -11767040.31305062 0 0 0 0 0 94534357.52784592 -19236941.39876161 -19236941.39876161 -11404519.81397106 0 0 0 0 0 95391505.02339269 -18269912.09565973 -18269912.09565973 -11851239.78780958 0 0 0 0 0 96490883.88907221 -17680308.14295596 -17680308.14295596 -11908825.77553574 0 0 0 0 0 97518296.04010709 -17084422.02577482 -17084422.02577482 -11941158.13811536 0 0 0 0 0 98480469.66150793 -16492665.97616036 -16492665.97616036 -11952707.21352329 0 0 0 0 0 99114664.06971319 -15651531.76322829 -15651531.76322829 -11584317.89461129 0 0 0 0 0 99610301.76417977 -16030821.90285233 -16030821.90285233 -11394441.39416981 0 0 0 0 0 99923232.76885697 -15086175.01802257 -15086175.01802257 -11565641.33657774 0 0 0 0 0 100681430.463258 -14520906.36250023 -14520906.36250023 -11518598.17738955 0 0 0 0 0 101380857.1692976 -13964535.96267808 -13964535.96267808 -11456712.27291542 0 0 0 0 0 102030047.2248557 -13409981.39626188 -13409981.39626188 -11372004.7459117 0 0 0 0 0 102625458.2324885 -12872390.35981284 -12872390.35981284 -11285997.94478264 0 0 0 0 0 103414618.9267385 -12541795.69972342 -12541795.69972342 -10860619.20074376 0 0 0 0 0 103367822.3466547 -11713130.42032659 -11713130.42032659 -10795927.15053287 0 0 0 0 0 103925629.5347397 -12025806.52757939 -12025806.52757939 -10778217.73740615 0 0 0 0 0 103830226.7007233 -11220864.41475458 -11220864.41475458 -10676741.46137308 0 0 0 0 0 104253998.7560245 -10741196.53461681 -10741196.53461681 -10548400.8822595 0 0 0 0 0 104642001.8702543 -10273627.0394276 -10273627.0394276 -10411201.20311271 0 0 0 0 0 104996156.1863157 -9818246.897000285 -9818246.897000285 -10266613.86163768 0 0 0 0 0 104989260.0628589 -9344789.130426034 -9344789.130426034 -9909336.703723101 0 0 0 0 0 105515411.2528633 -9596099.718424898 -9596099.718424898 -9968815.170086779 0 0 0 0 0 105282027.4108152 -8926613.198907012 -8926613.198907012 -9761449.656909082 0 0 0 0 0 105548312.5296153 -8521067.835365959 -8521067.835365959 -9608785.118396932 0 0 0 0 0 105789568.0026076 -8128131.590115606 -8128131.590115606 -9452157.040308464 0 0 0 0 0 106006936.215942 -7747423.348161118 -7747423.348161118 -9291184.600270374 0 0 0 0 0 106201105.9238316 -7379638.076143868 -7379638.076143868 -9126872.59524384 0 0 0 0 0 106685823.0977861 -6889409.378858245 -6889409.378858245 -8774938.645426549 0 0 0 0 0 106374469.9001507 -7024695.363322054 -7024695.363322054 -8959922.68874746 0 0 0 0 0 106228144.4653729 -6711558.958884229 -6711558.958884229 -8654476.160026129 0 0 0 0 0 106368027.385954 -6387740.847728991 -6387740.847728991 -8494613.531902514 0 0 0 0 0 106493959.815562 -6084108.789409676 -6084108.789409676 -8342839.665208735 0 0 0 0 0 106609609.8978852 -5786714.328548123 -5786714.328548123 -8136459.780523841 0 0 0 0 0 106653512.7286287 -5529664.311187502 -5529664.311187502 -8015982.543857109 0 0 0 0 0 106730697.4789847 -5247571.484301171 -5247571.484301171 -7877068.001608741 0 0 0 0 0 106958917.1377201 -5139770.092168029 -5139770.092168029 -7725777.987868101 0 0 0 0 0 106555538.1586864 -5011891.774952854 -5011891.774952854 -7575051.113529285 0 0 0 0 0 106612762.1086832 -4755822.777910423 -4755822.777910423 -7423862.327491088 0 0 0 0 0 106665797.7191125 -4507708.869969564 -4507708.869969564 -7268717.842551191 0 0 0 0 0 106708268.5377942 -4269825.293175382 -4269825.293175382 -7113650.341907874 0 0 0 0 0 106850704.1804678 -4208281.393000076 -4208281.393000076 -7030043.690234342 0 0 0 0 0 106510588.012182 -4106350.36336567 -4106350.36336567 -6888119.323496383 0 0 0 0 0 106539952.1833274 -3888916.324455108 -3888916.324455108 -6741196.993063052 0 0 0 0 0 106561411.2557616 -3679780.35706829 -3679780.35706829 -6595409.568314092 0 0 0 0 0 106575497.7323764 -3478628.363237418 -3478628.363237418 -6450889.710505345 0 0 0 0 0 106582817.256573 -3285284.959125307 -3285284.959125307 -6307715.971404023 0 0 0 0 0 106583688.6112321 -3099606.397942069 -3099606.397942069 -6165975.405649923 0 0 0 0 0 106578457.9025909 -2921378.68658332 -2921378.68658332 -6026347.002898226 0 0 0 0 0 106568328.6425491 -2750100.771843536 -2750100.771843536 -5888402.447951592 0 0 0 0 0 106368253.3399097 -2662209.118057134 -2662209.118057134 -5716875.89696582 0 0 0 0 0 106632943.8037374 -2724025.889557601 -2724025.889557601 -5857555.302383036 0 0 0 0 0 106353619.1015043 -2505946.044379371 -2505946.044379371 -5584524.383302749 0 0 0 0 0 106414069.2613707 -2482716.641125132 -2482716.641125132 -5560307.549509138 0 0 0 0 0 106164700.3310132 -2428284.901642591 -2428284.901642591 -5424694.975996781 0 0 0 0 0 106141856.0476247 -2296556.467937757 -2296556.467937757 -5298441.240551891 0 0 0 0 0 106123117.7926195 -2166843.105433811 -2166843.105433811 -5188492.563662573 0 0 0 0 0 106139802.8332927 -2049647.659513189 -2049647.659513189 -5061522.994951649 0 0 0 0 0 91810603.17166401 -20812548.88560774 -20812548.88560774 -12363028.11285155 0 0 0 0 0 13861505.69204591 -1511777.347698333 -1511777.347698333 -11304000.89278988 0 0 0 0 0 15351048.89763152 -3940909.694604245 -3940909.694604245 -10096633.6556199 0 0 0 0 0 16446310.61430356 -6052092.356308043 -6052092.356308043 -8895235.249875193 0 0 0 0 0 18778384.78329347 -7977885.961777044 -7977885.961777044 -7991566.035054248 0 0 0 0 0 22102778.84360742 -9732252.373575168 -9732252.373575168 -7080868.953009601 0 0 0 0 0 24102000.1797098 -11830109.68894712 -11830109.68894712 -7014068.651822628 0 0 0 0 0 26335692.01509593 -13987541.59828095 -13987541.59828095 -6903259.475371838 0 0 0 0 0 28743283.3979539 -16037836.11268468 -16037836.11268468 -6883079.1906355 0 0 0 0 0 31358669.83512055 -17949138.64114027 -17949138.64114027 -6954941.814170811 0 0 0 0 0 34155553.80993707 -19706127.72929 -19706127.72929 -7112166.017362914 0 0 0 0 0 37089287.82211844 -21299772.48633723 -21299772.48633723 -7346604.005635094 0 0 0 0 0 40152250.04213057 -22724927.93791113 -22724927.93791113 -7648636.632453207 0 0 0 0 0 42080544.35322861 -22067441.74504919 -22067441.74504919 -7183063.240122586 0 0 0 0 0 45375475.89393527 -23676078.96186832 -23676078.96186832 -7242213.602891853 0 0 0 0 0 48450470.23115723 -24677303.57898346 -24677303.57898346 -7701771.222410019 0 0 0 0 0 51551419.92048579 -25511250.05529573 -25511250.05529573 -8189483.616860683 0 0 0 0 0 54659893.36660225 -26183952.97885384 -26183952.97885384 -8697655.834238457 0 0 0 0 0 59175822.75368986 -26145814.61784732 -26145814.61784732 -8652444.04756191 0 0 0 0 0 57013560.25170863 -25375768.96096715 -25375768.96096715 -8122857.38209422 0 0 0 0 0 62077011.27814267 -26480076.59359476 -26480076.59359476 -9182926.61645695 0 0 0 0 0 64940071.9735928 -26682997.48168693 -26682997.48168693 -9708035.375198381 0 0 0 0 0 67753783.5759763 -26765003.37275449 -26765003.37275449 -10221685.36495081 0 0 0 0 0 70513220.44884156 -26734258.47877179 -26734258.47877179 -10716805.10587934 0 0 0 0 0 73158475.68754654 -26591599.34235499 -26591599.34235499 -11183689.279593 0 0 0 0 0 75701256.22649772 -26353174.78915589 -26353174.78915589 -11621574.05354282 0 0 0 0 0 78020218.14673261 -25509736.24036333 -25509736.24036333 -10867887.91284485 0 0 0 0 0 78641635.8858813 -25416651.61085846 -25416651.61085846 -11530303.19888592 0 0 0 0 0 80875949.91864327 -25031110.2030565 -25031110.2030565 -11895690.23624798 0 0 0 0 0 83011258.92908123 -24580056.34383794 -24580056.34383794 -12223253.87838298 0 0 0 0 0 85044806.55815974 -24077228.70037637 -24077228.70037637 -12513524.74312916 0 0 0 0 0 86917972.52968954 -23523445.40703272 -23523445.40703272 -12744629.50133639 0 0 0 0 0 88691155.63493629 -22947599.82546092 -22947599.82546092 -12954721.72944774 0 0 0 0 0 90533337.5734677 -22234968.95573854 -22234968.95573854 -12214081.41694062 0 0 0 0 0 90342589.32694356 -21860261.03386487 -21860261.03386487 -12661667.75291739 0 0 0 0 0 91895800.49208593 -21249041.99678799 -21249041.99678799 -12820133.66340609 0 0 0 0 0 93383947.70872751 -20203700.07094616 -20203700.07094616 -11687741.69458731 0 0 0 0 0 94702110.89147049 -19617092.26730384 -19617092.26730384 -11820157.33813255 0 0 0 0 0 95757044.41931894 -18663656.70502473 -18663656.70502473 -11527441.44997101 0 0 0 0 0 94348015.68825826 -19221862.09547188 -19221862.09547188 -12167862.88284491 0 0 0 0 0 96901637.28241232 -18076873.97261294 -18076873.97261294 -11620801.5723838 0 0 0 0 0 97971278.74947706 -17483560.55993967 -17483560.55993967 -11687782.56836749 0 0 0 0 0 98965348.61247431 -16885559.28021923 -16885559.28021923 -11730439.58945056 0 0 0 0 0 99881712.01560462 -16285831.38097126 -16285831.38097126 -11745680.76672017 0 0 0 0 0 100445024.7062513 -15461819.1840905 -15461819.1840905 -11417521.93834193 0 0 0 0 0 99385090.65013815 -15898101.39470956 -15898101.39470956 -11948872.76524903 0 0 0 0 0 101220938.6866 -14885536.77119234 -14885536.77119234 -11385402.64902573 0 0 0 0 0 101939614.8829043 -14320012.18817921 -14320012.18817921 -11352279.15598596 0 0 0 0 0 102596486.0473444 -13762161.9491809 -13762161.9491809 -11304050.53929334 0 0 0 0 0 103197118.6347702 -13211687.93362211 -13211687.93362211 -11233742.93755793 0 0 0 0 0 103764925.3152948 -12669229.09133727 -12669229.09133727 -11147211.00275575 0 0 0 0 0 103185802.7476237 -12336888.50416845 -12336888.50416845 -11180869.6311415 0 0 0 0 0 104389048.6512711 -11522494.34007652 -11522494.34007652 -10680947.02160846 0 0 0 0 0 103702014.0386355 -11812457.56473293 -11812457.56473293 -11059000.05794787 0 0 0 0 0 104811296.7041703 -11030951.11169642 -11030951.11169642 -10571396.45642516 0 0 0 0 0 105197355.6382839 -10552021.3268306 -10552021.3268306 -10451536.40707454 0 0 0 0 0 105547780.8529481 -10085512.89610681 -10085512.89610681 -10322579.96509095 0 0 0 0 0 105865245.5221048 -9631430.631219236 -9631430.631219236 -10185486.77142295 0 0 0 0 0 105803531.4173146 -9167734.822554538 -9167734.822554538 -9835315.480553363 0 0 0 0 0 105318563.7201174 -9375214.652476331 -9375214.652476331 -10114566.91365332 0 0 0 0 0 106063620.8212057 -8751517.36234281 -8751517.36234281 -9694833.422955096 0 0 0 0 0 106296882.2388741 -8347624.348860703 -8347624.348860703 -9548884.701601004 0 0 0 0 0 106505795.864774 -7956167.846799572 -7956167.846799572 -9397821.301968316 0 0 0 0 0 106691612.0913766 -7577783.440322326 -7577783.440322326 -9243162.404541824 0 0 0 0 0 106854978.7099396 -7212925.163581228 -7212925.163581228 -9085440.860639282 0 0 0 0 0 106526740.7481875 -6681573.36564537 -6681573.36564537 -8792252.485564807 0 0 0 0 0 106997810.0884545 -6860550.41630622 -6860550.41630622 -8924819.456410058 0 0 0 0 0 106816693.8679249 -6555748.663139105 -6555748.663139105 -8619893.302454164 0 0 0 0 0 106930647.5287631 -6232366.236172841 -6232366.236172841 -8462566.68421473 0 0 0 0 0 107025637.6368375 -5925988.753971769 -5925988.753971769 -8302979.545948362 0 0 0 0 0 107063202.8293671 -5663211.556588195 -5663211.556588195 -8197481.005358281 0 0 0 0 0 107144649.1933951 -5378640.979900151 -5378640.979900151 -8000690.75750658 0 0 0 0 0 107242171.4069297 -5090014.585242872 -5090014.585242872 -7819723.622448446 0 0 0 0 0 106823796.8025435 -4955953.436935706 -4955953.436935706 -7679376.660076716 0 0 0 0 0 107001867.4217023 -4879584.450075891 -4879584.450075891 -7582581.154769753 0 0 0 0 0 107038108.9440636 -4623585.848476287 -4623585.848476287 -7417690.998372263 0 0 0 0 0 107065580.9062527 -4376490.942148557 -4376490.942148557 -7261220.800351466 0 0 0 0 0 107089332.6817445 -4141640.45803378 -4141640.45803378 -7109980.10939131 0 0 0 0 0 106741712.5833882 -4040028.479447459 -4040028.479447459 -6959966.932038588 0 0 0 0 0 106870476.0715465 -3984590.619123462 -3984590.619123462 -6885011.795614026 0 0 0 0 0 106882545.5125908 -3769664.631057235 -3769664.631057235 -6740413.759818734 0 0 0 0 0 106887591.222 -3563080.860441352 -3563080.860441352 -6596820.23038925 0 0 0 0 0 106885889.9959392 -3364474.754826043 -3364474.754826043 -6454363.286736381 0 0 0 0 0 106877833.6656111 -3173705.978909211 -3173705.978909211 -6313284.441830832 0 0 0 0 0 106863853.1468769 -2990603.144035024 -2990603.144035024 -6173767.655021267 0 0 0 0 0 106844863.0355862 -2814742.329153506 -2814742.329153506 -6035301.041598081 0 0 0 0 0 106821243.951517 -2646172.896808011 -2646172.896808011 -5898811.344907556 0 0 0 0 0 106610341.5709065 -2562348.273344517 -2562348.273344517 -5726925.628548814 0 0 0 0 0 106553225.6577667 -2585238.795672181 -2585238.795672181 -5753584.406512513 0 0 0 0 0 106582990.4282608 -2406878.065443424 -2406878.065443424 -5597077.057756832 0 0 0 0 0 106334212.6942968 -2351135.292842906 -2351135.292842906 -5459451.831940262 0 0 0 0 0 106372647.1661707 -2335991.977002856 -2335991.977002856 -5440619.290520134 0 0 0 0 0 106318536.1095824 -2206630.436153539 -2206630.436153539 -5336739.333001211 0 0 0 0 0 106267513.6153066 -2078063.061373836 -2078063.061373836 -5216106.758659909 0 0 0 0 0 106186140.3674061 -1984441.714308169 -1984441.714308169 -5151624.511510361 0 0 0 0 0 93535678.29245415 -20608918.15466027 -20608918.15466027 -12120807.71951599 0 0 0 0 0 12545335.94659953 -715910.8318183747 -715910.8318183747 -12592332.63758153 0 0 0 0 0 13632095.27316666 -3120665.684563567 -3120665.684563567 -11291804.94541742 0 0 0 0 0 18387437.20469833 -6204782.49539751 -6204782.49539751 -9658889.065906342 0 0 0 0 0 20452119.71624233 -8161173.271967319 -8161173.271967319 -8505412.615553768 0 0 0 0 0 19076932.9262791 -9161910.690605253 -9161910.690605253 -8186643.495890321 0 0 0 0 0 21795763.52016188 -11093012.92759457 -11093012.92759457 -8091550.056262364 0 0 0 0 0 24335719.1497019 -13312529.98539175 -13312529.98539175 -7840414.386387861 0 0 0 0 0 27078123.01587851 -15394649.73470565 -15394649.73470565 -7718153.270634623 0 0 0 0 0 30030086.19187511 -17333853.0872016 -17333853.0872016 -7691204.442399858 0 0 0 0 0 33157344.75439991 -19121464.91303278 -19121464.91303278 -7748238.309862655 0 0 0 0 0 36430127.57941505 -20746557.15577 -20746557.15577 -7880527.645078375 0 0 0 0 0 39812365.46215355 -22201460.58483506 -22201460.58483506 -8086022.318035019 0 0 0 0 0 43309014.16478611 -23975308.92744115 -23975308.92744115 -8009735.559570613 0 0 0 0 0 45397402.36550344 -23263460.37355052 -23263460.37355052 -7516790.032276981 0 0 0 0 0 48744197.54329833 -24287605.39059012 -24287605.39059012 -7897148.606825608 0 0 0 0 0 52102754.90796941 -25143771.63259137 -25143771.63259137 -8309790.419994029 0 0 0 0 0 55443332.61452089 -25836242.39621738 -25836242.39621738 -8747443.656530807 0 0 0 0 0 60162898.36409631 -25865933.09940769 -25865933.09940769 -8605886.661349744 0 0 0 0 0 57751502.56237696 -26703441.0543174 -26703441.0543174 -9218765.80305321 0 0 0 0 0 63259032.12412096 -26212842.36396727 -26212842.36396727 -9089158.664163988 0 0 0 0 0 66272608.18552479 -26422510.17904869 -26422510.17904869 -9569732.819823314 0 0 0 0 0 69212546.68425392 -26508640.07650298 -26508640.07650298 -10042711.86363542 0 0 0 0 0 72070322.47921969 -26482509.99868824 -26482509.99868824 -10510766.2454537 0 0 0 0 0 74828977.59665427 -26344395.65049122 -26344395.65049122 -10948414.37923431 0 0 0 0 0 77476354.50719072 -26106897.89078565 -26106897.89078565 -11362288.94970304 0 0 0 0 0 78145165.76994479 -26031027.02718865 -26031027.02718865 -12024079.04608663 0 0 0 0 0 80419368.57422324 -25195321.07859473 -25195321.07859473 -11255651.27891933 0 0 0 0 0 82703046.7420456 -24806766.64271232 -24806766.64271232 -11611370.97816365 0 0 0 0 0 84872376.79685275 -24351454.27303294 -24351454.27303294 -11933572.36734531 0 0 0 0 0 86911878.40478708 -23841926.7954624 -23841926.7954624 -12221248.88242121 0 0 0 0 0 88827682.95821369 -23293566.2236581 -23293566.2236581 -12483537.91370356 0 0 0 0 0 90586369.67199647 -22708336.96137783 -22708336.96137783 -12690696.07729563 0 0 0 0 0 90381240.41095895 -22317756.52161965 -22317756.52161965 -13098902.19230548 0 0 0 0 0 92132281.56743613 -21635170.41164602 -21635170.41164602 -12386439.71598148 0 0 0 0 0 93686341.21782294 -21020131.81695239 -21020131.81695239 -12544153.57040022 0 0 0 0 0 93197860.64393722 -20207794.27769585 -20207794.27769585 -12483282.05633153 0 0 0 0 0 94504943.36527248 -19589375.26845881 -19589375.26845881 -12571605.85015998 0 0 0 0 0 95556813.65466189 -18613773.43219909 -18613773.43219909 -12243071.37659642 0 0 0 0 0 95948778.84222242 -19016214.02357337 -19016214.02357337 -11921457.92122879 0 0 0 0 0 96690488.74026947 -17997659.682575 -17997659.682575 -12290229.11633406 0 0 0 0 0 97749628.55327344 -17376197.30148544 -17376197.30148544 -12311669.14145227 0 0 0 0 0 98734989.58339521 -16753361.17521843 -16753361.17521843 -12311242.09178531 0 0 0 0 0 99651665.48931041 -16143632.27692063 -16143632.27692063 -12291695.67029789 0 0 0 0 0 100217583.8457729 -15298595.41837773 -15298595.41837773 -11894590.93993573 0 0 0 0 0 100762820.2587746 -15688037.73520771 -15688037.73520771 -11740602.33566561 0 0 0 0 0 100990067.5724336 -14712614.21327928 -14712614.21327928 -11844298.74183005 0 0 0 0 0 101707555.4110603 -14130956.44208273 -14130956.44208273 -11772965.40082585 0 0 0 0 0 102366436.642864 -13556437.15408235 -13556437.15408235 -11670114.96351511 0 0 0 0 0 102965205.0038139 -13002621.71549555 -13002621.71549555 -11575873.95882013 0 0 0 0 0 103531543.1945692 -12448293.97266982 -12448293.97266982 -11456198.60534586 0 0 0 0 0 104283003.059376 -12134057.54201606 -12134057.54201606 -11049841.92348839 0 0 0 0 0 104169621.5468995 -11302723.49013019 -11302723.49013019 -10927521.94302615 0 0 0 0 0 104752040.6548477 -11611411.71824011 -11611411.71824011 -10942536.90409078 0 0 0 0 0 104595742.9378872 -10807539.97147584 -10807539.97147584 -10788087.2428156 0 0 0 0 0 104985480.4890649 -10324994.72907578 -10324994.72907578 -10639688.76225927 0 0 0 0 0 105339934.7404925 -9855597.267665353 -9855597.267665353 -10483549.98303017 0 0 0 0 0 105661749.3209687 -9399753.734100087 -9399753.734100087 -10320791.06401841 0 0 0 0 0 105610920.0431696 -8945567.739245716 -8945567.739245716 -9956942.447944572 0 0 0 0 0 106151723.5556295 -9190433.176443247 -9190433.176443247 -10041533.49741474 0 0 0 0 0 105875203.1604016 -8529048.923278784 -8529048.923278784 -9794296.951594045 0 0 0 0 0 106113571.7227798 -8125336.05782742 -8125336.05782742 -9627142.972602652 0 0 0 0 0 106327713.2018257 -7734974.396053407 -7734974.396053407 -9456389.977017377 0 0 0 0 0 106519254.9479861 -7357966.598089725 -7357966.598089725 -9282399.369110227 0 0 0 0 0 106688040.727744 -6994253.497088099 -6994253.497088099 -9106057.908895528 0 0 0 0 0 107123912.4133013 -6519116.252214055 -6519116.252214055 -8759920.580814032 0 0 0 0 0 106836501.8086083 -6643162.76253441 -6643162.76253441 -8928335.615543114 0 0 0 0 0 106662089.6061153 -6348828.414265693 -6348828.414265693 -8622023.407676751 0 0 0 0 0 106788865.9422398 -6032082.174883371 -6032082.174883371 -8454304.191763081 0 0 0 0 0 106897784.683747 -5728723.265873821 -5728723.265873821 -8277095.092238565 0 0 0 0 0 106973033.8562975 -5457079.749239765 -5457079.749239765 -8104953.424498395 0 0 0 0 0 107013001.162928 -5193912.494636647 -5193912.494636647 -7961607.339189366 0 0 0 0 0 107080277.6897258 -4899894.184527352 -4899894.184527352 -7791599.691979204 0 0 0 0 0 107273263.1193487 -4819595.922566607 -4819595.922566607 -7682851.738540363 0 0 0 0 0 106874218.6177602 -4692628.611392436 -4692628.611392436 -7506291.069947383 0 0 0 0 0 106912698.5838742 -4442526.511370835 -4442526.511370835 -7350108.21689076 0 0 0 0 0 106950010.7195864 -4201466.424273607 -4201466.424273607 -7189880.292082154 0 0 0 0 0 106980517.791988 -3967109.201699679 -3967109.201699679 -7026779.843235133 0 0 0 0 0 107103687.4327116 -3915129.349407047 -3915129.349407047 -6958993.570103025 0 0 0 0 0 106765478.1171598 -3819752.650018767 -3819752.650018767 -6807336.540426769 0 0 0 0 0 106781492.4404334 -3608106.184091469 -3608106.184091469 -6656040.822350645 0 0 0 0 0 106790248.1024742 -3404672.767064923 -3404672.767064923 -6506237.645571031 0 0 0 0 0 106792237.3628429 -3209235.391406564 -3209235.391406564 -6357987.217135612 0 0 0 0 0 106787860.3163427 -3021636.428832242 -3021636.428832242 -6211492.502228207 0 0 0 0 0 106777679.0153294 -2841712.695675886 -2841712.695675886 -6066796.45467471 0 0 0 0 0 106762071.3020039 -2669246.359836936 -2669246.359836936 -5923948.407776793 0 0 0 0 0 106741881.8479069 -2504345.622338587 -2504345.622338587 -5783546.37222473 0 0 0 0 0 106533578.7287758 -2426654.156791854 -2426654.156791854 -5620039.536709384 0 0 0 0 0 106795079.8586291 -2484468.293141809 -2484468.293141809 -5764316.568938034 0 0 0 0 0 106509534.7947147 -2273882.951944641 -2273882.951944641 -5484579.021615143 0 0 0 0 0 106574357.5405757 -2250011.356318244 -2250011.356318244 -5458608.758294145 0 0 0 0 0 106329283.6384921 -2197766.95976045 -2197766.95976045 -5315658.551248305 0 0 0 0 0 106331444.3758107 -2052967.5862578 -2052967.5862578 -5181007.893389737 0 0 0 0 0 106306691.0349776 -1922431.188262593 -1922431.188262593 -5047069.979104546 0 0 0 0 0 93346259.51903501 -20611698.25250629 -20611698.25250629 -12921279.52139534 0 0 0 0 0 11169790.26891502 -1532222.196008679 -1532222.196008679 -13945154.75676331 0 0 0 0 0 12890767.43804322 -3768783.47150608 -3768783.47150608 -12559336.62303511 0 0 0 0 0 15167070.43855857 -6077094.725778658 -6077094.725778658 -11750449.8026926 0 0 0 0 0 16711666.63264072 -8421888.782725779 -8421888.782725779 -9585954.562409418 0 0 0 0 0 14305482.57257512 -6170998.171121045 -6170998.171121045 -10864951.91855489 0 0 0 0 0 21557386.64883814 -11303409.55912765 -11303409.55912765 -8674878.618986061 0 0 0 0 0 23573968.61834634 -13666470.88557986 -13666470.88557986 -8384478.801838214 0 0 0 0 0 26097863.47465793 -15804974.99295203 -15804974.99295203 -8243576.68067072 0 0 0 0 0 28772828.4761976 -17815997.03718326 -17815997.03718326 -8195076.207416265 0 0 0 0 0 31645492.84120947 -19672286.37666371 -19672286.37666371 -8241338.181479163 0 0 0 0 0 34684389.93574695 -21363110.26856472 -21363110.26856472 -8375771.024541099 0 0 0 0 0 37856665.69053281 -22879242.19582397 -22879242.19582397 -8590525.709115608 0 0 0 0 0 41132715.77149361 -24215899.46298753 -24215899.46298753 -8875888.035883453 0 0 0 0 0 43272418.1325681 -23482177.06641586 -23482177.06641586 -8353935.250782949 0 0 0 0 0 46516137.33339291 -25049116.12113924 -25049116.12113924 -8420839.066442441 0 0 0 0 0 49752249.21215834 -25947451.13344339 -25947451.13344339 -8867092.33520858 0 0 0 0 0 52998956.79591763 -26674915.85704635 -26674915.85704635 -9340503.296877254 0 0 0 0 0 56240620.65889142 -27239092.22809268 -27239092.22809268 -9832635.79562741 0 0 0 0 0 60792900.40208606 -27069658.46719438 -27069658.46719438 -9740542.733668294 0 0 0 0 0 58752425.79243124 -26371720.16673479 -26371720.16673479 -9204337.46426804 0 0 0 0 0 63786915.65107262 -27294940.04909037 -27294940.04909037 -10250892.27103406 0 0 0 0 0 66720518.81104987 -27390436.13411433 -27390436.13411433 -10752965.00377487 0 0 0 0 0 69598031.38754931 -27367623.46847026 -27367623.46847026 -11240047.97834644 0 0 0 0 0 72375110.500718 -27228227.03243074 -27228227.03243074 -11699745.9564006 0 0 0 0 0 75054558.37790644 -26984329.36550983 -26984329.36550983 -12132425.19571337 0 0 0 0 0 77629610.30003938 -26650850.14265976 -26650850.14265976 -12533263.64045189 0 0 0 0 0 80005257.67619175 -25782527.14910286 -25782527.14910286 -11748269.7218842 0 0 0 0 0 80485125.42512284 -25628846.41505653 -25628846.41505653 -12387338.9374983 0 0 0 0 0 82715774.09874755 -25159365.63120434 -25159365.63120434 -12712386.69139883 0 0 0 0 0 84842387.00247051 -24628514.98771675 -24628514.98771675 -12991550.50127157 0 0 0 0 0 86845060.36152083 -24059518.4948125 -24059518.4948125 -13246911.85612647 0 0 0 0 0 88705885.83333385 -23446937.59189343 -23446937.59189343 -13435515.82596689 0 0 0 0 0 90427117.72629561 -22786777.99642443 -22786777.99642443 -13561963.02391377 0 0 0 0 0 92237848.83457775 -22090435.20644344 -22090435.20644344 -12846258.74695879 0 0 0 0 0 91970866.31315067 -21686807.59427091 -21686807.59427091 -13264873.48120569 0 0 0 0 0 93493393.31421594 -21016124.15081063 -21016124.15081063 -13375742.2622642 0 0 0 0 0 94895866.96037446 -19996668.51168362 -19996668.51168362 -12243806.72014493 0 0 0 0 0 96171684.53899528 -19372829.08956161 -19372829.08956161 -12336443.47521968 0 0 0 0 0 97128792.53040075 -18405575.43768072 -18405575.43768072 -12007421.55386479 0 0 0 0 0 95741948.33077231 -18959732.62691033 -18959732.62691033 -12644286.50731428 0 0 0 0 0 98229703.32197079 -17785858.30996614 -17785858.30996614 -12065426.9146293 0 0 0 0 0 99256895.81503354 -17161059.2455963 -17161059.2455963 -12097615.42006017 0 0 0 0 0 100217714.005459 -16534616.26300056 -16534616.26300056 -12105346.97721048 0 0 0 0 0 101092310.0577509 -15915546.62446133 -15915546.62446133 -12091143.5854377 0 0 0 0 0 101568262.947807 -15092124.70427914 -15092124.70427914 -11725454.80340037 0 0 0 0 0 100514715.4782339 -15515341.49223047 -15515341.49223047 -12251175.59366801 0 0 0 0 0 102298284.0602237 -14498703.07733951 -14498703.07733951 -11679250.06771742 0 0 0 0 0 102969832.2216965 -13910932.40439453 -13910932.40439453 -11611657.60132548 0 0 0 0 0 103577320.2674123 -13348550.75551227 -13348550.75551227 -11543717.74566334 0 0 0 0 0 104142218.9640289 -12784784.25415905 -12784784.25415905 -11438502.29017887 0 0 0 0 0 104658728.7523688 -12232519.81145613 -12232519.81145613 -11329244.91233473 0 0 0 0 0 104050155.1630827 -11906137.84305192 -11906137.84305192 -11324629.24762497 0 0 0 0 0 105176869.591206 -11103488.13595137 -11103488.13595137 -10822436.60345295 0 0 0 0 0 104525151.6188064 -11378629.47827557 -11378629.47827557 -11180522.0509198 0 0 0 0 0 105564034.7546555 -10609277.14586791 -10609277.14586791 -10691559.81911998 0 0 0 0 0 105914238.1629995 -10128026.73148657 -10128026.73148657 -10551681.86065583 0 0 0 0 0 106230168.1784521 -9660348.749687368 -9660348.749687368 -10403605.11510901 0 0 0 0 0 106514140.1488301 -9206584.773106718 -9206584.773106718 -10248664.24930348 0 0 0 0 0 106408991.2470793 -8762671.071791524 -8762671.071791524 -9891164.211351404 0 0 0 0 0 105953088.941643 -8957822.016735207 -8957822.016735207 -10152338.86665275 0 0 0 0 0 106639182.3754276 -8348042.511956582 -8348042.511956582 -9734807.369726397 0 0 0 0 0 106844264.3922642 -7946458.561602414 -7946458.561602414 -9574043.965390563 0 0 0 0 0 107025343.7737427 -7558503.757360038 -7558503.757360038 -9409628.443142796 0 0 0 0 0 107184044.9332479 -7184374.333245573 -7184374.333245573 -9242477.083445553 0 0 0 0 0 107321781.2869258 -6823605.279616806 -6823605.279616806 -9072123.640278211 0 0 0 0 0 106966214.8832687 -6304317.254062149 -6304317.254062149 -8749950.098598063 0 0 0 0 0 107441550.3951216 -6475224.975711346 -6475224.975711346 -8899189.344068663 0 0 0 0 0 107233874.209498 -6189002.191838172 -6189002.191838172 -8593941.114791295 0 0 0 0 0 107326190.1383808 -5872323.711513551 -5872323.711513551 -8426821.94773726 0 0 0 0 0 107383619.6643023 -5583225.835099892 -5583225.835099892 -8279431.192155256 0 0 0 0 0 107420404.5914661 -5312823.851895329 -5312823.851895329 -8132695.12519419 0 0 0 0 0 107471146.6194592 -5033593.302078852 -5033593.302078852 -7946326.720381632 0 0 0 0 0 107541692.9321964 -4746766.331027884 -4746766.331027884 -7771205.388421826 0 0 0 0 0 107151049.7292861 -4617087.961068798 -4617087.961068798 -7592321.355498441 0 0 0 0 0 107294447.8139903 -4561809.135960649 -4561809.135960649 -7523031.778917941 0 0 0 0 0 107315758.4610322 -4308435.506140972 -4308435.506140972 -7350300.035211388 0 0 0 0 0 107332333.5754184 -4065178.417751504 -4065178.417751504 -7187022.324213163 0 0 0 0 0 107342033.9989465 -3839046.007064788 -3839046.007064788 -7032175.113419011 0 0 0 0 0 106996950.6897548 -3744746.853051747 -3744746.853051747 -6870416.82998128 0 0 0 0 0 107109312.9893517 -3697279.221981999 -3697279.221981999 -6808511.363910031 0 0 0 0 0 107108642.889114 -3488343.42170117 -3488343.42170117 -6659319.411611749 0 0 0 0 0 107101295.8609895 -3287608.243831793 -3287608.243831793 -6511497.046128877 0 0 0 0 0 107087653.053343 -3094903.0563037 -3094903.0563037 -6365231.104782217 0 0 0 0 0 107068252.2012697 -2909982.249796366 -2909982.249796366 -6220568.731833614 0 0 0 0 0 107043500.2111356 -2732643.081671087 -2732643.081671087 -6077656.106174488 0 0 0 0 0 107013684.9515493 -2562880.631121362 -2562880.631121362 -5936560.463822264 0 0 0 0 0 106979694.665352 -2400720.413664789 -2400720.413664789 -5797316.796311946 0 0 0 0 0 106762542.2354786 -2328141.981778773 -2328141.981778773 -5632288.337925393 0 0 0 0 0 106717388.1676055 -2345011.252549482 -2345011.252549482 -5648691.011698657 0 0 0 0 0 106725857.7081241 -2170331.984472273 -2170331.984472273 -5492800.755021837 0 0 0 0 0 106486429.7667588 -2107289.124423529 -2107289.124423529 -5358478.202280913 0 0 0 0 0 106514947.8307136 -2092652.483237636 -2092652.483237636 -5333086.055950081 0 0 0 0 0 106432671.3793484 -1950166.995961665 -1950166.995961665 -5221662.119945927 0 0 0 0 0 106349533.2695036 -1860735.170691184 -1860735.170691184 -5137061.331755843 0 0 0 0 0 95116145.00918943 -20381011.35989741 -20381011.35989741 -12676090.99620966 0 0 0 0 0 10149375.41662953 -645613.9171149976 -645613.9171149976 -15457288.88730232 0 0 0 0 0 11037435.87634953 -2820799.288701154 -2820799.288701154 -13953422.25702757 0 0 0 0 0 12101769.04356846 -5214426.732570711 -5214426.732570711 -13096841.52035395 0 0 0 0 0 17203734.98397632 -8024339.706402206 -8024339.706402206 -10368295.28169203 0 0 0 0 0 16716765.05170642 -8447650.174861496 -8447650.174861496 -11196525.71344596 0 0 0 0 0 18968196.76747746 -10526527.95365689 -10526527.95365689 -9827026.607703421 0 0 0 0 0 21531305.70874327 -12904270.40260366 -12904270.40260366 -9396264.112264844 0 0 0 0 0 24300911.97677162 -15047020.00183176 -15047020.00183176 -9188661.19307165 0 0 0 0 0 27319039.72253796 -17087354.5132526 -17087354.5132526 -9038130.874140592 0 0 0 0 0 30538634.10116839 -18976745.03060703 -18976745.03060703 -8979006.396440309 0 0 0 0 0 33921938.03152385 -20703424.50775542 -20703424.50775542 -9006841.322029702 0 0 0 0 0 37432319.27649277 -22257187.24823805 -22257187.24823805 -9115087.256576167 0 0 0 0 0 41034155.85907181 -23631101.97940089 -23631101.97940089 -9297408.032462379 0 0 0 0 0 44478304.97816908 -25370622.26951149 -25370622.26951149 -9221291.389887676 0 0 0 0 0 46774365.7010424 -24585446.95053609 -24585446.95053609 -8672501.45368037 0 0 0 0 0 50288872.45094091 -25511878.28517235 -25511878.28517235 -9036888.617546417 0 0 0 0 0 53792784.68040272 -26264101.18478396 -26264101.18478396 -9432363.296511613 0 0 0 0 0 57260002.86742448 -26849976.79957924 -26849976.79957924 -9853066.365118358 0 0 0 0 0 61999337.95318197 -26754617.2097504 -26754617.2097504 -9670463.700989494 0 0 0 0 0 59437836.50895567 -27646422.4650788 -27646422.4650788 -10333747.4998646 0 0 0 0 0 65168853.43366588 -26991844.83309099 -26991844.83309099 -10131768.8845023 0 0 0 0 0 68253193.53417759 -27095505.72040659 -27095505.72040659 -10588084.97410607 0 0 0 0 0 71239743.34257077 -27078996.87070625 -27078996.87070625 -11038128.13270338 0 0 0 0 0 74122189.40213677 -26946046.02829852 -26946046.02829852 -11470885.71567681 0 0 0 0 0 76896337.13999628 -26704548.31894787 -26704548.31894787 -11876479.848299 0 0 0 0 0 79558181.2698738 -26372173.00927119 -26372173.00927119 -12257533.28107597 0 0 0 0 0 80080407.88189594 -26232769.71467889 -26232769.71467889 -12894153.02232738 0 0 0 0 0 82396922.5677661 -25378523.24065932 -25378523.24065932 -12100437.68511579 0 0 0 0 0 84660576.06268162 -24908104.36184273 -24908104.36184273 -12419761.97451653 0 0 0 0 0 86772937.38606744 -24376065.73304977 -24376065.73304977 -12701202.50805271 0 0 0 0 0 88778544.80143097 -23799278.80706732 -23799278.80706732 -12952222.2111653 0 0 0 0 0 90670866.79436447 -23178838.5682878 -23178838.5682878 -13151978.77842075 0 0 0 0 0 92387996.44165751 -22555214.46075151 -22555214.46075151 -13359855.46523796 0 0 0 0 0 92062790.8695273 -22122531.998942 -22122531.998942 -13721929.60357881 0 0 0 0 0 93835924.2342104 -21437288.47246084 -21437288.47246084 -12988083.92385302 0 0 0 0 0 95338355.78151634 -20761816.29846388 -20761816.29846388 -13103917.35592513 0 0 0 0 0 94691909.91465703 -19959159.86524877 -19959159.86524877 -12994142.27602055 0 0 0 0 0 95953149.79238342 -19300521.7488076 -19300521.7488076 -13047812.64697959 0 0 0 0 0 96908326.30992587 -18315598.22571014 -18315598.22571014 -12682706.27010169 0 0 0 0 0 97373796.43452233 -18735421.64665543 -18735421.64665543 -12402247.9524031 0 0 0 0 0 97998909.22325115 -17667883.89857308 -17667883.89857308 -12694838.96756141 0 0 0 0 0 99016794.00206842 -17017237.54751579 -17017237.54751579 -12683237.28995432 0 0 0 0 0 99967057.59781785 -16361605.33139596 -16361605.33139596 -12649050.46544667 0 0 0 0 0 100843519.4393878 -15715964.45848696 -15715964.45848696 -12590756.27434034 0 0 0 0 0 101320480.1190934 -14895044.77395635 -14895044.77395635 -12174728.54258206 0 0 0 0 0 101907235.5590802 -15290144.90127518 -15290144.90127518 -12056935.11069665 0 0 0 0 0 102053434.3654379 -14287693.81684798 -14287693.81684798 -12088334.13662034 0 0 0 0 0 102730519.975147 -13696669.78215034 -13696669.78215034 -11984571.35707664 0 0 0 0 0 103342125.3736714 -13114849.44741612 -13114849.44741612 -11864472.31565141 0 0 0 0 0 103908418.1970261 -12544065.26095478 -12544065.26095478 -11732756.88511309 0 0 0 0 0 104427127.9561427 -11987860.45032061 -11987860.45032061 -11587515.43336271 0 0 0 0 0 105131520.9845242 -11693616.25812867 -11693616.25812867 -11206791.93317866 0 0 0 0 0 104954130.6551847 -10867445.77672379 -10867445.77672379 -11029380.92612888 0 0 0 0 0 105559485.2559872 -11169390.74719254 -11169390.74719254 -11076182.03785227 0 0 0 0 0 105345188.6249233 -10369455.90704942 -10369455.90704942 -10868988.2379041 0 0 0 0 0 105699910.5497854 -9885758.458181879 -9885758.458181879 -10700995.77999845 0 0 0 0 0 106020743.2001333 -9416643.248535976 -9416643.248535976 -10526596.20961202 0 0 0 0 0 106309918.4311391 -8962200.993799116 -8962200.993799116 -10346622.53667258 0 0 0 0 0 106215600.7424466 -8529760.964321572 -8529760.964321572 -9978722.510382108 0 0 0 0 0 106768499.1526799 -8766680.129968027 -8766680.129968027 -10087291.71820216 0 0 0 0 0 106450830.25088 -8115370.686003421 -8115370.686003421 -9801065.818006014 0 0 0 0 0 106661332.4547026 -7714880.013538184 -7714880.013538184 -9620014.182272628 0 0 0 0 0 106848500.6357456 -7328512.643294799 -7328512.643294799 -9436180.145385515 0 0 0 0 0 107013164.0294774 -6956074.395413866 -6956074.395413866 -9249939.357509393 0 0 0 0 0 107156453.382587 -6597319.695340883 -6597319.695340883 -9062504.459074108 0 0 0 0 0 107544723.6286342 -6138885.751333073 -6138885.751333073 -8724073.266811781 0 0 0 0 0 107281016.9156176 -6251817.490442921 -6251817.490442921 -8875150.699484808 0 0 0 0 0 107081973.0937601 -5977712.037778504 -5977712.037778504 -8569818.892029146 0 0 0 0 0 107187811.8669836 -5667551.284593071 -5667551.284593071 -8393069.48231489 0 0 0 0 0 107277215.7175477 -5371082.981194783 -5371082.981194783 -8204965.160775031 0 0 0 0 0 107353983.4043121 -5084926.672043207 -5084926.672043207 -8026384.831065132 0 0 0 0 0 107404436.8739313 -4802480.60583694 -4802480.60583694 -7850353.219391192 0 0 0 0 0 107420757.5961321 -4531730.007992131 -4531730.007992131 -7676867.883701981 0 0 0 0 0 107560990.5234173 -4479346.414591495 -4479346.414591495 -7610522.213336035 0 0 0 0 0 107182806.860269 -4362501.083788634 -4362501.083788634 -7419332.384224629 0 0 0 0 0 107202438.0981424 -4122179.349054821 -4122179.349054821 -7264975.975402063 0 0 0 0 0 107229405.2076348 -3884819.636506941 -3884819.636506941 -7086445.904407603 0 0 0 0 0 107239587.4362339 -3660480.814166845 -3660480.814166845 -6924897.518033758 0 0 0 0 0 107341211.8248613 -3618786.260676137 -3618786.260676137 -6873720.553852854 0 0 0 0 0 107007013.3824077 -3530780.349878485 -3530780.349878485 -6713365.198046477 0 0 0 0 0 107010178.8284861 -3325176.836599505 -3325176.836599505 -6558102.642844599 0 0 0 0 0 107006578.4436802 -3127811.447830254 -3127811.447830254 -6404690.292935772 0 0 0 0 0 106996667.6286519 -2938474.969425736 -2938474.969425736 -6253229.012551498 0 0 0 0 0 106980926.1658169 -2756934.49256975 -2756934.49256975 -6103821.218389717 0 0 0 0 0 106959899.376365 -2583055.128750425 -2583055.128750425 -5956313.455779425 0 0 0 0 0 106933738.5708156 -2417049.699553302 -2417049.699553302 -5810617.256505928 0 0 0 0 0 106903995.8916983 -2259423.201313413 -2259423.201313413 -5665962.591820151 0 0 0 0 0 106684956.4259884 -2188111.577298251 -2188111.577298251 -5517550.756166669 0 0 0 0 0 106946613.2709359 -2246139.854161663 -2246139.854161663 -5660814.594797806 0 0 0 0 0 106628547.3945785 -2036246.757561226 -2036246.757561226 -5385877.402847199 0 0 0 0 0 106757386.7831285 -1970990.482326513 -1970990.482326513 -5283406.606540451 0 0 0 0 0 106519048.6557644 -1913730.127836478 -1913730.127836478 -5164666.170180949 0 0 0 0 0 106497255.8781391 -1787250.699400787 -1787250.699400787 -5017149.369044685 0 0 0 0 0 94897993.35649836 -20325745.68016492 -20325745.68016492 -13432391.31601423 0 0 0 0 0 8462519.198050989 -1668998.809550067 -1668998.809550067 -17125782.33074609 0 0 0 0 0 9933047.643841289 -3556865.81017262 -3556865.81017262 -15409656.31872161 0 0 0 0 0 11985241.80538148 -5590759.725616087 -5590759.725616087 -14274786.63505946 0 0 0 0 0 14098557.59727759 -7859889.002360932 -7859889.002360932 -13470181.90186032 0 0 0 0 0 18290744.48984339 -10907071.51283228 -10907071.51283228 -10534557.82517171 0 0 0 0 0 13858912.26333276 -7641387.038701116 -7641387.038701116 -12436371.68320956 0 0 0 0 0 20947470.7987868 -13257643.39693906 -13257643.39693906 -10132830.2411868 0 0 0 0 0 23347338.43542151 -15480480.38843366 -15480480.38843366 -9832501.416956186 0 0 0 0 0 26088325.83641546 -17588234.36515228 -17588234.36515228 -9642011.772888411 0 0 0 0 0 29034142.65756274 -19546503.5890636 -19546503.5890636 -9553051.512614267 0 0 0 0 0 32164304.73614665 -21339470.88884506 -21339470.88884506 -9564122.011839539 0 0 0 0 0 35447663.38961926 -22955722.35625023 -22955722.35625023 -9667948.386524424 0 0 0 0 0 38848791.93263125 -24387111.473306 -24387111.473306 -9855270.974644424 0 0 0 0 0 42335266.392646 -25629569.35756627 -25629569.35756627 -10116060.30345366 0 0 0 0 0 44693073.31565781 -24821076.04459927 -24821076.04459927 -9543034.688160874 0 0 0 0 0 47858570.49156474 -26342166.02863213 -26342166.02863213 -9616080.559728516 0 0 0 0 0 51255697.84919042 -27132560.65011403 -27132560.65011403 -10043045.86812269 0 0 0 0 0 54645158.2416814 -27748022.16811398 -27748022.16811398 -10496019.61649498 0 0 0 0 0 58007115.34528925 -28197148.58732461 -28197148.58732461 -10966947.68135665 0 0 0 0 0 62578613.14515977 -27900032.45838116 -27900032.45838116 -10827244.52740559 0 0 0 0 0 60678143.45651913 -27275386.36308638 -27275386.36308638 -10288549.61646162 0 0 0 0 0 65650639.32263196 -28012801.72179439 -28012801.72179439 -11314241.52704564 0 0 0 0 0 68650768.67302588 -27997841.94986374 -27997841.94986374 -11786865.60088109 0 0 0 0 0 71561256.01048663 -27863379.03696705 -27863379.03696705 -12237929.45464859 0 0 0 0 0 74371370.49345841 -27617408.93492972 -27617408.93492972 -12658870.14429842 0 0 0 0 0 77077571.7548102 -27271033.12942608 -27271033.12942608 -13053970.10337669 0 0 0 0 0 79657280.94244578 -26841366.57722418 -26841366.57722418 -13414383.70340198 0 0 0 0 0 82079432.80385518 -25953670.65317123 -25953670.65317123 -12605611.03926916 0 0 0 0 0 82415405.58788048 -25742306.67939786 -25742306.67939786 -13212690.64006469 0 0 0 0 0 84624689.9819023 -25188007.91681516 -25188007.91681516 -13481287.05824903 0 0 0 0 0 86714735.10954784 -24596561.19905457 -24596561.19905457 -13727569.55802564 0 0 0 0 0 88675864.56896496 -23947349.92522384 -23947349.92522384 -13926568.2274527 0 0 0 0 0 90521146.98978546 -23263406.99232301 -23263406.99232301 -14080541.6161379 0 0 0 0 0 92186176.34363841 -22551010.16148763 -22551010.16148763 -14170323.63228754 0 0 0 0 0 94002158.44256565 -21853195.76762448 -21853195.76762448 -13440150.04046407 0 0 0 0 0 93635355.51569059 -21424208.01468834 -21424208.01468834 -13824161.47840602 0 0 0 0 0 95114201.54460932 -20700626.70246536 -20700626.70246536 -13887229.55715899 0 0 0 0 0 96429715.68609995 -19730172.6051258 -19730172.6051258 -12765311.11944378 0 0 0 0 0 97652236.2061206 -19063867.72411393 -19063867.72411393 -12822923.70155819 0 0 0 0 0 98506853.97563645 -18090067.53723022 -18090067.53723022 -12454007.81343683 0 0 0 0 0 97143832.19512168 -18634750.15340835 -18634750.15340835 -13083854.02866261 0 0 0 0 0 99556921.37386233 -17439907.51950507 -17439907.51950507 -12477403.85610425 0 0 0 0 0 100533928.9540518 -16786054.73555795 -16786054.73555795 -12473252.97157224 0 0 0 0 0 101456202.0460897 -16123003.28572268 -16123003.28572268 -12442099.36724291 0 0 0 0 0 102295166.6134352 -15473504.14105348 -15473504.14105348 -12401524.56519293 0 0 0 0 0 102667925.7712715 -14672298.82593851 -14672298.82593851 -12002904.56103612 0 0 0 0 0 101650738.1764589 -15082830.77987703 -15082830.77987703 -12515190.66562857 0 0 0 0 0 103352025.4242938 -14061071.45996764 -14061071.45996764 -11926497.6831943 0 0 0 0 0 103973107.8752984 -13474010.98484231 -13474010.98484231 -11842289.15235373 0 0 0 0 0 104547882.5356829 -12887805.9015895 -12887805.9015895 -11729326.3503734 0 0 0 0 0 105069377.1550258 -12318132.48248539 -12318132.48248539 -11608892.89494505 0 0 0 0 0 105538232.9333668 -11765822.58735416 -11765822.58735416 -11478436.48197297 0 0 0 0 0 104898709.4406318 -11447213.48894982 -11447213.48894982 -11434855.44904661 0 0 0 0 0 105947753.6326323 -10659461.17864962 -10659461.17864962 -10933335.45690382 0 0 0 0 0 105329951.8767202 -10919902.48912487 -10919902.48912487 -11271383.89853133 0 0 0 0 0 106297171.54725 -10163215.15027215 -10163215.15027215 -10781694.46444101 0 0 0 0 0 106611039.6186189 -9681586.156458467 -9681586.156458467 -10622125.128004 0 0 0 0 0 106892107.7745963 -9214789.814576799 -9214789.814576799 -10455616.71991172 0 0 0 0 0 107142540.6024255 -8762821.44397787 -8762821.44397787 -10283095.48568681 0 0 0 0 0 106994935.1765869 -8340896.746322963 -8340896.746322963 -9920713.47700247 0 0 0 0 0 106569558.3387619 -8522457.044895783 -8522457.044895783 -10162015.0953028 0 0 0 0 0 107195430.5775763 -7929129.213912358 -7929129.213912358 -9749551.957640441 0 0 0 0 0 107371745.5823999 -7531425.354602952 -7531425.354602952 -9574829.12561636 0 0 0 0 0 107524925.853314 -7148008.338450452 -7148008.338450452 -9397317.887190754 0 0 0 0 0 107657067.27347 -6779028.82697532 -6779028.82697532 -9217696.549793562 0 0 0 0 0 107769542.7561191 -6423652.644461108 -6423652.644461108 -9036034.722416496 0 0 0 0 0 107389224.569845 -5918672.598309696 -5918672.598309696 -8686521.908073347 0 0 0 0 0 107865627.2135459 -6080767.723056284 -6080767.723056284 -8851849.047276363 0 0 0 0 0 107631587.3605667 -5815185.793527189 -5815185.793527189 -8548862.670811832 0 0 0 0 0 107700564.5414798 -5505790.853225661 -5505790.853225661 -8372512.213583364 0 0 0 0 0 107745293.176159 -5214943.437208797 -5214943.437208797 -8208093.053504976 0 0 0 0 0 107795899.4798227 -4925077.388206308 -4925077.388206308 -8034371.042009348 0 0 0 0 0 107820229.7085311 -4652974.608339811 -4652974.608339811 -7857358.521034028 0 0 0 0 0 107850241.5346169 -4384397.621746746 -4384397.621746746 -7675160.095588188 0 0 0 0 0 107463637.5988795 -4269176.843805647 -4269176.843805647 -7486448.511400733 0 0 0 0 0 107574035.1953589 -4227241.942540352 -4227241.942540352 -7438485.915381338 0 0 0 0 0 107593699.2191058 -3979518.035356081 -3979518.035356081 -7257054.921820624 0 0 0 0 0 107585431.7523879 -3748241.69771861 -3748241.69771861 -7102406.335081751 0 0 0 0 0 107577996.0806107 -3533343.530549163 -3533343.530549163 -6940255.603116862 0 0 0 0 0 107237948.5656918 -3447524.737037414 -3447524.737037414 -6767047.669289564 0 0 0 0 0 107334802.2700975 -3407880.240927637 -3407880.240927637 -6718626.073489211 0 0 0 0 0 107321476.2333739 -3205175.722506958 -3205175.722506958 -6565313.802702001 0 0 0 0 0 107301976.539683 -3010701.388124371 -3010701.388124371 -6413754.462253967 0 0 0 0 0 107276750.6111173 -2824212.018621364 -2824212.018621364 -6264046.424663596 0 0 0 0 0 107246347.0513384 -2645451.586365617 -2645451.586365617 -6116258.662845166 0 0 0 0 0 107210900.0445099 -2474368.065936494 -2474368.065936494 -5970663.580849975 0 0 0 0 0 107170488.4155129 -2310601.912156846 -2310601.912156846 -5826783.913942352 0 0 0 0 0 107125734.0332566 -2154543.87034692 -2154543.87034692 -5684370.887374482 0 0 0 0 0 106905529.2588288 -2093847.268672952 -2093847.268672952 -5527411.825068231 0 0 0 0 0 106869601.1525306 -2104573.82639582 -2104573.82639582 -5530644.049562808 0 0 0 0 0 106833259.9177959 -1950829.929059833 -1950829.929059833 -5399135.544579999 0 0 0 0 0 106616988.8967015 -1904614.890029429 -1904614.890029429 -5345641.284623493 0 0 0 0 0 106603430.3139105 -1820121.92076736 -1820121.92076736 -5231053.387336968 0 0 0 0 0 106512470.1427482 -1727801.768366135 -1727801.768366135 -5116867.778630726 0 0 0 0 0 96705556.86522025 -20078060.57637155 -20078060.57637155 -13201595.31619296 0 0 0 0 0 7327809.965478568 -590071.0909283204 -590071.0909283204 -18923214.76099329 0 0 0 0 0 8577001.811062839 -2625892.403590132 -2625892.403590132 -16944613.77005766 0 0 0 0 0 9706698.608536353 -4537453.97710289 -4537453.97710289 -15814955.63100786 0 0 0 0 0 11190947.84275134 -6839978.580209613 -6839978.580209613 -14875522.86534557 0 0 0 0 0 16105000.23824656 -10006871.79347296 -10006871.79347296 -11738126.40220975 0 0 0 0 0 16033019.68451292 -10320392.43229557 -10320392.43229557 -12758686.15821761 0 0 0 0 0 18637393.3506107 -12329977.62557374 -12329977.62557374 -11331683.81247024 0 0 0 0 0 21444914.63804103 -14600783.3459892 -14600783.3459892 -10885692.00474249 0 0 0 0 0 24513662.75343975 -16730525.41156586 -16730525.41156586 -10601737.32188653 0 0 0 0 0 27811427.71066875 -18723631.52594564 -18723631.52594564 -10405115.02519645 0 0 0 0 0 31299884.2103028 -20556750.88402845 -20556750.88402845 -10303097.44425638 0 0 0 0 0 34936460.09057476 -22216502.49211257 -22216502.49211257 -10293092.76658192 0 0 0 0 0 38679530.28905248 -23692420.50369684 -23692420.50369684 -10368376.66963505 0 0 0 0 0 42494945.73070535 -24978571.66655943 -24978571.66655943 -10520804.02990213 0 0 0 0 0 45871669.36823504 -26681453.45683283 -26681453.45683283 -10438322.26734331 0 0 0 0 0 48374781.73200487 -25826368.31361471 -25826368.31361471 -9841868.25001055 0 0 0 0 0 52044040.68541385 -26648355.40284504 -26648355.40284504 -10185807.36074612 0 0 0 0 0 55681483.40030218 -27291868.8932888 -27291868.8932888 -10560542.42604133 0 0 0 0 0 59267406.67527574 -27765448.93987974 -27765448.93987974 -10959394.35695612 0 0 0 0 0 64010480.49570628 -27546275.59957476 -27546275.59957476 -10732105.07918194 0 0 0 0 0 61305381.37212113 -28486879.51560218 -28486879.51560218 -11442722.40887311 0 0 0 0 0 67251539.48998757 -27672391.39877486 -27672391.39877486 -11167462.73464535 0 0 0 0 0 70384819.38814636 -27666992.1137037 -27666992.1137037 -11597294.17226006 0 0 0 0 0 73402577.76857635 -27541043.29083299 -27541043.29083299 -12014539.50745576 0 0 0 0 0 76297220.19574225 -27303290.65889069 -27303290.65889069 -12410291.82840388 0 0 0 0 0 79070314.38972245 -26959968.24362352 -26959968.24362352 -12778233.03183285 0 0 0 0 0 81729792.80657516 -26530723.27318147 -26530723.27318147 -13123789.87582163 0 0 0 0 0 82103856.66656768 -26327481.90549465 -26327481.90549465 -13725318.23485309 0 0 0 0 0 84444883.32255967 -25462499.01992374 -25462499.01992374 -12917487.30588068 0 0 0 0 0 86656533.16509746 -24911345.09973572 -24911345.09973572 -13196945.09281795 0 0 0 0 0 88744782.40002684 -24308861.75690613 -24308861.75690613 -13426509.8718492 0 0 0 0 0 90715682.62769395 -23662934.64088403 -23662934.64088403 -13633250.81809548 0 0 0 0 0 92545756.32364844 -22988068.78269989 -22988068.78269989 -13810486.96595929 0 0 0 0 0 94252321.91993782 -22273649.28271426 -22273649.28271426 -13930597.98145835 0 0 0 0 0 93794757.76451176 -21835037.19447631 -21835037.19447631 -14287201.46541123 0 0 0 0 0 95570156.91780266 -21152492.14546848 -21152492.14546848 -13547598.05925588 0 0 0 0 0 96989227.16584767 -20427295.27385188 -20427295.27385188 -13620779.81902694 0 0 0 0 0 96198067.7359986 -19637315.95293253 -19637315.95293253 -13471949.49520067 0 0 0 0 0 97412858.79092626 -18944132.3179308 -18944132.3179308 -13483752.2344952 0 0 0 0 0 98265800.66467412 -17958247.31753002 -17958247.31753002 -13083195.00170711 0 0 0 0 0 98804292.77073611 -18390831.98388564 -18390831.98388564 -12849182.99714526 0 0 0 0 0 99306798.00918093 -17280873.8280094 -17280873.8280094 -13057287.16528213 0 0 0 0 0 100272170.717197 -16602064.04806381 -16602064.04806381 -13013791.89218174 0 0 0 0 0 101190883.3869935 -15929933.4085049 -15929933.4085049 -12946339.95051679 0 0 0 0 0 102035569.643035 -15257643.92736202 -15257643.92736202 -12848640.01583385 0 0 0 0 0 102411745.6760456 -14447980.13384503 -14447980.13384503 -12408155.50943397 0 0 0 0 0 103058282.7836919 -14841116.11180736 -14841116.11180736 -12333189.16597306 0 0 0 0 0 103100700.4794367 -13833755.35427909 -13833755.35427909 -12292887.38790854 0 0 0 0 0 103721811.9172903 -13228755.15667773 -13228755.15667773 -12160569.83787271 0 0 0 0 0 104298082.0357363 -12639805.38581653 -12639805.38581653 -12016208.25087838 0 0 0 0 0 104823889.6611674 -12064888.01124768 -12064888.01124768 -11858263.01503558 0 0 0 0 0 105299069.9831778 -11505983.63347626 -11505983.63347626 -11687997.82229794 0 0 0 0 0 105962955.5551667 -11227453.69990866 -11227453.69990866 -11332418.16387506 0 0 0 0 0 105721738.6056764 -10406289.29742878 -10406289.29742878 -11098445.30367263 0 0 0 0 0 106349233.4337198 -10701544.70976886 -10701544.70976886 -11176706.03084995 0 0 0 0 0 106076104.9127203 -9907922.916836029 -9907922.916836029 -10918012.99461318 0 0 0 0 0 106395329.9152177 -9425268.524662498 -9425268.524662498 -10731443.25967202 0 0 0 0 0 106681943.8341009 -8958145.85375241 -8958145.85375241 -10539495.71274992 0 0 0 0 0 106938069.028074 -8506688.784681309 -8506688.784681309 -10343189.52510281 0 0 0 0 0 106801581.452715 -8097309.261402137 -8097309.261402137 -9973307.989267724 0 0 0 0 0 107364564.3680143 -8325726.395357203 -8325726.395357203 -10105407.17896681 0 0 0 0 0 107007671.4006964 -7686889.06379281 -7686889.06379281 -9781620.995549126 0 0 0 0 0 107189865.3705647 -7291108.114942891 -7291108.114942891 -9587455.679295216 0 0 0 0 0 107349698.2462658 -6909922.171610572 -6909922.171610572 -9390960.995679125 0 0 0 0 0 107487897.1322838 -6543394.904552934 -6543394.904552934 -9193998.598759783 0 0 0 0 0 107606624.7621738 -6190651.083861275 -6190651.083861275 -8996227.400287738 0 0 0 0 0 107945434.3714237 -5750997.955579684 -5750997.955579684 -8667489.487136841 0 0 0 0 0 107707394.8604843 -5851710.738430438 -5851710.738430438 -8799124.928229889 0 0 0 0 0 107482388.9764751 -5599109.358537422 -5599109.358537422 -8497042.911851635 0 0 0 0 0 107562067.1244093 -5290386.324375555 -5290386.324375555 -8308176.091773842 0 0 0 0 0 107627928.0761748 -4991449.350607273 -4991449.350607273 -8120820.309669141 0 0 0 0 0 107677109.2040324 -4711654.090497719 -4711654.090497719 -7933230.084568854 0 0 0 0 0 107720510.2733206 -4437559.882675799 -4437559.882675799 -7747400.063040703 0 0 0 0 0 107731082.9312161 -4177025.225568254 -4177025.225568254 -7559782.319795636 0 0 0 0 0 107849530.9132273 -4131612.506511899 -4131612.506511899 -7511693.40566014 0 0 0 0 0 107471232.1120716 -4031770.672150059 -4031770.672150059 -7324199.76363939 0 0 0 0 0 107485790.9561864 -3792107.160865656 -3792107.160865656 -7160625.121229706 0 0 0 0 0 107502788.1812844 -3558692.739634223 -3558692.739634223 -6957695.809260346 0 0 0 0 0 107478459.3779207 -3355859.672839804 -3355859.672839804 -6813434.515443054 0 0 0 0 0 107565918.7029305 -3321308.633850027 -3321308.633850027 -6774503.551945549 0 0 0 0 0 107235297.6646478 -3239867.324583145 -3239867.324583145 -6606145.431858991 0 0 0 0 0 107225843.9283687 -3040728.112487158 -3040728.112487158 -6447416.513674864 0 0 0 0 0 107210106.6145569 -2849828.021467413 -2849828.021467413 -6290932.838637108 0 0 0 0 0 107188598.2381354 -2666930.172104665 -2666930.172104665 -6136770.519603401 0 0 0 0 0 107161788.7093996 -2491822.430620126 -2491822.430620126 -5984954.528983588 0 0 0 0 0 107129979.6510642 -2324236.924532819 -2324236.924532819 -5835601.985864304 0 0 0 0 0 107093388.1094363 -2164518.253799655 -2164518.253799655 -5687670.018342931 0 0 0 0 0 107052895.1744285 -2015473.272981937 -2015473.272981937 -5539328.897998702 0 0 0 0 0 106833069.7138895 -1947444.303920253 -1947444.303920253 -5387633.204286654 0 0 0 0 0 107096725.6083865 -2002667.687381614 -2002667.687381614 -5540397.667047791 0 0 0 0 0 106859475.6049205 -1794428.421919667 -1794428.421919667 -5176195.951659711 0 0 0 0 0 106771135.0323395 -1739941.860241959 -1739941.860241959 -5105966.551423989 0 0 0 0 0 106669191.1015352 -1650774.317021126 -1650774.317021126 -4994198.112586224 0 0 0 0 0 96470063.79181299 -19978519.44279164 -19978519.44279164 -13904075.75107382 0 0 0 0 0 5919198.336210345 -1729439.107898626 -1729439.107898626 -20859226.79738107 0 0 0 0 0 6948003.786459693 -3548698.157433664 -3548698.157433664 -18717318.71702787 0 0 0 0 0 9488613.712390771 -4980624.33196243 -4980624.33196243 -17318517.74132552 0 0 0 0 0 11074993.69433584 -7216368.27502272 -7216368.27502272 -16358762.49745011 0 0 0 0 0 13123340.32965652 -9628948.001860145 -9628948.001860145 -15456906.62647886 0 0 0 0 0 18066113.37233501 -12709894.68531725 -12709894.68531725 -12177913.15870693 0 0 0 0 0 13225353.77905708 -9261548.700590417 -9261548.700590417 -14150113.27588904 0 0 0 0 0 20578303.1975598 -15054181.30329998 -15054181.30329998 -11700734.48399977 0 0 0 0 0 23316643.38419683 -17254892.43754826 -17254892.43754826 -11333481.15638855 0 0 0 0 0 26326597.97671709 -19313631.85841409 -19313631.85841409 -11079059.47992239 0 0 0 0 0 29544933.88423508 -21211726.81249855 -21211726.81249855 -10936442.23994611 0 0 0 0 0 32933666.44896482 -22934009.7311942 -22934009.7311942 -10900718.42854422 0 0 0 0 0 36458758.31906605 -24468491.02224468 -24468491.02224468 -10965090.51620782 0 0 0 0 0 40084704.17106465 -25808000.75656474 -25808000.75656474 -11118214.12877811 0 0 0 0 0 43775438.72044557 -26950132.35722487 -26950132.35722487 -11348217.63237453 0 0 0 0 0 46342611.47776102 -26071925.38704135 -26071925.38704135 -10739781.75443975 0 0 0 0 0 49423474.59332941 -27543426.64796793 -27543426.64796793 -10808271.47418315 0 0 0 0 0 52972164.59550024 -28219537.36381945 -28219537.36381945 -11211099.97837162 0 0 0 0 0 56494508.45099206 -28718310.59714316 -28718310.59714316 -11640708.62325771 0 0 0 0 0 59967360.60353036 -29048330.33363179 -29048330.33363179 -12083092.89827718 0 0 0 0 0 64528007.24265809 -28624141.90562457 -28624141.90562457 -11908216.00316137 0 0 0 0 0 62775968.28518832 -28075149.35095638 -28075149.35095638 -11369951.4194885 0 0 0 0 0 67671214.98352806 -28623524.62784627 -28623524.62784627 -12363741.80523706 0 0 0 0 0 70719514.93221273 -28494630.16521589 -28494630.16521589 -12798842.42119952 0 0 0 0 0 73656048.78720239 -28247826.13367777 -28247826.13367777 -13208707.6168468 0 0 0 0 0 76478522.89297092 -27895298.53574522 -27895298.53574522 -13588506.24809052 0 0 0 0 0 79201943.0084841 -27451592.68273198 -27451592.68273198 -13942531.9495111 0 0 0 0 0 81775266.63655964 -26920132.90541033 -26920132.90541033 -14245269.58529958 0 0 0 0 0 84211501.16889137 -26018798.4182775 -26018798.4182775 -13430646.62335287 0 0 0 0 0 84418788.99216042 -25754126.7339343 -25754126.7339343 -13990633.34547272 0 0 0 0 0 86584132.75523506 -25127442.93437465 -25127442.93437465 -14221709.87887849 0 0 0 0 0 88627507.98191716 -24452949.03312958 -24452949.03312958 -14422197.71538924 0 0 0 0 0 90560978.88834123 -23741409.65048395 -23741409.65048395 -14575229.81398857 0 0 0 0 0 92347828.65432763 -22996422.10383167 -22996422.10383167 -14684599.42668897 0 0 0 0 0 94019636.17599308 -22221196.66680242 -22221196.66680242 -14740930.87170853 0 0 0 0 0 95829822.77891751 -21537316.81981479 -21537316.81981479 -14005891.92649427 0 0 0 0 0 95330840.51451208 -21069537.568139 -21069537.568139 -14320636.74274347 0 0 0 0 0 96741940.18759872 -20318880.97460578 -20318880.97460578 -14352546.48785941 0 0 0 0 0 97964446.08414227 -19384386.04569935 -19384386.04569935 -13245888.02073801 0 0 0 0 0 99136517.56668194 -18687835.12297016 -18687835.12297016 -13263945.54516964 0 0 0 0 0 99884210.8441186 -17713862.12140563 -17713862.12140563 -12862307.16730466 0 0 0 0 0 98553674.43807553 -18246289.36270105 -18246289.36270105 -13479665.86774443 0 0 0 0 0 100883650.5943256 -17034606.41098465 -17034606.41098465 -12847719.43051535 0 0 0 0 0 101817406.9777911 -16352141.56119739 -16352141.56119739 -12805102.7746935 0 0 0 0 0 102681053.0300808 -15675885.54759558 -15675885.54759558 -12744510.59103356 0 0 0 0 0 103467125.6896832 -15003212.09985694 -15003212.09985694 -12670738.19590596 0 0 0 0 0 103751109.6921447 -14210920.75944297 -14210920.75944297 -12249625.5570379 0 0 0 0 0 102791550.7342412 -14604764.27117907 -14604764.27117907 -12732803.71667738 0 0 0 0 0 104383136.7637848 -13597779.56862423 -13597779.56862423 -12147058.24595952 0 0 0 0 0 104961786.0072769 -12993328.10296581 -12993328.10296581 -12025078.24089772 0 0 0 0 0 105486657.8128336 -12405653.60774508 -12405653.60774508 -11890779.95921227 0 0 0 0 0 105960086.6744417 -11832912.88598847 -11832912.88598847 -11745458.00711702 0 0 0 0 0 106384933.8407993 -11276764.01902693 -11276764.01902693 -11589309.82797436 0 0 0 0 0 105726283.8453169 -10962868.0301095 -10962868.0301095 -11512337.22165428 0 0 0 0 0 106696789.2705618 -10190276.80222509 -10190276.80222509 -11012232.53321294 0 0 0 0 0 106117061.5468026 -10433819.58576912 -10433819.58576912 -11326302.10418449 0 0 0 0 0 107008055.5216611 -9694509.841052663 -9694509.841052663 -10840325.32321837 0 0 0 0 0 107285729.0450754 -9214586.257958531 -9214586.257958531 -10661833.65055833 0 0 0 0 0 107531581.2680027 -8750382.304004313 -8750382.304004313 -10477631.9548291 0 0 0 0 0 107748230.5696116 -8302029.409338363 -8302029.409338363 -10288507.53529418 0 0 0 0 0 107559901.0549353 -7903602.287217606 -7903602.287217606 -9923618.111491079 0 0 0 0 0 107165805.510216 -8070795.133350204 -8070795.133350204 -10143279.58396208 0 0 0 0 0 107730432.337331 -7496257.313355669 -7496257.313355669 -9738208.270709133 0 0 0 0 0 107877949.4814079 -7103717.668572261 -7103717.668572261 -9550071.360437408 0 0 0 0 0 108003187.5338009 -6726274.852495399 -6726274.852495399 -9360601.518900972 0 0 0 0 0 108109365.1334758 -6363243.104220559 -6363243.104220559 -9168886.00060256 0 0 0 0 0 108197245.419118 -6014249.890921745 -6014249.890921745 -8976374.659849945 0 0 0 0 0 107792575.6342793 -5525692.950021806 -5525692.950021806 -8601622.014326513 0 0 0 0 0 108269052.8347266 -5678646.404963979 -5678646.404963979 -8782685.227168502 0 0 0 0 0 108008718.9684876 -5434488.70013705 -5434488.70013705 -8483060.504143022 0 0 0 0 0 108057350.5548769 -5129774.759833833 -5129774.759833833 -8298912.412643107 0 0 0 0 0 108096593.1519376 -4834540.908028636 -4834540.908028636 -8115407.246900934 0 0 0 0 0 108122108.8491629 -4555749.104199747 -4555749.104199747 -7931807.84461883 0 0 0 0 0 108137797.0656522 -4285927.744357309 -4285927.744357309 -7750522.828622355 0 0 0 0 0 108135250.4135299 -4033755.895311708 -4033755.895311708 -7570875.307943376 0 0 0 0 0 107747437.8851429 -3931428.096146423 -3931428.096146423 -7381142.764996594 0 0 0 0 0 107855473.8944629 -3887041.470365062 -3887041.470365062 -7329123.184290733 0 0 0 0 0 107860953.9740418 -3644886.779097114 -3644886.779097114 -7149353.208793958 0 0 0 0 0 107816544.3487088 -3434909.292720535 -3434909.292720535 -7011483.022608154 0 0 0 0 0 107799678.8666473 -3227103.19872121 -3227103.19872121 -6829407.171155786 0 0 0 0 0 107465714.2062732 -3148309.302515203 -3148309.302515203 -6649737.257066517 0 0 0 0 0 107546406.2932734 -3116852.228195769 -3116852.228195769 -6615444.674968166 0 0 0 0 0 107520757.5840031 -2920826.118051384 -2920826.118051384 -6458470.102923028 0 0 0 0 0 107489436.4590387 -2732992.68386312 -2732992.68386312 -6303635.256152768 0 0 0 0 0 107452963.4133393 -2553109.092194534 -2553109.092194534 -6151033.045490339 0 0 0 0 0 107411736.6738705 -2380987.259338084 -2380987.259338084 -6000790.355267718 0 0 0 0 0 107366264.1652209 -2216332.196385971 -2216332.196385971 -5852952.68167886 0 0 0 0 0 107314981.720144 -2058958.467418662 -2058958.467418662 -5707609.498944535 0 0 0 0 0 107257092.6183378 -1911939.987787187 -1911939.987787187 -5567233.10879184 0 0 0 0 0 107063472.8745881 -1830815.476796383 -1830815.476796383 -5382175.869894526 0 0 0 0 0 106994238.6973321 -1867192.577410046 -1867192.577410046 -5431218.691379451 0 0 0 0 0 106862774.5093406 -1734833.913831921 -1734833.913831921 -5295802.322215471 0 0 0 0 0 106747523.3496651 -1680356.744224924 -1680356.744224924 -5218709.052435888 0 0 0 0 0 106677311.7022818 -1590041.984711698 -1590041.984711698 -5082076.331865279 0 0 0 0 0 98305537.77783985 -19705229.05545095 -19705229.05545095 -13673179.41202805 0 0 0 0 0 4655862.670992505 -394617.7475650815 -394617.7475650815 -22778154.58268325 0 0 0 0 0 8136467.749096604 -3648653.788442364 -3648653.788442364 -20378898.54810255 0 0 0 0 0 6678087.475755628 -3922627.048542724 -3922627.048542724 -18876862.41010125 0 0 0 0 0 8414325.787705883 -6054989.611761646 -6054989.611761646 -17871168.62849907 0 0 0 0 0 10300331.54425929 -8388608.531844325 -8388608.531844325 -16975716.22091525 0 0 0 0 0 15703779.37722572 -11690769.29659813 -11690769.29659813 -13435804.25856768 0 0 0 0 0 15244608.02259174 -12127769.20922161 -12127769.20922161 -14628257.0543768 0 0 0 0 0 18512518.06882227 -14015812.20131802 -14015812.20131802 -12900841.67772557 0 0 0 0 0 21621126.60617731 -16247139.22468928 -16247139.22468928 -12424404.86642587 0 0 0 0 0 24984888.8309097 -18341288.16550965 -18341288.16550965 -12061165.47429768 0 0 0 0 0 28564359.05664409 -20284676.43490387 -20284676.43490387 -11801128.91840265 0 0 0 0 0 32316437.43835509 -22057055.96391736 -22057055.96391736 -11644854.82953757 0 0 0 0 0 36200707.34569702 -23643977.2970556 -23643977.2970556 -11588075.54597752 0 0 0 0 0 40171358.83082449 -25036349.13585135 -25036349.13585135 -11622560.18277575 0 0 0 0 0 44190888.47046576 -26228711.48659705 -26228711.48659705 -11738675.65362043 0 0 0 0 0 47494898.23941462 -27892907.6215529 -27892907.6215529 -11640453.57174246 0 0 0 0 0 50187661.41441485 -26971964.4114898 -26971964.4114898 -11013054.50362785 0 0 0 0 0 54006073.08351315 -27684132.20890665 -27684132.20890665 -11330678.11330133 0 0 0 0 0 57773156.72341167 -28214396.07071345 -28214396.07071345 -11678557.70394125 0 0 0 0 0 61461735.96848127 -28571638.79965597 -28571638.79965597 -12049167.71876312 0 0 0 0 0 66188006.51444732 -28232208.58009402 -28232208.58009402 -11782886.05649167 0 0 0 0 0 63352713.76728708 -29215357.59598117 -29215357.59598117 -12527784.67402248 0 0 0 0 0 69482793.6292759 -28244548.36521009 -28244548.36521009 -12190717.43857414 0 0 0 0 0 72651667.35315534 -28127711.30995727 -28127711.30995727 -12588183.87522047 0 0 0 0 0 75686684.71884347 -27891454.27440441 -27891454.27440441 -12967972.63073143 0 0 0 0 0 78580912.87534818 -27546391.36874843 -27546391.36874843 -13321664.6996005 0 0 0 0 0 81339505.34102687 -27104548.40143333 -27104548.40143333 -13648605.56687581 0 0 0 0 0 83957737.85701445 -26578198.21399439 -26578198.21399439 -13953235.7418817 0 0 0 0 0 84202995.65953492 -26323060.18850195 -26323060.18850195 -14506757.07458365 0 0 0 0 0 86533994.49026629 -25450275.1564274 -25450275.1564274 -13704577.11845648 0 0 0 0 0 88717334.90618506 -24819902.23018815 -24819902.23018815 -13925098.4960098 0 0 0 0 0 90774716.83339195 -24143555.7968741 -24143555.7968741 -14114691.56542649 0 0 0 0 0 92695366.82211795 -23435567.80081191 -23435567.80081191 -14280235.2822449 0 0 0 0 0 94473642.45891419 -22686978.19171088 -22686978.19171088 -14395637.52799808 0 0 0 0 0 96129741.82077499 -21906499.24963434 -21906499.24963434 -14469405.9435388 0 0 0 0 0 95576842.58714241 -21431220.97200244 -21431220.97200244 -14760132.35890135 0 0 0 0 0 97282482.26919414 -20781849.79982694 -20781849.79982694 -14060340.07743947 0 0 0 0 0 98653225.47057413 -20020458.67049448 -20020458.67049448 -14091196.7000241 0 0 0 0 0 97718042.94176009 -19251705.03865278 -19251705.03865278 -13898552.04389639 0 0 0 0 0 98879484.78276901 -18523908.94136581 -18523908.94136581 -13871062.75942275 0 0 0 0 0 99623959.63257968 -17540757.21907354 -17540757.21907354 -13440434.0208079 0 0 0 0 0 100234066.6908395 -17984429.54875871 -17984429.54875871 -13251851.55932238 0 0 0 0 0 100615111.2214557 -16836303.06790465 -16836303.06790465 -13379806.87424764 0 0 0 0 0 101542314.0440773 -16136942.9557419 -16136942.9557419 -13301464.05826307 0 0 0 0 0 102398002.4833343 -15437580.63672956 -15437580.63672956 -13193640.24998032 0 0 0 0 0 103194600.9396769 -14756248.82046092 -14756248.82046092 -13060290.98672239 0 0 0 0 0 103488658.3579946 -13966185.16041676 -13966185.16041676 -12602815.37107896 0 0 0 0 0 104170904.0335981 -14356511.26501258 -14356511.26501258 -12572302.71938331 0 0 0 0 0 104121196.870677 -13340478.24402071 -13340478.24402071 -12457340.95901341 0 0 0 0 0 104704042.0626586 -12730154.87054732 -12730154.87054732 -12298066.45520278 0 0 0 0 0 105232105.0229464 -12135482.19502853 -12135482.19502853 -12127123.29882598 0 0 0 0 0 105711164.8251026 -11557204.09384395 -11557204.09384395 -11944218.14493189 0 0 0 0 0 106142566.9953137 -10995934.46577087 -10995934.46577087 -11751501.74146547 0 0 0 0 0 106769635.467572 -10734583.07450961 -10734583.07450961 -11419043.94619751 0 0 0 0 0 106469347.9753307 -9921187.651877409 -9921187.651877409 -11133431.62428593 0 0 0 0 0 107114308.8775356 -10208234.56873927 -10208234.56873927 -11242291.85555566 0 0 0 0 0 106786016.2232346 -9425072.404430205 -9425072.404430205 -10934527.82542006 0 0 0 0 0 107069510.2661996 -8945123.75204497 -8945123.75204497 -10730174.63013159 0 0 0 0 0 107321534.0210767 -8481854.692546107 -8481854.692546107 -10521666.35854675 0 0 0 0 0 107544360.8360924 -8035111.272587337 -8035111.272587337 -10309989.0528806 0 0 0 0 0 107367231.2476772 -7650305.906287314 -7650305.906287314 -9940464.303539895 0 0 0 0 0 107937725.2812188 -7869404.138401669 -7869404.138401669 -10095336.82734138 0 0 0 0 0 107544012.9505277 -7245197.087593214 -7245197.087593214 -9735379.776057553 0 0 0 0 0 107697857.1055935 -6855376.408068397 -6855376.408068397 -9529010.269077444 0 0 0 0 0 107830438.8321815 -6480812.14960298 -6480812.14960298 -9321157.321183702 0 0 0 0 0 107942467.2647163 -6121154.416039491 -6121154.416039491 -9113768.493852111 0 0 0 0 0 108036503.7530796 -5775884.124362661 -5775884.124362661 -8906868.088004213 0 0 0 0 0 108325359.477865 -5356346.165204553 -5356346.165204553 -8589321.851430021 0 0 0 0 0 108113713.8930069 -5444384.532313178 -5444384.532313178 -8700524.178203592 0 0 0 0 0 107860871.7394646 -5212154.168687996 -5212154.168687996 -8404631.857627237 0 0 0 0 0 107913941.2834458 -4909979.339530216 -4909979.339530216 -8209252.378499253 0 0 0 0 0 107961273.2988067 -4622263.592843379 -4622263.592843379 -8014774.341823865 0 0 0 0 0 107990086.393284 -4345710.856582615 -4345710.856582615 -7821884.117104111 0 0 0 0 0 108013492.2543022 -4083019.236083855 -4083019.236083855 -7629623.539191173 0 0 0 0 0 108016848.1149376 -3828798.220216822 -3828798.220216822 -7440062.619503532 0 0 0 0 0 108128332.6773619 -3784688.916201071 -3784688.916201071 -7391749.457219614 0 0 0 0 0 107752633.8706803 -3691218.703380658 -3691218.703380658 -7207317.681909222 0 0 0 0 0 107755014.8578197 -3456438.092785638 -3456438.092785638 -7027813.217100679 0 0 0 0 0 107750813.2933825 -3240125.28238455 -3240125.28238455 -6828056.771616219 0 0 0 0 0 107704514.7932729 -3048274.570757026 -3048274.570757026 -6685467.476563508 0 0 0 0 0 107775673.7024058 -3022218.629168266 -3022218.629168266 -6661548.861599128 0 0 0 0 0 107450008.7534281 -2947688.015074408 -2947688.015074408 -6485724.156916426 0 0 0 0 0 107428181.267593 -2755437.951790443 -2755437.951790443 -6324092.506941927 0 0 0 0 0 107400615.1210869 -2571414.258876562 -2571414.258876562 -6165120.993590138 0 0 0 0 0 107367889.2499367 -2395338.052752308 -2395338.052752308 -6008784.640713689 0 0 0 0 0 107330305.7484522 -2226993.503966156 -2226993.503966156 -5855240.047971071 0 0 0 0 0 107288264.502236 -2065806.145984374 -2065806.145984374 -5705199.016896192 0 0 0 0 0 107243430.6429262 -1913619.566784259 -1913619.566784259 -5557659.14617293 0 0 0 0 0 107197060.3505289 -1779686.358375045 -1779686.358375045 -5402974.373771328 0 0 0 0 0 106944521.6636469 -1741882.091729767 -1741882.091729767 -5320306.004120451 0 0 0 0 0 107252020.0321024 -1759846.273886168 -1759846.273886168 -5406968.484298654 0 0 0 0 0 107079301.5611263 -1631652.74220436 -1631652.74220436 -5147498.204237456 0 0 0 0 0 106961838.5492802 -1575005.166283771 -1575005.166283771 -5051352.570503561 0 0 0 0 0 106838080.2202251 -1510006.517029748 -1510006.517029748 -4951225.016332477 0 0 0 0 0 98045247.15666723 -19552034.58812549 -19552034.58812549 -14325838.53934119 0 0 0 0 0 3487252.574215551 -1711328.562803457 -1711328.562803457 -25222431.18459714 0 0 0 0 0 4935500.751768855 -3655678.260824083 -3655678.260824083 -23755165.29105751 0 0 0 0 0 4715949.984206033 -3194592.740612717 -3194592.740612717 -21383503.44165411 0 0 0 0 0 8589852.426954685 -6362335.01829052 -6362335.01829052 -19731118.15215617 0 0 0 0 0 10235078.22420802 -8831582.007581534 -8831582.007581534 -18603979.55107242 0 0 0 0 0 12360172.33888873 -11370313.7023371 -11370313.7023371 -17529914.29334543 0 0 0 0 0 17689383.60587582 -14509040.74205561 -14509040.74205561 -13916884.72728993 0 0 0 0 0 12746013.57898913 -10884280.26830433 -10884280.26830433 -16071021.44925377 0 0 0 0 0 20485247.35630613 -16798136.96303023 -16798136.96303023 -13325342.60978737 0 0 0 0 0 23535506.39524915 -18954045.95936523 -18954045.95936523 -12861582.92920758 0 0 0 0 0 26826498.44468325 -20958507.57563633 -20958507.57563633 -12526216.44383002 0 0 0 0 0 30316295.27471587 -22791499.18991513 -22791499.18991513 -12317130.08762803 0 0 0 0 0 33962281.33197858 -24437067.81314502 -24437067.81314502 -12225831.07475166 0 0 0 0 0 37723973.40165908 -25884209.57035306 -25884209.57035306 -12243743.15991938 0 0 0 0 0 41567698.66896334 -27127087.24644314 -27127087.24644314 -12358040.94339958 0 0 0 0 0 45451464.13905986 -28162137.8581304 -28162137.8581304 -12553167.93468449 0 0 0 0 0 48221259.64462052 -27219809.10199369 -27219809.10199369 -11924984.41227995 0 0 0 0 0 51208533.65855048 -28638457.75126209 -28638457.75126209 -11981757.16949709 0 0 0 0 0 54897266.96782815 -29196379.19556866 -29196379.19556866 -12359411.94529043 0 0 0 0 0 58539285.73168445 -29573897.48152239 -29573897.48152239 -12759436.87088311 0 0 0 0 0 62104479.18506845 -29779129.27441546 -29779129.27441546 -13169883.66946525 0 0 0 0 0 66653515.05005578 -29234879.98065531 -29234879.98065531 -12961796.00067313 0 0 0 0 0 65052039.96000104 -28763735.05075672 -28763735.05075672 -12429247.16682899 0 0 0 0 0 69849005.98596506 -29116044.07159029 -29116044.07159029 -13379837.01906525 0 0 0 0 0 72928311.64330834 -28871776.68953118 -28871776.68953118 -13774333.9412605 0 0 0 0 0 75880043.60173099 -28514324.46276744 -28514324.46276744 -14138844.80446611 0 0 0 0 0 78704372.3783071 -28058532.8346695 -28058532.8346695 -14475213.46481256 0 0 0 0 0 81417174.15347885 -27517151.46845122 -27517151.46845122 -14776771.78327727 0 0 0 0 0 83965038.0899687 -26893980.68766869 -26893980.68766869 -15029342.62729774 0 0 0 0 0 86401379.99962825 -25987595.37424493 -25987595.37424493 -14219483.2016064 0 0 0 0 0 86461897.00087823 -25664193.032667 -25664193.032667 -14726770.02008487 0 0 0 0 0 88597420.34624436 -24958378.00972931 -24958378.00972931 -14913392.8916213 0 0 0 0 0 90611899.29225653 -24213879.26069787 -24213879.26069787 -15065196.80562805 0 0 0 0 0 92486856.91463795 -23430148.49738923 -23430148.49738923 -15163186.00062052 0 0 0 0 0 94233235.8333167 -22620568.80801349 -22620568.80801349 -15220650.19800906 0 0 0 0 0 95880971.10121796 -21806182.55045597 -21806182.55045597 -15232213.63748677 0 0 0 0 0 97618436.69851427 -21133769.09305481 -21133769.09305481 -14541144.22042522 0 0 0 0 0 97024161.29221845 -20657596.4918466 -20657596.4918466 -14788666.45108018 0 0 0 0 0 98380350.44124332 -19859617.24380546 -19859617.24380546 -14766947.7594249 0 0 0 0 0 99513667.53318186 -18978307.84575989 -18978307.84575989 -13681710.10026625 0 0 0 0 0 100624821.3762142 -18246067.09767328 -18246067.09767328 -13668295.7150274 0 0 0 0 0 101255209.8830037 -17279297.88191646 -17279297.88191646 -13227935.44703775 0 0 0 0 0 99963980.36997876 -17796220.16812323 -17796220.16812323 -13828604.47506478 0 0 0 0 0 102203083.4750028 -16571477.85037884 -16571477.85037884 -13173253.83621765 0 0 0 0 0 103091252.2788879 -15867466.74476991 -15867466.74476991 -13096634.28302714 0 0 0 0 0 103894288.2041904 -15170162.84170399 -15170162.84170399 -13004372.31137216 0 0 0 0 0 104613983.1913849 -14492639.68188365 -14492639.68188365 -12900332.02710428 0 0 0 0 0 104811622.3789844 -13718078.44189436 -13718078.44189436 -12455471.87143705 0 0 0 0 0 103896975.4849679 -14093033.1944192 -14093033.1944192 -12914783.36810266 0 0 0 0 0 105395140.7439944 -13093349.08839791 -13093349.08839791 -12321120.58382402 0 0 0 0 0 105923866.9786578 -12484404.84167529 -12484404.84167529 -12173835.28872816 0 0 0 0 0 106400839.302788 -11891629.83413671 -11891629.83413671 -12013049.94139109 0 0 0 0 0 106828137.7326792 -11316070.88053173 -11316070.88053173 -11842399.66489476 0 0 0 0 0 107209814.3710959 -10757491.08194355 -10757491.08194355 -11661596.86067771 0 0 0 0 0 106530837.2064048 -10451832.74871646 -10451832.74871646 -11552672.52601009 0 0 0 0 0 107421958.2037979 -9698509.369733552 -9698509.369733552 -11057577.23267294 0 0 0 0 0 106880700.1222292 -9924811.983675027 -9924811.983675027 -11346356.03301709 0 0 0 0 0 107695385.3102124 -9205333.314037565 -9205333.314037565 -10866484.86978845 0 0 0 0 0 107936118.142645 -8728748.957516311 -8728748.957516311 -10670072.78318615 0 0 0 0 0 108146640.1355135 -8269016.525106543 -8269016.525106543 -10469057.7509225 0 0 0 0 0 108329493.3712469 -7825921.257756383 -7825921.257756383 -10264167.49008127 0 0 0 0 0 108102112.3396463 -7452358.55603264 -7452358.55603264 -9898909.757224824 0 0 0 0 0 107740111.9509478 -7604647.998448559 -7604647.998448559 -10095665.90717059 0 0 0 0 0 108242709.8891105 -7050919.397666358 -7050919.397666358 -9700188.293439459 0 0 0 0 0 108361611.4985435 -6664835.765637775 -6664835.765637775 -9499563.24151629 0 0 0 0 0 108459465.1632944 -6294478.884230223 -6294478.884230223 -9298539.538840963 0 0 0 0 0 108539416.5433895 -5938829.602345785 -5938829.602345785 -9096296.192920052 0 0 0 0 0 108603227.7040175 -5597425.885792663 -5597425.885792663 -8893489.23326504 0 0 0 0 0 108175203.1482807 -5126028.836582541 -5126028.836582541 -8494966.711581945 0 0 0 0 0 108651217.6073502 -5269831.721654789 -5269831.721654789 -8690924.534318496 0 0 0 0 0 108367018.2601346 -5046710.843703307 -5046710.843703307 -8396027.666397072 0 0 0 0 0 108396978.119606 -4748552.905603909 -4748552.905603909 -8203402.501297904 0 0 0 0 0 108414769.5383801 -4463998.712537805 -4463998.712537805 -8013820.12387656 0 0 0 0 0 108421644.8544883 -4191572.3960307 -4191572.3960307 -7823396.608608041 0 0 0 0 0 108416934.2766171 -3931774.521005687 -3931774.521005687 -7636100.88132353 0 0 0 0 0 108403614.3774266 -3682276.108072828 -3682276.108072828 -7448677.61973527 0 0 0 0 0 108017604.9542281 -3587572.244472606 -3587572.244472606 -7253898.584118687 0 0 0 0 0 108122615.7653425 -3545843.010136699 -3545843.010136699 -7209135.689294426 0 0 0 0 0 108102505.5163163 -3319611.894816812 -3319611.894816812 -7035601.20248224 0 0 0 0 0 108039977.7463171 -3121662.074026311 -3121662.074026311 -6893798.848709693 0 0 0 0 0 108007857.0659883 -2920461.947506482 -2920461.947506482 -6703429.671227428 0 0 0 0 0 107679069.0220398 -2848341.123630691 -2848341.123630691 -6518911.757191183 0 0 0 0 0 107744019.4718909 -2824955.825814621 -2824955.825814621 -6498867.226839204 0 0 0 0 0 107706233.7409175 -2636019.055809381 -2636019.055809381 -6338823.695464185 0 0 0 0 0 107663514.1445989 -2455225.979428047 -2455225.979428047 -6181281.997803772 0 0 0 0 0 107616039.3533819 -2282362.3697965 -2282362.3697965 -6026404.617953558 0 0 0 0 0 107564206.7448931 -2117215.513655754 -2117215.513655754 -5874202.825217036 0 0 0 0 0 107509028.4642347 -1959704.597558035 -1959704.597558035 -5724892.033394882 0 0 0 0 0 107442739.3157915 -1814238.183803914 -1814238.183803914 -5584266.886369408 0 0 0 0 0 107314390.9729992 -1706352.24514311 -1706352.24514311 -5474542.414156536 0 0 0 0 0 107219244.4990091 -1615341.234495494 -1615341.234495494 -5270128.942285212 0 0 0 0 0 107129443.5402319 -1671835.143542892 -1671835.143542892 -5370691.921420077 0 0 0 0 0 107032005.3308629 -1578290.882879784 -1578290.882879784 -5261548.267611301 0 0 0 0 0 106930640.2187125 -1516449.367917187 -1516449.367917187 -5159288.230561719 0 0 0 0 0 106836555.5148414 -1448021.507182602 -1448021.507182602 -5056554.588380577 0 0 0 0 0 99908334.62397368 -19260575.82074947 -19260575.82074947 -14105667.09950605 0 0 0 0 0 2425725.135426208 -179301.126055027 -179301.126055027 -27548948.35492587 0 0 0 0 0 4314883.053078667 -2277893.299246884 -2277893.299246884 -25433239.47835343 0 0 0 0 0 6569350.997236351 -4878681.055980934 -4878681.055980934 -23619728.06454834 0 0 0 0 0 5422923.959778189 -5285251.470653451 -5285251.470653451 -21103114.93102564 0 0 0 0 0 7398400.557609536 -7412934.495490083 -7412934.495490083 -20260511.88056326 0 0 0 0 0 9802233.400110146 -9927107.101416351 -9927107.101416351 -19125398.7112289 0 0 0 0 0 15534354.46828804 -13291648.7952642 -13291648.7952642 -15260217.18008725 0 0 0 0 0 14817450.21688749 -13823325.53531765 -13823325.53531765 -16539055.25739406 0 0 0 0 0 18652224.53992312 -15603580.37291885 -15603580.37291885 -14576282.10199908 0 0 0 0 0 22064198.16417648 -17802911.84500717 -17802911.84500717 -13996478.41308838 0 0 0 0 0 25721245.29560497 -19859010.37413787 -19859010.37413787 -13538154.64607524 0 0 0 0 0 29581647.78521192 -21750748.83265797 -21750748.83265797 -13200271.25277635 0 0 0 0 0 33594239.26417842 -23458982.05452381 -23458982.05452381 -12979061.34483327 0 0 0 0 0 37722538.65356172 -24970391.85963104 -24970391.85963104 -12866248.48748496 0 0 0 0 0 41915245.41083688 -26275713.33513532 -26275713.33513532 -12853463.76061256 0 0 0 0 0 46132669.20674302 -27371266.96145372 -27371266.96145372 -12928597.07746607 0 0 0 0 0 49338708.21803949 -28990719.60223393 -28990719.60223393 -12813472.58958388 0 0 0 0 0 52225053.42339201 -28011189.21849255 -28011189.21849255 -12166593.35193848 0 0 0 0 0 56183750.9122018 -28609700.14913672 -28609700.14913672 -12451701.49210589 0 0 0 0 0 60062074.45131605 -29022860.42049304 -29022860.42049304 -12770183.08288221 0 0 0 0 0 63837757.5578234 -29259399.85163809 -29259399.85163809 -13108945.24582908 0 0 0 0 0 68523588.21404074 -28802523.34444789 -28802523.34444789 -12810103.70247552 0 0 0 0 0 65575435.54443208 -29823863.12959146 -29823863.12959146 -13578876.73995195 0 0 0 0 0 71856190.28544903 -28700280.09909256 -28700280.09909256 -13186075.70804433 0 0 0 0 0 75042437.22838436 -28470008.79437373 -28470008.79437373 -13544927.03419711 0 0 0 0 0 78078838.6745611 -28123703.61719551 -28123703.61719551 -13882286.28584835 0 0 0 0 0 80966031.05024552 -27672458.31394068 -27672458.31394068 -14190279.46272155 0 0 0 0 0 83695429.9471426 -27138282.85782186 -27138282.85782186 -14478230.89610766 0 0 0 0 0 86263989.1565813 -26525038.22878572 -26525038.22878572 -14729827.78615138 0 0 0 0 0 86337587.51613048 -26205434.80162653 -26205434.80162653 -15239006.36711102 0 0 0 0 0 88691933.01336384 -25331675.74047041 -25331675.74047041 -14432302.93896302 0 0 0 0 0 90833070.75052154 -24625763.95452734 -24625763.95452734 -14612018.50472492 0 0 0 0 0 92834646.99915338 -23877237.35604869 -23877237.35604869 -14754996.42669608 0 0 0 0 0 94699679.43416423 -23093192.55863913 -23093192.55863913 -14861751.02434831 0 0 0 0 0 96422465.51853983 -22285978.13677244 -22285978.13677244 -14937305.87405973 0 0 0 0 0 97976032.55235372 -21480952.07821766 -21480952.07821766 -14985150.20934162 0 0 0 0 0 97356770.54811308 -20984044.12587359 -20984044.12587359 -15206655.5816236 0 0 0 0 0 99012269.64172912 -20336481.91092831 -20336481.91092831 -14527137.18378616 0 0 0 0 0 100316721.5792826 -19541187.57058545 -19541187.57058545 -14513398.02770629 0 0 0 0 0 99243609.37915498 -18796265.70472658 -18796265.70472658 -14290013.1455037 0 0 0 0 0 100353399.3853437 -18036867.88278096 -18036867.88278096 -14209923.69828901 0 0 0 0 0 100976484.1066473 -17064442.8255619 -17064442.8255619 -13750729.84213458 0 0 0 0 0 101658101.3583669 -17513212.5157683 -17513212.5157683 -13613894.83932851 0 0 0 0 0 101917982.3878743 -16340019.33713239 -16340019.33713239 -13657932.79310367 0 0 0 0 0 102796418.0200274 -15614637.15300226 -15614637.15300226 -13537932.44660806 0 0 0 0 0 103602391.9790233 -14903310.1448411 -14903310.1448411 -13391592.93740867 0 0 0 0 0 104329697.0635715 -14211827.86037361 -14211827.86037361 -13227369.57065136 0 0 0 0 0 104540304.7322638 -13444833.15987187 -13444833.15987187 -12754465.4343332 0 0 0 0 0 105262250.7691362 -13831430.41307726 -13831430.41307726 -12766338.935927 0 0 0 0 0 105127302.0790299 -12812701.01330861 -12812701.01330861 -12580676.48875017 0 0 0 0 0 105660303.7888657 -12197715.64413977 -12197715.64413977 -12394563.38975806 0 0 0 0 0 106141931.3424915 -11599994.52703883 -11599994.52703883 -12197785.81302642 0 0 0 0 0 106575741.0564557 -11019962.70626492 -11019962.70626492 -11991165.98449636 0 0 0 0 0 106964991.1484636 -10459246.95010978 -10459246.95010978 -11775851.05636999 0 0 0 0 0 107550547.4995839 -10216460.55978339 -10216460.55978339 -11470793.86448812 0 0 0 0 0 107193539.0685473 -9415321.821011676 -9415321.821011676 -11134924.44463908 0 0 0 0 0 107853098.4975121 -9692835.17529773 -9692835.17529773 -11273219.94281909 0 0 0 0 0 107473071.9326102 -8922519.643115263 -8922519.643115263 -10917707.08872237 0 0 0 0 0 107720298.4732299 -8447327.183717309 -8447327.183717309 -10696683.95381312 0 0 0 0 0 107937573.1626129 -7989613.012801765 -7989613.012801765 -10472600.39404486 0 0 0 0 0 108127022.9626221 -7549196.474264206 -7549196.474264206 -10246561.87430375 0 0 0 0 0 107910866.7169948 -7190282.272671417 -7190282.272671417 -9879631.230234697 0 0 0 0 0 108486577.5271106 -7399325.857712951 -7399325.857712951 -10056431.75443455 0 0 0 0 0 108058312.265968 -6791870.411099435 -6791870.411099435 -9662214.409392707 0 0 0 0 0 108183921.4447105 -6409311.889952702 -6409311.889952702 -9444341.534299528 0 0 0 0 0 108289785.2822416 -6042345.576110187 -6042345.576110187 -9226209.236972583 0 0 0 0 0 108375409.4014552 -5691304.603433327 -5691304.603433327 -9009726.424448993 0 0 0 0 0 108444692.2567253 -5354455.726449874 -5354455.726449874 -8794396.284840241 0 0 0 0 0 108684974.1251681 -4955414.163050649 -4955414.163050649 -8488981.871590948 0 0 0 0 0 108498685.477785 -5031094.962599562 -5031094.962599562 -8579849.303395186 0 0 0 0 0 108222116.2239107 -4820138.140899752 -4820138.140899752 -8290714.979612678 0 0 0 0 0 108257835.1817341 -4527337.854624938 -4527337.854624938 -8088650.480197697 0 0 0 0 0 108281484.3670298 -4247639.177823239 -4247639.177823239 -7888278.654577868 0 0 0 0 0 108293989.8872067 -3980041.147925468 -3980041.147925468 -7689520.430465497 0 0 0 0 0 108294221.1849542 -3724417.934082796 -3724417.934082796 -7493154.24802662 0 0 0 0 0 108285888.0992218 -3479919.863353319 -3479919.863353319 -7300501.538703832 0 0 0 0 0 108379875.2042648 -3444784.3915359 -3444784.3915359 -7267421.210262386 0 0 0 0 0 108007612.4838302 -3356062.009693282 -3356062.009693282 -7072894.285909072 0 0 0 0 0 107986539.2538251 -3135923.579083804 -3135923.579083804 -6892449.880961737 0 0 0 0 0 107972258.8559574 -2928165.071655867 -2928165.071655867 -6695188.265587754 0 0 0 0 0 107915305.6839053 -2741162.511435427 -2741162.511435427 -6544185.650317789 0 0 0 0 0 107971003.1167723 -2722978.041367467 -2722978.041367467 -6534061.031228532 0 0 0 0 0 107650804.9417319 -2655008.904231353 -2655008.904231353 -6352212.866377091 0 0 0 0 0 107616868.1046459 -2470129.823123985 -2470129.823123985 -6188386.415300875 0 0 0 0 0 107577876.0082207 -2293318.446171758 -2293318.446171758 -6027427.946327005 0 0 0 0 0 107534240.9092334 -2124338.093275956 -2124338.093275956 -5869305.029461944 0 0 0 0 0 107486185.5953601 -1963240.361455262 -1963240.361455262 -5713860.205942041 0 0 0 0 0 107435384.0877651 -1810447.587508351 -1810447.587508351 -5561447.371997944 0 0 0 0 0 107389068.1262016 -1661742.618866992 -1661742.618866992 -5392042.696180116 0 0 0 0 0 107382470.6203554 -1543254.468565418 -1543254.468565418 -5252717.466068655 0 0 0 0 0 107160905.2642777 -1502718.526248593 -1502718.526248593 -5124062.78520453 0 0 0 0 0 107095556.9191803 -1429905.742466236 -1429905.742466236 -5018870.516632928 0 0 0 0 0 107001950.4206185 -1362965.564088165 -1362965.564088165 -4920059.11866391 0 0 0 0 0 99631335.94164778 -19063622.35380385 -19063622.35380385 -14699636.05823136 0 0 0 0 0 1155522.854735311 -1746798.382775357 -1746798.382775357 -30191811.5571945 0 0 0 0 0 2135646.473745794 -3730806.751793228 -3730806.751793228 -27727255.74330712 0 0 0 0 0 3160568.689601067 -5007323.841410864 -5007323.841410864 -24584298.92814852 0 0 0 0 0 7418351.422798024 -7982500.807688275 -7982500.807688275 -22447456.80685857 0 0 0 0 0 9461040.711598832 -10496755.97161918 -10496755.97161918 -20951304.38060549 0 0 0 0 0 11909978.64672634 -12967154.42708971 -12967154.42708971 -19643957.99646848 0 0 0 0 0 17590165.49967431 -16185348.16744008 -16185348.16744008 -15676076.93041646 0 0 0 0 0 12536693.25334744 -12381946.77655685 -12381946.77655685 -18064863.75174678 0 0 0 0 0 20675993.79526975 -18438505.85492688 -18438505.85492688 -14951640.81582443 0 0 0 0 0 24022693.62769553 -20551354.76306963 -20551354.76306963 -14376745.23722401 0 0 0 0 0 27596479.39723571 -22500724.26432266 -22500724.26432266 -13950022.20099688 0 0 0 0 0 31351037.36669779 -24266567.93977317 -24266567.93977317 -13666392.41045087 0 0 0 0 0 35246558.73495782 -25832470.71727287 -25832470.71727287 -13513574.47929977 0 0 0 0 0 39240512.71456341 -27189544.32231807 -27189544.32231807 -13482173.53652919 0 0 0 0 0 43291257.52822735 -28331252.35374763 -28331252.35374763 -13554032.54195165 0 0 0 0 0 47360035.21617879 -29256486.32903285 -29256486.32903285 -13712143.33851667 0 0 0 0 0 50335641.56427397 -28256200.57398861 -28256200.57398861 -13076703.88021951 0 0 0 0 0 53205568.9576695 -29618303.76299541 -29618303.76299541 -13124636.04093683 0 0 0 0 0 57027283.97551019 -30053978.33850269 -30053978.33850269 -13470203.77227599 0 0 0 0 0 60774789.39882972 -30305672.05510204 -30305672.05510204 -13836589.98534469 0 0 0 0 0 64425422.02218705 -30384653.57200658 -30384653.57200658 -14210660.92054507 0 0 0 0 0 68934153.73297629 -29721974.46222452 -29721974.46222452 -13976429.59891322 0 0 0 0 0 67491161.78365012 -29330762.0906554 -29330762.0906554 -13456246.61963406 0 0 0 0 0 72164981.05189401 -29483876.03510779 -29483876.03510779 -14350774.95437497 0 0 0 0 0 75261212.1345294 -29124671.69176377 -29124671.69176377 -14700550.98714497 0 0 0 0 0 78216074.4873777 -28657586.79873387 -28657586.79873387 -15020502.75358137 0 0 0 0 0 81035930.32178497 -28099924.75638151 -28099924.75638151 -15308688.30082032 0 0 0 0 0 83697958.51638894 -27457399.35137689 -27457399.35137689 -15555522.96433038 0 0 0 0 0 86199549.16555001 -26744374.45855211 -26744374.45855211 -15759879.58974462 0 0 0 0 0 88667191.75196357 -25844531.67093671 -25844531.67093671 -14942261.95795687 0 0 0 0 0 88571112.02420661 -25467739.31228006 -25467739.31228006 -15413135.50710108 0 0 0 0 0 90667825.9744557 -24689108.0656755 -24689108.0656755 -15547129.48192298 0 0 0 0 0 92630761.61242914 -23872015.31505828 -23872015.31505828 -15639640.3695237 0 0 0 0 0 94463322.6950738 -23027487.50577002 -23027487.50577002 -15689415.99936216 0 0 0 0 0 96166984.96742901 -22173190.28089915 -22173190.28089915 -15690712.02927204 0 0 0 0 0 97697156.60375616 -21310034.11149704 -21310034.11149704 -15659251.47676991 0 0 0 0 0 99406503.22193302 -20657285.62443241 -20657285.62443241 -14979613.66190539 0 0 0 0 0 98733357.75905137 -20160683.1686563 -20160683.1686563 -15183021.26856904 0 0 0 0 0 100020297.4553913 -19325870.79086498 -19325870.79086498 -15115554.47564383 0 0 0 0 0 101058375.8408065 -18494826.32709298 -18494826.32709298 -14067296.37011572 0 0 0 0 0 102114145.5267216 -17740164.50506769 -17740164.50506769 -14014481.38027332 0 0 0 0 0 102628532.3883276 -16784368.09644948 -16784368.09644948 -13545955.15292538 0 0 0 0 0 101374452.7285135 -17283858.52961633 -17283858.52961633 -14125948.94343569 0 0 0 0 0 103520622.6558163 -16053650.48408382 -16053650.48408382 -13455202.33644856 0 0 0 0 0 104341066.4566468 -15330553.74250985 -15330553.74250985 -13344677.94934403 0 0 0 0 0 105075281.7731943 -14624805.16971962 -14624805.16971962 -13221911.19529152 0 0 0 0 0 105734267.8625648 -13935864.32329007 -13935864.32329007 -13077908.67295542 0 0 0 0 0 105850740.5497537 -13184865.64326191 -13184865.64326191 -12618132.13811402 0 0 0 0 0 104980936.8797987 -13540467.08923248 -13540467.08923248 -13051218.23525353 0 0 0 0 0 106382563.1061164 -12554832.93291857 -12554832.93291857 -12456113.29059072 0 0 0 0 0 106860675.5275901 -11942081.0277346 -11942081.0277346 -12281438.49917278 0 0 0 0 0 107288647.2353051 -11347156.60825214 -11347156.60825214 -12095339.36507882 0 0 0 0 0 107669813.9277895 -10770441.01691595 -10770441.01691595 -11899842.0698593 0 0 0 0 0 108006031.5333497 -10214179.10324115 -10214179.10324115 -11697078.24074847 0 0 0 0 0 107310631.7118634 -9917969.891225459 -9917969.891225459 -11556247.50435898 0 0 0 0 0 108121606.4881374 -9186335.151916569 -9186335.151916569 -11068695.52037436 0 0 0 0 0 107618811.8944954 -9395113.960968303 -9395113.960968303 -11331425.26633855 0 0 0 0 0 108356360.2618064 -8697331.99891074 -8697331.99891074 -10859576.99784784 0 0 0 0 0 108560286.7101603 -8226119.291573494 -8226119.291573494 -10646135.4219825 0 0 0 0 0 108735500.8710757 -7772525.012772646 -7772525.012772646 -10429324.05542118 0 0 0 0 0 108884740.7511741 -7336332.402912196 -7336332.402912196 -10209723.51043923 0 0 0 0 0 108619995.127647 -6988868.107057065 -6988868.107057065 -9846393.390872195 0 0 0 0 0 108290884.5091357 -7125741.387864552 -7125741.387864552 -10018994.86590724 0 0 0 0 0 108731125.1626072 -6594703.527528085 -6594703.527528085 -9635141.10080502 0 0 0 0 0 108821632.5815067 -6216358.494256549 -6216358.494256549 -9422970.639750507 0 0 0 0 0 108892762.8585461 -5854275.988772706 -5854275.988772706 -9211463.807360481 0 0 0 0 0 108947013.9010864 -5507506.231579802 -5507506.231579802 -8999366.824273203 0 0 0 0 0 108986328.2657047 -5174529.918047592 -5174529.918047592 -8787369.793510459 0 0 0 0 0 108538125.7987987 -4721147.570811195 -4721147.570811195 -8367033.618204251 0 0 0 0 0 109011383.6050344 -4855448.910464033 -4855448.910464033 -8576595.457338788 0 0 0 0 0 108705744.3870197 -4653801.762773576 -4653801.762773576 -8288241.858534683 0 0 0 0 0 108715130.8283045 -4365231.934444731 -4365231.934444731 -8089508.535624864 0 0 0 0 0 108713602.0508542 -4089227.585248425 -4089227.585248425 -7892370.858968181 0 0 0 0 0 108701157.6741127 -3825991.593561697 -3825991.593561697 -7697387.160738764 0 0 0 0 0 108678908.5533199 -3574097.630872835 -3574097.630872835 -7503805.269409411 0 0 0 0 0 108649835.300582 -3333946.480766886 -3333946.480766886 -7312998.675751247 0 0 0 0 0 108272863.0898826 -3248028.447768074 -3248028.447768074 -7108854.208395987 0 0 0 0 0 108354076.2455039 -3218820.392792541 -3218820.392792541 -7086871.06215078 0 0 0 0 0 108317935.0127326 -3003127.441195013 -3003127.441195013 -6903940.283920287 0 0 0 0 0 108242446.8949418 -2811405.177772628 -2811405.177772628 -6755540.244786205 0 0 0 0 0 108201573.2761297 -2614125.813141122 -2614125.813141122 -6563320.550839146 0 0 0 0 0 107878403.8336378 -2548038.025641865 -2548038.025641865 -6374507.633205135 0 0 0 0 0 107926920.8990588 -2533073.100700343 -2533073.100700343 -6369133.785542981 0 0 0 0 0 107877781.9101364 -2351575.822920327 -2351575.822920327 -6206619.624019199 0 0 0 0 0 107824035.3338188 -2178073.726727277 -2178073.726727277 -6046909.083702249 0 0 0 0 0 107766079.7266916 -2012419.99610245 -2012419.99610245 -5890189.005680786 0 0 0 0 0 107703772.4263184 -1854229.740748523 -1854229.740748523 -5736135.032011242 0 0 0 0 0 107637970.2515858 -1704915.847440404 -1704915.847440404 -5585588.006002123 0 0 0 0 0 107564480.596592 -1566236.44055203 -1566236.44055203 -5448857.324327714 0 0 0 0 0 107324879.9331016 -1509313.010036705 -1509313.010036705 -5319194.186674331 0 0 0 0 0 107221055.8077656 -1438182.283163371 -1438182.283163371 -5223870.724327822 0 0 0 0 0 107099500.8469846 -1369988.227167832 -1369988.227167832 -5125328.414041081 0 0 0 0 0 106996102.4521623 -1304285.457600854 -1304285.457600854 -5019451.698875172 0 0 0 0 0 101512070.2074099 -18744297.33897832 -18744297.33897832 -14472583.90427123 0 0 0 0 0 245276.9284214776 112679.4761603001 112679.4761603001 -33205713.72368219 0 0 0 0 0 2164525.05077539 -2087612.445447164 -2087612.445447164 -30456486.90751376 0 0 0 0 0 3944434.65383077 -4161957.256793608 -4161957.256793608 -27312187.23251213 0 0 0 0 0 4806649.009429613 -6304279.783792639 -6304279.783792639 -24370946.59710068 0 0 0 0 0 6917929.989492328 -8850191.700797388 -8850191.700797388 -22688605.40650766 0 0 0 0 0 9542870.403923262 -11278411.68966677 -11278411.68966677 -21360248.31217353 0 0 0 0 0 15636656.09503002 -14775564.93300645 -14775564.93300645 -17101733.51197894 0 0 0 0 0 14670314.8261218 -15395697.46834085 -15395697.46834085 -18451956.58097239 0 0 0 0 0 19060984.26389987 -17073408.02380441 -17073408.02380441 -16266790.52576816 0 0 0 0 0 22776874.79882615 -19246505.63090664 -19246505.63090664 -15562446.82009181 0 0 0 0 0 26727031.58947127 -21265882.52407314 -21265882.52407314 -14997201.99865281 0 0 0 0 0 30863945.92286963 -23106939.9570444 -23106939.9570444 -14570125.72078645 0 0 0 0 0 35139167.86657774 -24751792.0294425 -24751792.0294425 -14276266.18291082 0 0 0 0 0 39502228.17595562 -26185682.21541947 -26185682.21541947 -14101902.05528334 0 0 0 0 0 43908555.14149825 -27401859.76952067 -27401859.76952067 -14038675.24454388 0 0 0 0 0 48314117.74385329 -28397066.74833178 -28397066.74833178 -14069106.82505387 0 0 0 0 0 51409115.90344781 -29967575.45406153 -29967575.45406153 -13937889.67608731 0 0 0 0 0 54489272.23082179 -28935534.33043204 -28935534.33043204 -13282269.18272275 0 0 0 0 0 58567772.87055481 -29416282.32172171 -29416282.32172171 -13535440.267698 0 0 0 0 0 62542424.02042504 -29707608.18555139 -29707608.18555139 -13820531.2176324 0 0 0 0 0 66389099.55724693 -29820974.48298678 -29820974.48298678 -14124281.71930167 0 0 0 0 0 71002087.10354218 -29249945.9669398 -29249945.9669398 -13802035.85483632 0 0 0 0 0 67960979.18796507 -30304674.94925568 -30304674.94925568 -14580273.5413283 0 0 0 0 0 74357962.52354266 -29031698.29990112 -29031698.29990112 -14138347.37359615 0 0 0 0 0 77549068.34634551 -28687851.02544784 -28687851.02544784 -14456528.81256298 0 0 0 0 0 80575548.74786632 -28231745.49439479 -28231745.49439479 -14746995.4870614 0 0 0 0 0 83437574.1616215 -27682815.16841389 -27682815.16841389 -15013559.04071407 0 0 0 0 0 86125108.77637585 -27051516.04471403 -27051516.04471403 -15250592.77639056 0 0 0 0 0 88639710.95825489 -26345984.2609596 -26345984.2609596 -15448125.94885912 0 0 0 0 0 88544078.4404045 -25974814.00342944 -25974814.00342944 -15916314.99011867 0 0 0 0 0 90905157.72456956 -25105500.75070859 -25105500.75070859 -15109629.19854742 0 0 0 0 0 92992168.21020493 -24323756.72046379 -24323756.72046379 -15239675.61210177 0 0 0 0 0 94929232.72721224 -23507770.20275991 -23507770.20275991 -15336138.42992335 0 0 0 0 0 96720761.92548886 -22665511.54834523 -22665511.54834523 -15395555.33317905 0 0 0 0 0 98348872.35145654 -21818826.44729311 -21818826.44729311 -15431902.70934461 0 0 0 0 0 99841922.49218173 -20959191.50564333 -20959191.50564333 -15412045.66498904 0 0 0 0 0 99115629.62996197 -20448319.12060228 -20448319.12060228 -15592514.9734417 0 0 0 0 0 100736662.517052 -19822185.28704785 -19822185.28704785 -14933819.7157665 0 0 0 0 0 101972946.0364636 -18989299.37836394 -18989299.37836394 -14876169.88458342 0 0 0 0 0 100772531.6624243 -18269139.58971174 -18269139.58971174 -14612554.22818959 0 0 0 0 0 101822982.8910233 -17481482.91976288 -17481482.91976288 -14502519.1704019 0 0 0 0 0 102332720.9103486 -16526985.32356693 -16526985.32356693 -14017542.30527079 0 0 0 0 0 103086340.6702586 -16984559.2930328 -16984559.2930328 -13930009.47314039 0 0 0 0 0 103223640.8458392 -15777772.45645034 -15777772.45645034 -13877672.05339226 0 0 0 0 0 104038835.1659251 -15042008.83651012 -15042008.83651012 -13720976.87330857 0 0 0 0 0 104779258.8103627 -14322237.9811646 -14322237.9811646 -13538940.14417642 0 0 0 0 0 105443391.5413332 -13627264.83113903 -13627264.83113903 -13347106.68673691 0 0 0 0 0 105573190.7466929 -12886487.89361519 -12886487.89361519 -12862012.47726406 0 0 0 0 0 106329222.6440869 -13267321.6169531 -13267321.6169531 -12914667.32626833 0 0 0 0 0 106109547.8548764 -12250518.11546944 -12250518.11546944 -12660564.89189101 0 0 0 0 0 106592851.051722 -11633437.10444891 -11633437.10444891 -12448420.99919745 0 0 0 0 0 107026360.7934531 -11035638.98403366 -11035638.98403366 -12227247.22008532 0 0 0 0 0 107414494.9693049 -10457958.30724266 -10457958.30724266 -11997690.57264566 0 0 0 0 0 107758630.0391586 -9901144.132584285 -9901144.132584285 -11762188.56426294 0 0 0 0 0 108303371.5536994 -9676653.437250739 -9676653.437250739 -11485472.20366684 0 0 0 0 0 107893175.1062451 -8889576.717938695 -8889576.717938695 -11101137.12138407 0 0 0 0 0 108565178.7697129 -9156884.182181636 -9156884.182181636 -11267523.86586947 0 0 0 0 0 108134861.3163538 -8402430.571128486 -8402430.571128486 -10867054.21933757 0 0 0 0 0 108345773.1229957 -7933732.318840672 -7933732.318840672 -10630529.27302087 0 0 0 0 0 108528302.2972333 -7483312.082549947 -7483312.082549947 -10392031.41132521 0 0 0 0 0 108684575.4890423 -7050862.022989757 -7050862.022989757 -10152714.77788764 0 0 0 0 0 108430807.782445 -6719142.421074511 -6719142.421074511 -9790754.492313994 0 0 0 0 0 109009558.1660971 -6917296.819682005 -6917296.819682005 -9988428.302064957 0 0 0 0 0 108548888.637374 -6328844.064763172 -6328844.064763172 -9562265.902599506 0 0 0 0 0 108646523.7908908 -5955138.475684671 -5955138.475684671 -9334004.240262836 0 0 0 0 0 108725293.7653569 -5597492.248165546 -5597492.248165546 -9107047.294818413 0 0 0 0 0 108786238.5863159 -5255006.923096191 -5255006.923096191 -8881833.776264256 0 0 0 0 0 108831353.5060996 -4927077.924796988 -4927077.924796988 -8658556.613060147 0 0 0 0 0 109023363.8032935 -4549967.419451482 -4549967.419451482 -8367322.269516015 0 0 0 0 0 108862501.3498183 -4613075.577986195 -4613075.577986195 -8437016.663244635 0 0 0 0 0 108565063.529738 -4424589.672230443 -4424589.672230443 -8156348.494680618 0 0 0 0 0 108579581.9085065 -4141320.158412291 -4141320.158412291 -7948597.792348418 0 0 0 0 0 108583723.8346155 -3870684.603719832 -3870684.603719832 -7742931.229831277 0 0 0 0 0 108576737.1597264 -3612007.958306386 -3612007.958306386 -7539750.405224478 0 0 0 0 0 108560668.2543001 -3365866.195302747 -3365866.195302747 -7339178.874049601 0 0 0 0 0 108538161.5469529 -3134601.393401378 -3134601.393401378 -7142839.65280775 0 0 0 0 0 108607874.2321455 -3111858.615171587 -3111858.615171587 -7135747.35015442 0 0 0 0 0 108234579.6381952 -3031292.832293681 -3031292.832293681 -6926694.484306497 0 0 0 0 0 108199348.3453969 -2816185.487325804 -2816185.487325804 -6738024.982442758 0 0 0 0 0 108169162.8173375 -2621851.428146023 -2621851.428146023 -6558048.311232392 0 0 0 0 0 108111918.6865407 -2434245.725465785 -2434245.725465785 -6389820.545964165 0 0 0 0 0 108152050.0052485 -2423873.164447579 -2423873.164447579 -6393562.772468463 0 0 0 0 0 107837369.5710979 -2362771.089730544 -2362771.089730544 -6206145.225360645 0 0 0 0 0 107791820.1339093 -2185467.091885387 -2185467.091885387 -6040598.906386092 0 0 0 0 0 107741700.0916138 -2016149.184358982 -2016149.184358982 -5878199.901079171 0 0 0 0 0 107687350.9076828 -1854401.859393492 -1854401.859393492 -5719012.96167713 0 0 0 0 0 107629453.9135008 -1700964.320074568 -1700964.320074568 -5561075.19501442 0 0 0 0 0 107568766.0228763 -1555671.345612414 -1555671.345612414 -5409773.586758835 0 0 0 0 0 107477331.0534847 -1438462.202470587 -1438462.202470587 -5267297.359964819 0 0 0 0 0 107400569.3215603 -1349653.083038257 -1349653.083038257 -5082827.456424946 0 0 0 0 0 107556052.3000568 -1381659.207004631 -1381659.207004631 -5186801.82901556 0 0 0 0 0 107273557.7773724 -1277507.758957497 -1277507.758957497 -4974532.771105062 0 0 0 0 0 107174198.3490743 -1212080.430308378 -1212080.430308378 -4871522.998862028 0 0 0 0 0 101209661.4036319 -18494391.52164925 -18494391.52164925 -15013018.17865697 0 0 0 0 0 -776757.2986872959 -1764556.758715899 -1764556.758715899 -36328786.0780673 0 0 0 0 0 262285.5341829603 -3753593.287780969 -3753593.287780969 -33071757.92221862 0 0 0 0 0 1055524.495344828 -5238098.999194998 -5238098.999194998 -28976122.94435543 0 0 0 0 0 4024537.602635271 -7255706.429284104 -7255706.429284104 -26591302.65121778 0 0 0 0 0 6697101.037012413 -9517148.797378741 -9517148.797378741 -25045661.98812752 0 0 0 0 0 9051720.871664023 -11930874.95806002 -11930874.95806002 -23349218.75948725 0 0 0 0 0 11752066.56252002 -14389041.92433523 -14389041.92433523 -21743480.24713426 0 0 0 0 0 17755157.30013655 -17735161.99970106 -17735161.99970106 -17412189.00659932 0 0 0 0 0 12588358.03746649 -13725490.89197842 -13725490.89197842 -20086076.45812615 0 0 0 0 0 21143038.75703209 -19956121.16298544 -19956121.16298544 -16538417.67618062 0 0 0 0 0 24782641.34931111 -22027943.88421866 -22027943.88421866 -15839406.79249926 0 0 0 0 0 28635812.11926958 -23923455.44687185 -23923455.44687185 -15312970.94149336 0 0 0 0 0 32652341.9679934 -25621889.69623671 -25621889.69623671 -14948904.14805156 0 0 0 0 0 36794984.68489761 -27108852.36483496 -27108852.36483496 -14733486.73936391 0 0 0 0 0 41012567.28826572 -28373130.68479214 -28373130.68479214 -14650305.69264083 0 0 0 0 0 45263903.21903836 -29410769.13121966 -29410769.13121966 -14679091.91959169 0 0 0 0 0 49508451.04927332 -30222056.96204027 -30222056.96204027 -14799452.31361991 0 0 0 0 0 52679527.48219375 -29172727.0070164 -29172727.0070164 -14176597.94777443 0 0 0 0 0 55421911.3763576 -30473437.41017711 -30473437.41017711 -14215470.16196818 0 0 0 0 0 59359881.16262987 -30781713.10872722 -30781713.10872722 -14526976.46711621 0 0 0 0 0 63198050.16338767 -30904468.06836459 -30904468.06836459 -14857460.25483229 0 0 0 0 0 66915740.13985267 -30854985.1510362 -30854985.1510362 -15192517.84987762 0 0 0 0 0 71358223.81799504 -30078203.0722965 -30078203.0722965 -14935493.76712427 0 0 0 0 0 70087931.13556303 -29769997.1504943 -29769997.1504943 -14434480.01546458 0 0 0 0 0 74611192.8263226 -29721582.38719134 -29721582.38719134 -15267125.59760227 0 0 0 0 0 77708932.63340485 -29247906.58106752 -29247906.58106752 -15569228.79083769 0 0 0 0 0 80657143.40933378 -28675842.40051982 -28675842.40051982 -15842650.02553809 0 0 0 0 0 83444294.8662113 -28014513.95307765 -28014513.95307765 -16077183.31472895 0 0 0 0 0 86063542.86630535 -27277834.00806409 -27277834.00806409 -16268763.66635223 0 0 0 0 0 88519917.47739595 -26479533.26299918 -26479533.26299918 -16417713.60561585 0 0 0 0 0 90983821.92212275 -25581711.50700252 -25581711.50700252 -15607326.80199533 0 0 0 0 0 90736480.73292513 -25162031.64868994 -25162031.64868994 -16037531.71391318 0 0 0 0 0 92783799.93449321 -24310930.77397487 -24310930.77397487 -16115439.20594787 0 0 0 0 0 94687151.60390192 -23431554.15541975 -23431554.15541975 -16153192.49124239 0 0 0 0 0 96456505.51718996 -22540303.47836085 -22540303.47836085 -16148791.93633258 0 0 0 0 0 98060996.29350911 -21632825.6078705 -21632825.6078705 -16096352.53783576 0 0 0 0 0 99536051.7497834 -20730226.16618825 -20730226.16618825 -16026062.80972383 0 0 0 0 0 101195978.7708457 -20096685.63696909 -20096685.63696909 -15367980.90276517 0 0 0 0 0 100430404.674215 -19587396.00577398 -19587396.00577398 -15520234.34814824 0 0 0 0 0 101652709.8591049 -18718118.43242221 -18718118.43242221 -15399327.08469978 0 0 0 0 0 102593676.9047851 -17954701.64069925 -17954701.64069925 -14409746.67846177 0 0 0 0 0 103584931.2192202 -17164240.98790491 -17164240.98790491 -14307217.99991784 0 0 0 0 0 103991791.9921055 -16221317.1847044 -16221317.1847044 -13812530.96245157 0 0 0 0 0 102786452.893765 -16697666.89153896 -16697666.89153896 -14367957.69888444 0 0 0 0 0 104819831.0611019 -15477234.92726317 -15477234.92726317 -13691712.88958446 0 0 0 0 0 105565039.1072228 -14744494.30057098 -14744494.30057098 -13546175.28826094 0 0 0 0 0 106232969.614321 -14032185.34873778 -14032185.34873778 -13388798.80466156 0 0 0 0 0 106831458.7529044 -13339637.04930732 -13339637.04930732 -13210827.4537012 0 0 0 0 0 106863759.8058978 -12615818.55276362 -12615818.55276362 -12737572.75887511 0 0 0 0 0 106041791.6081213 -12950447.55403778 -12950447.55403778 -13141331.09081666 0 0 0 0 0 107342505.6891312 -11982740.53354943 -11982740.53354943 -12547912.67743521 0 0 0 0 0 107769098.577103 -11368921.38524236 -11368921.38524236 -12347059.92966142 0 0 0 0 0 108147334.8674118 -10774939.62662439 -10774939.62662439 -12136697.87656411 0 0 0 0 0 108479799.8422334 -10202130.28841035 -10202130.28841035 -11919231.71902983 0 0 0 0 0 108770461.4169181 -9650007.190042293 -9650007.190042293 -11694732.46181502 0 0 0 0 0 108061515.5976005 -9364285.402666057 -9364285.402666057 -11523718.70798132 0 0 0 0 0 108792880.5199387 -8655423.734570539 -8655423.734570539 -11045161.1170135 0 0 0 0 0 108330662.8646559 -8845463.540194431 -8845463.540194431 -11279322.28838069 0 0 0 0 0 108989103.9602189 -8172670.67804148 -8172670.67804148 -10818934.23464477 0 0 0 0 0 109156612.4199786 -7708573.29405504 -7708573.29405504 -10589526.59576865 0 0 0 0 0 109296719.0959625 -7262850.427835922 -7262850.427835922 -10358018.88318925 0 0 0 0 0 109412307.1500248 -6835205.42088986 -6835205.42088986 -10124977.83461121 0 0 0 0 0 109112148.8524648 -6515202.417859046 -6515202.417859046 -9765973.497873949 0 0 0 0 0 108816583.9458621 -6636084.881352986 -6636084.881352986 -9913081.306910042 0 0 0 0 0 109194220.6751537 -6129574.856829079 -6129574.856829079 -9543139.287847552 0 0 0 0 0 109256283.0456434 -5760855.657184632 -5760855.657184632 -9320979.394188188 0 0 0 0 0 109301419.3772364 -5407920.57042536 -5407920.57042536 -9099334.841919292 0 0 0 0 0 109331043.9776061 -5069968.816646894 -5069968.816646894 -8878093.926624589 0 0 0 0 0 109346644.8579 -4746466.732814014 -4746466.732814014 -8658078.353825582 0 0 0 0 0 108880540.0073641 -4312961.198350891 -4312961.198350891 -8217889.616330188 0 0 0 0 0 109348994.3965914 -4437192.347401455 -4437192.347401455 -8440248.088377172 0 0 0 0 0 109023056.4822074 -4258180.183993941 -4258180.183993941 -8160474.710089269 0 0 0 0 0 109012523.0350705 -3979219.189342075 -3979219.189342075 -7955374.634381409 0 0 0 0 0 108991615.9431865 -3712820.633350252 -3712820.633350252 -7752795.595924909 0 0 0 0 0 108961451.6346008 -3458418.356565037 -3458418.356565037 -7552585.992339816 0 0 0 0 0 108920592.9573804 -3216795.635971303 -3216795.635971303 -7355791.532592129 0 0 0 0 0 108869161.2665666 -2995888.381752225 -2995888.381752225 -7171879.791484207 0 0 0 0 0 108497943.4820018 -2917418.564380601 -2917418.564380601 -6953543.109327485 0 0 0 0 0 108562929.134979 -2899258.725812105 -2899258.725812105 -6948693.031662279 0 0 0 0 0 108506743.4318325 -2690801.161760525 -2690801.161760525 -6764258.093656895 0 0 0 0 0 108439989.2108901 -2494569.173790763 -2494569.173790763 -6592878.191360825 0 0 0 0 0 108381707.3800991 -2308739.693886473 -2308739.693886473 -6412753.090104132 0 0 0 0 0 108061835.8065769 -2249501.728099639 -2249501.728099639 -6218196.3386812 0 0 0 0 0 108095973.295459 -2242050.908227724 -2242050.908227724 -6226421.040894206 0 0 0 0 0 108035344.7176452 -2068140.899982072 -2068140.899982072 -6062155.881043839 0 0 0 0 0 107971026.6194898 -1902237.598308584 -1902237.598308584 -5900880.109938443 0 0 0 0 0 107903427.966997 -1743767.849447472 -1743767.849447472 -5742691.286182641 0 0 0 0 0 107829806.8824206 -1592290.379341568 -1592290.379341568 -5587159.615575926 0 0 0 0 0 107756860.611502 -1456055.335267175 -1456055.335267175 -5442742.10642935 0 0 0 0 0 107631425.7222313 -1369544.615833976 -1369544.615833976 -5350397.006743187 0 0 0 0 0 107372760.2973631 -1286379.44740185 -1286379.44740185 -5193100.820048073 0 0 0 0 0 107469390.8015265 -1335871.099218709 -1335871.099218709 -5269806.896070709 0 0 0 0 0 107268170.6861604 -1218715.95443978 -1218715.95443978 -5071723.713681688 0 0 0 0 0 107156264.2094901 -1154235.805810323 -1154235.805810323 -4968508.257554668 0 0 0 0 0 103090544.8146109 -18158349.52116248 -18158349.52116248 -14790510.72499585 0 0 0 0 0 -1573378.806005447 402125.0633293371 402125.0633293371 -39916976.4338803 0 0 0 0 0 -767263.3027825817 -1346325.772642915 -1346325.772642915 -35980341.88233217 0 0 0 0 0 2986030.82292988 -5447765.97263157 -5447765.97263157 -32258421.48221233 0 0 0 0 0 1996869.44819162 -5435715.017563591 -5435715.017563591 -28847545.92033906 0 0 0 0 0 4097889.379791908 -7493144.766589359 -7493144.766589359 -27139994.31949358 0 0 0 0 0 6603097.538706218 -9925516.207924966 -9925516.207924966 -25297129.71819085 0 0 0 0 0 9537899.197100533 -12411212.53937137 -12411212.53937137 -23617044.50091486 0 0 0 0 0 16003509.27481389 -16115482.80834441 -16115482.80834441 -18932893.28889445 0 0 0 0 0 14810788.32554301 -16805930.97313425 -16805930.97313425 -20310882.54453704 0 0 0 0 0 19740974.26576526 -18406058.26954348 -18406058.26954348 -17929154.8221688 0 0 0 0 0 23759436.73399194 -20560928.01857017 -20560928.01857017 -17082447.07810573 0 0 0 0 0 28002414.74215659 -22547611.48162059 -22547611.48162059 -16399804.72599933 0 0 0 0 0 32416711.24133318 -24341712.01382252 -24341712.01382252 -15876181.8325643 0 0 0 0 0 36949001.67321389 -25923450.0376225 -25923450.0376225 -15502956.05548929 0 0 0 0 0 41545055.76038606 -27280468.20182857 -27280468.20182857 -15266232.17349529 0 0 0 0 0 46156146.82839183 -28405414.21079644 -28405414.21079644 -15150036.7379259 0 0 0 0 0 50737565.17108986 -29297284.52177668 -29297284.52177668 -15135636.888769 0 0 0 0 0 53715088.75460882 -30813094.60852848 -30813094.60852848 -14990979.73254324 0 0 0 0 0 56967343.66929184 -29735677.89259196 -29735677.89259196 -14347613.42632977 0 0 0 0 0 61149630.54294575 -30095054.26654799 -30095054.26654799 -14565378.58821252 0 0 0 0 0 65200199.07318919 -30261714.61378175 -30261714.61378175 -14814558.89019686 0 0 0 0 0 69098448.84690449 -30250450.34248597 -30250450.34248597 -15081895.47482312 0 0 0 0 0 73623500.21448307 -29569767.65329158 -29569767.65329158 -14742407.99128012 0 0 0 0 0 70494129.70733646 -30648202.83620755 -30648202.83620755 -15521277.02529262 0 0 0 0 0 76980962.6058763 -29234053.62374032 -29234053.62374032 -15035610.67624209 0 0 0 0 0 80160124.5908649 -28777675.98102238 -28777675.98102238 -15307673.21524575 0 0 0 0 0 83164156.55437343 -28217703.61405725 -28217703.61405725 -15554995.15503343 0 0 0 0 0 85982496.91239537 -27567822.83220714 -27567822.83220714 -15773385.20352158 0 0 0 0 0 88616467.90560029 -26840505.90598426 -26840505.90598426 -15956089.55712118 0 0 0 0 0 91067704.32295658 -26049686.14291485 -26049686.14291485 -16102534.52810291 0 0 0 0 0 90813046.02725296 -25631811.97272399 -25631811.97272399 -16523331.51963276 0 0 0 0 0 93160828.65294144 -24767843.40294144 -24767843.40294144 -15725822.98762112 0 0 0 0 0 95176695.94845153 -23919510.3954768 -23919510.3954768 -15809111.36100134 0 0 0 0 0 97038048.42258145 -23042825.08130372 -23042825.08130372 -15854738.66136904 0 0 0 0 0 98741550.1878213 -22153351.78733872 -22153351.78733872 -15866365.73532963 0 0 0 0 0 100294584.1428226 -21255339.77401605 -21255339.77401605 -15848207.56332083 0 0 0 0 0 101713061.7987609 -20347319.01456827 -20347319.01456827 -15778986.0166255 0 0 0 0 0 100885354.1904347 -19831672.21049986 -19831672.21049986 -15910616.70309715 0 0 0 0 0 102456831.7929262 -19227821.03163211 -19227821.03163211 -15278061.36869129 0 0 0 0 0 103602772.49503 -18364307.87636684 -18364307.87636684 -15172213.0900854 0 0 0 0 0 102286739.5467513 -17672647.22082435 -17672647.22082435 -14878264.91855779 0 0 0 0 0 103275117.8648424 -16860613.18174182 -16860613.18174182 -14722182.22261433 0 0 0 0 0 103685112.8920613 -15928256.85944072 -15928256.85944072 -14222063.24883715 0 0 0 0 0 104497709.7287921 -16382350.88682659 -16382350.88682659 -14179095.30677232 0 0 0 0 0 104513874.8423176 -15164910.8014079 -15164910.8014079 -14042393.02180078 0 0 0 0 0 105256065.2962034 -14425130.98788178 -14425130.98788178 -13850362.41138526 0 0 0 0 0 105930810.8875721 -13702731.33253109 -13702731.33253109 -13639362.725397 0 0 0 0 0 106534089.792052 -13003192.53603148 -13003192.53603148 -13416754.7370445 0 0 0 0 0 106581209.2570885 -12293134.39827138 -12293134.39827138 -12923609.65727553 0 0 0 0 0 107368271.4555699 -12666270.01223628 -12666270.01223628 -13017398.43960435 0 0 0 0 0 107065710.9740611 -11656073.30189017 -11656073.30189017 -12695514.20313256 0 0 0 0 0 107498923.9981512 -11040046.77241972 -11040046.77241972 -12458604.23559574 0 0 0 0 0 107884441.4167381 -10445269.39130902 -10445269.39130902 -12213897.97384231 0 0 0 0 0 108225033.5517404 -9872500.040434273 -9872500.040434273 -11963505.68093598 0 0 0 0 0 108523778.4241877 -9320774.496754728 -9320774.496754728 -11708978.91385958 0 0 0 0 0 109025770.8463308 -9116255.141706057 -9116255.141706057 -11461753.78596799 0 0 0 0 0 108565675.782354 -8346402.808957689 -8346402.808957689 -11031968.65455648 0 0 0 0 0 109246196.9044812 -8602217.133824741 -8602217.133824741 -11225800.13310689 0 0 0 0 0 108769385.9299459 -7866954.841550958 -7866954.841550958 -10782333.14230785 0 0 0 0 0 108944108.5118872 -7406445.154326339 -7406445.154326339 -10531491.82274343 0 0 0 0 0 109092436.6776973 -6964814.526126339 -6964814.526126339 -10279657.07865984 0 0 0 0 0 109215530.2190907 -6542034.430970246 -6542034.430970246 -10028442.89608309 0 0 0 0 0 108926039.282863 -6238569.055558875 -6238569.055558875 -9673790.218668064 0 0 0 0 0 109505301.7154442 -6425375.6699173 -6425375.6699173 -9891301.053307123 0 0 0 0 0 109015158.6065924 -5858111.633663802 -5858111.633663802 -9435333.530753756 0 0 0 0 0 109085262.9914731 -5493911.234197158 -5493911.234197158 -9197822.966564665 0 0 0 0 0 109137359.7958109 -5146144.030472456 -5146144.030472456 -8962903.257551329 0 0 0 0 0 109173678.0822274 -4813595.064354465 -4813595.064354465 -8730265.258024592 0 0 0 0 0 109195651.4489781 -4495595.667265909 -4495595.667265909 -8499914.138088543 0 0 0 0 0 109339254.6172157 -4142071.495089761 -4142071.495089761 -8224957.043124781 0 0 0 0 0 109204541.8000793 -4192071.599696548 -4192071.599696548 -8272323.31406764 0 0 0 0 0 108886493.7177082 -4026480.869696109 -4026480.869696109 -8001839.362783367 0 0 0 0 0 108881153.3645864 -3753124.803105527 -3753124.803105527 -7789187.544560277 0 0 0 0 0 108866009.5129814 -3491960.520688516 -3491960.520688516 -7579150.334381689 0 0 0 0 0 108841421.390942 -3243106.489600603 -3243106.489600603 -7371996.222066312 0 0 0 0 0 108813203.0704449 -3010690.830903987 -3010690.830903987 -7165146.84820296 0 0 0 0 0 108765063.5209448 -2792312.567411533 -2792312.567411533 -6971184.074837773 0 0 0 0 0 108811538.6218732 -2785624.609446278 -2785624.609446278 -6986260.130426168 0 0 0 0 0 108445961.5283326 -2706663.589457306 -2706663.589457306 -6765017.487088089 0 0 0 0 0 108390931.5707881 -2506263.710080998 -2506263.710080998 -6582665.976499388 0 0 0 0 0 108351645.6579765 -2314221.232240607 -2314221.232240607 -6400406.683419303 0 0 0 0 0 108291449.6309011 -2130020.51342438 -2130020.51342438 -6224345.600034969 0 0 0 0 0 108318113.5686289 -2126708.816216717 -2126708.816216717 -6240439.711202387 0 0 0 0 0 108009625.521448 -2071686.477384445 -2071686.477384445 -6047986.583161881 0 0 0 0 0 107952851.1395304 -1902240.512774937 -1902240.512774937 -5881193.387597753 0 0 0 0 0 107892142.1419293 -1740563.312444258 -1740563.312444258 -5718075.227288299 0 0 0 0 0 107827432.6939866 -1585734.312613926 -1585734.312613926 -5559232.886398605 0 0 0 0 0 107762200.2004061 -1443259.177679411 -1443259.177679411 -5396191.110814157 0 0 0 0 0 107703465.0221453 -1318735.176006437 -1318735.176006437 -5235144.345560871 0 0 0 0 0 107665027.7901162 -1237697.689892992 -1237697.689892992 -5102717.322748016 0 0 0 0 0 107570407.4608127 -1178442.665653327 -1178442.665653327 -5023240.612714984 0 0 0 0 0 107460976.4440665 -1121847.407310929 -1121847.407310929 -4917426.162324531 0 0 0 0 0 107341833.9045896 -1057529.879251957 -1057529.879251957 -4813557.131843184 0 0 0 0 0 102768483.857904 -17860659.32404366 -17860659.32404366 -15253394.83038972 0 0 0 0 0 -2374592.177014299 -1758956.693312954 -1758956.693312954 -43582037.53449825 0 0 0 0 0 -1474236.781124917 -3209063.847219133 -3209063.847219133 -40063385.55509291 0 0 0 0 0 274462.1274015879 -4954223.271748544 -4954223.271748544 -37850289.11469061 0 0 0 0 0 898.5288040044767 -3976627.15754782 -3976627.15754782 -33315996.22132829 0 0 0 0 0 4113764.910701838 -8155621.580744712 -8155621.580744712 -29939802.74558985 0 0 0 0 0 6302147.808666963 -10634545.009969 -10634545.009969 -27710280.88668737 0 0 0 0 0 8889638.275278801 -13116295.43695467 -13116295.43695467 -25639200.99587263 0 0 0 0 0 11872878.12563769 -15597766.10120977 -15597766.10120977 -23736246.07817526 0 0 0 0 0 18198453.58589873 -19132692.02307586 -19132692.02307586 -19070860.97716386 0 0 0 0 0 12894626.88862098 -14882533.46294447 -14882533.46294447 -22078083.96441976 0 0 0 0 0 21886825.19048262 -21331125.1734276 -21331125.1734276 -18034793.72120716 0 0 0 0 0 25817852.6546365 -23367403.14225303 -23367403.14225303 -17204893.18103922 0 0 0 0 0 29946592.62424659 -25213819.36716795 -25213819.36716795 -16574450.89284612 0 0 0 0 0 34224682.91733291 -26848016.01209458 -26848016.01209458 -16130492.49946489 0 0 0 0 0 38604440.04230432 -28255231.135315 -28255231.135315 -15854076.49580102 0 0 0 0 0 43037819.05459362 -29425836.7331722 -29425836.7331722 -15722113.02780019 0 0 0 0 0 47481042.62494773 -30356991.96738498 -30356991.96738498 -15709998.86290225 0 0 0 0 0 51893140.20566078 -31052285.55825432 -31052285.55825432 -15794975.34072525 0 0 0 0 0 55247581.85395554 -29960318.3420089 -29960318.3420089 -15204753.27260602 0 0 0 0 0 57850865.0853174 -31192211.51444892 -31192211.51444892 -15234005.25878571 0 0 0 0 0 61887468.26379691 -31371227.58230504 -31371227.58230504 -15510296.40433645 0 0 0 0 0 65800286.02476746 -31363251.09853286 -31363251.09853286 -15803007.76011558 0 0 0 0 0 69567050.57347216 -31184407.74172674 -31184407.74172674 -16097585.17502809 0 0 0 0 0 73915239.25225182 -30299597.93824024 -30299597.93824024 -15830486.42628256 0 0 0 0 0 72824323.6950722 -30076062.36491625 -30076062.36491625 -15353373.13520251 0 0 0 0 0 77171321.81528528 -29824372.08836532 -29824372.08836532 -16114570.49764941 0 0 0 0 0 80262611.07149798 -29241463.409724 -29241463.409724 -16371616.64408199 0 0 0 0 0 83185805.33570312 -28562638.9433686 -28562638.9433686 -16590590.40651978 0 0 0 0 0 85931381.27682142 -27802739.30203489 -27802739.30203489 -16769536.34696601 0 0 0 0 0 88501814.26623549 -26976008.40717562 -26976008.40717562 -16906124.5931197 0 0 0 0 0 90898153.34763238 -26095507.85654779 -26095507.85654779 -16999133.46030686 0 0 0 0 0 93341402.10495192 -25206403.60855442 -25206403.60855442 -16208033.90003796 0 0 0 0 0 92948649.79334724 -24745660.27527404 -24745660.27527404 -16587646.41806746 0 0 0 0 0 94928203.30978858 -23830161.94482037 -23830161.94482037 -16610786.84249508 0 0 0 0 0 96761975.8692643 -22897450.59931718 -22897450.59931718 -16593620.78655436 0 0 0 0 0 98439976.23358104 -21953033.56718249 -21953033.56718249 -16540231.92996032 0 0 0 0 0 99979623.0144154 -21006681.45105964 -21006681.45105964 -16439773.88181388 0 0 0 0 0 101386507.1113623 -20061236.87924216 -20061236.87924216 -16314791.20225506 0 0 0 0 0 102988126.5052921 -19455208.16040222 -19455208.16040222 -15692861.44724757 0 0 0 0 0 102128236.0874238 -18930365.04162075 -18930365.04162075 -15773798.4657137 0 0 0 0 0 103264648.0744497 -18045524.27300385 -18045524.27300385 -15622458.67388489 0 0 0 0 0 104108258.2075627 -17340822.18165217 -17340822.18165217 -14678154.48455247 0 0 0 0 0 105026815.0353816 -16535434.04414888 -16535434.04414888 -14547443.92752746 0 0 0 0 0 105334177.5758107 -15610116.04121416 -15610116.04121416 -14035104.16469229 0 0 0 0 0 104179952.2025916 -16065948.18042556 -16065948.18042556 -14561186.17336975 0 0 0 0 0 106082312.0455795 -14853374.72566108 -14853374.72566108 -13876938.60467936 0 0 0 0 0 106755480.3983469 -14118926.61540787 -14118926.61540787 -13697143.00126573 0 0 0 0 0 107358373.3119936 -13401133.06094733 -13401133.06094733 -13503165.03432466 0 0 0 0 0 107896451.6428611 -12705353.49865338 -12705353.49865338 -13293417.67589226 0 0 0 0 0 107846763.9549461 -12012592.55360139 -12012592.55360139 -12811725.26935816 0 0 0 0 0 107076059.7286436 -12324288.9310651 -12324288.9310651 -13182271.91832468 0 0 0 0 0 108271506.5759726 -11379488.30334016 -11379488.30334016 -12595239.10136363 0 0 0 0 0 108645889.1249868 -10767700.31745983 -10767700.31745983 -12369456.40155636 0 0 0 0 0 108973326.0659731 -10178101.03151925 -10178101.03151925 -12136776.65358203 0 0 0 0 0 109257975.804382 -9610558.956582036 -9610558.956582036 -11897075.79053288 0 0 0 0 0 109504570.6209054 -9063281.815185856 -9063281.815185856 -11651074.42124571 0 0 0 0 0 108785073.1683203 -8789716.978690904 -8789716.978690904 -11451304.79012128 0 0 0 0 0 109434009.9673796 -8108044.31776356 -8108044.31776356 -10986305.17507398 0 0 0 0 0 109013268.2397395 -8278634.68922743 -8278634.68922743 -11190129.24218521 0 0 0 0 0 109591920.6283372 -7633583.337135455 -7633583.337135455 -10744199.49334084 0 0 0 0 0 109723286.5591307 -7178116.832862357 -7178116.832862357 -10499934.38527111 0 0 0 0 0 109828738.3371208 -6741961.261840075 -6741961.261840075 -10255077.94942322 0 0 0 0 0 109911229.9390571 -6324464.603520794 -6324464.603520794 -10009739.91638328 0 0 0 0 0 109577499.7415291 -6032952.709594664 -6032952.709594664 -9657498.381570421 0 0 0 0 0 109315979.3301864 -6137338.384112149 -6137338.384112149 -9777828.069428746 0 0 0 0 0 109630546.2783232 -5657594.447435209 -5657594.447435209 -9424331.156917231 0 0 0 0 0 109665667.9320294 -5298795.675947983 -5298795.675947983 -9192777.208404088 0 0 0 0 0 109685199.6157946 -4955810.949086553 -4955810.949086553 -8961946.472432708 0 0 0 0 0 109690724.8155068 -4627977.337105785 -4627977.337105785 -8732764.619561678 0 0 0 0 0 109683140.3319885 -4315030.146766235 -4315030.146766235 -8506032.363835465 0 0 0 0 0 109201042.1864261 -3902694.187038766 -3902694.187038766 -8048131.09260507 0 0 0 0 0 109663359.3654372 -4016729.002230198 -4016729.002230198 -8282263.670328968 0 0 0 0 0 109318766.5614556 -3860432.879653824 -3860432.879653824 -8012178.320445654 0 0 0 0 0 109288820.648461 -3591535.931641701 -3591535.931641701 -7801670.294488595 0 0 0 0 0 109249674.3679087 -3334862.626916886 -3334862.626916886 -7594428.993486003 0 0 0 0 0 109201940.6159963 -3090147.491277802 -3090147.491277802 -7390051.715207148 0 0 0 0 0 109134238.9922768 -2869626.974766633 -2869626.974766633 -7201279.204211215 0 0 0 0 0 109066550.9173913 -2661839.983981445 -2661839.983981445 -7012403.693350284 0 0 0 0 0 108704125.174795 -2585971.83432543 -2585971.83432543 -6781547.699049942 0 0 0 0 0 108749475.1341309 -2578238.792393458 -2578238.792393458 -6794086.265611469 0 0 0 0 0 108685561.8152962 -2375911.6992263 -2375911.6992263 -6604328.176681939 0 0 0 0 0 108614698.3995304 -2185674.233771665 -2185674.233771665 -6428930.726587217 0 0 0 0 0 108543948.4278164 -2004752.908497417 -2004752.908497417 -6249160.21240411 0 0 0 0 0 108231304.609396 -1951861.118562664 -1951861.118562664 -6049294.311813219 0 0 0 0 0 108250139.1225903 -1952359.183978138 -1952359.183978138 -6071648.727835586 0 0 0 0 0 108178759.9423626 -1786416.368529906 -1786416.368529906 -5905932.100917605 0 0 0 0 0 108104555.7229535 -1628412.328419841 -1628412.328419841 -5743612.525270471 0 0 0 0 0 108028496.4564874 -1477463.110213319 -1477463.110213319 -5584834.179133786 0 0 0 0 0 107927495.2719179 -1341330.586277863 -1341330.586277863 -5436831.493767397 0 0 0 0 0 107814214.6737145 -1240970.390263463 -1240970.390263463 -5317691.910506978 0 0 0 0 0 107679757.0562927 -1167996.965901582 -1167996.965901582 -5220659.53068254 0 0 0 0 0 107542738.0867929 -1122177.110868015 -1122177.110868015 -5127588.995476394 0 0 0 0 0 107427024.4028476 -1060728.627590992 -1060728.627590992 -5020640.642373399 0 0 0 0 0 107315116.1179039 -999785.2777083098 -999785.2777083098 -4908882.241475523 0 0 0 0 0 104645543.6257642 -17510443.00488357 -17510443.00488357 -15048089.07296973 0 0 0 0 0 -2929117.217360661 787812.8699196102 787812.8699196102 -47921271.17389935 0 0 0 0 0 -2468600.798031738 -606675.1635875499 -606675.1635875499 -43277811.14692423 0 0 0 0 0 -1550274.385670142 -2247517.450963419 -2247517.450963419 -39889044.37238434 0 0 0 0 0 1578837.237143892 -7117677.671810643 -7117677.671810643 -35836372.22811599 0 0 0 0 0 1684779.749061774 -6019935.607028908 -6019935.607028908 -31923135.80558753 0 0 0 0 0 3803431.761326454 -8335541.013756833 -8335541.013756833 -29871747.74472024 0 0 0 0 0 6543575.724787988 -10791756.8488923 -10791756.8488923 -27779187.1755399 0 0 0 0 0 9778670.20175118 -13317977.21057891 -13317977.21057891 -25787253.33731001 0 0 0 0 0 16625814.21304829 -17289092.51411396 -17289092.51411396 -20702384.56251782 0 0 0 0 0 15231798.57288416 -18026523.25830975 -18026523.25830975 -22044867.6348254 0 0 0 0 0 20681001.75876128 -19585421.0705492 -19585421.0705492 -19511859.12031301 0 0 0 0 0 25005367.38447005 -21732456.16748438 -21732456.16748438 -18511648.49127555 0 0 0 0 0 29541718.02896854 -23695238.27729733 -23695238.27729733 -17704376.36338461 0 0 0 0 0 34233860.30825479 -25447386.11629755 -25447386.11629755 -17081294.61595874 0 0 0 0 0 39022081.29654986 -26969039.85813118 -26969039.85813118 -16629080.27604527 0 0 0 0 0 43845221.57090513 -28248405.29244146 -28248405.29244146 -16330017.9333653 0 0 0 0 0 48649567.1508012 -29280067.29950695 -29280067.29950695 -16163496.82446077 0 0 0 0 0 53392047.53881997 -30065857.43037331 -30065857.43037331 -16107607.34020316 0 0 0 0 0 56237325.46681535 -31518711.78903059 -31518711.78903059 -15953281.14785702 0 0 0 0 0 59651847.49646295 -30403454.60243127 -30403454.60243127 -15339403.19243887 0 0 0 0 0 63921112.17947015 -30638217.94407847 -30638217.94407847 -15521434.20480058 0 0 0 0 0 68029329.45051713 -30678818.4042086 -30678818.4042086 -15734497.40308837 0 0 0 0 0 71960623.48575927 -30541730.71620136 -30541730.71620136 -15962612.19732778 0 0 0 0 0 76365491.52095284 -29755152.25082706 -29755152.25082706 -15618121.7536756 0 0 0 0 0 73170733.62749055 -30850739.82630511 -30850739.82630511 -16382112.88977533 0 0 0 0 0 79712233.52197093 -29303407.18441733 -29303407.18441733 -15867463.58755093 0 0 0 0 0 82869636.3753984 -28737317.7179004 -28737317.7179004 -16092087.58671942 0 0 0 0 0 85828752.2669711 -28073464.87388816 -28073464.87388816 -16291263.40961904 0 0 0 0 0 88590728.31317575 -27326050.4689098 -27326050.4689098 -16457980.84250298 0 0 0 0 0 91156777.31618083 -26509505.81111829 -26509505.81111829 -16588683.748308 0 0 0 0 0 93531967.72477008 -25637015.70552123 -25637015.70552123 -16681058.7423922 0 0 0 0 0 93125947.52265009 -25173618.43643995 -25173618.43643995 -17049390.68352348 0 0 0 0 0 95440835.07079461 -24325261.98135524 -24325261.98135524 -16277743.3438301 0 0 0 0 0 97372858.54688579 -23414691.25740072 -23414691.25740072 -16308722.10645998 0 0 0 0 0 99143011.56995367 -22486658.48217865 -22486658.48217865 -16303979.00274429 0 0 0 0 0 100761033.4509315 -21545438.40154342 -21545438.40154342 -16260164.86744268 0 0 0 0 0 102232234.9020719 -20602115.41434342 -20602115.41434342 -16183312.9086409 0 0 0 0 0 103571496.79069 -19653782.43259571 -19653782.43259571 -16068194.09585539 0 0 0 0 0 102661456.8350944 -19110619.89980482 -19110619.89980482 -16120788.99960525 0 0 0 0 0 104139828.1818255 -18561695.09880492 -18561695.09880492 -15554453.93401706 0 0 0 0 0 105210032.1880893 -17672763.27007421 -17672763.27007421 -15406721.75967538 0 0 0 0 0 103782178.8019275 -17018939.84580227 -17018939.84580227 -15082519.76021434 0 0 0 0 0 104702078.1711413 -16191374.54513478 -16191374.54513478 -14889081.05781154 0 0 0 0 0 105014956.7982902 -15277641.50974413 -15277641.50974413 -14364514.95279024 0 0 0 0 0 105870630.7022007 -15732908.45610568 -15732908.45610568 -14374656.16737951 0 0 0 0 0 105768585.4081329 -14512675.33795197 -14512675.33795197 -14153041.859146 0 0 0 0 0 106441677.7505329 -13767479.69435176 -13767479.69435176 -13926781.73244368 0 0 0 0 0 107050637.8704406 -13043990.8298135 -13043990.8298135 -13686621.6385933 0 0 0 0 0 107594479.1595974 -12343196.52668084 -12343196.52668084 -13434632.4149824 0 0 0 0 0 107560895.2787457 -11667042.64953637 -11667042.64953637 -12937506.96529928 0 0 0 0 0 108374346.7646628 -12030673.37899947 -12030673.37899947 -13071159.13688591 0 0 0 0 0 107992626.5634146 -11032124.86870007 -11032124.86870007 -12684231.32028619 0 0 0 0 0 108375160.5139171 -10420069.27253042 -10420069.27253042 -12424041.03313744 0 0 0 0 0 108711303.6087058 -9831024.593138613 -9831024.593138613 -12157377.46520755 0 0 0 0 0 109004212.362472 -9264656.305190379 -9264656.305190379 -11887839.45657173 0 0 0 0 0 109258470.43588 -8721126.100125188 -8721126.100125188 -11615419.7987514 0 0 0 0 0 109716632.2261228 -8537168.272585737 -8537168.272585737 -11400380.23038257 0 0 0 0 0 109209071.0986417 -7788120.371326048 -7788120.371326048 -10927192.36946746 0 0 0 0 0 109895200.4703392 -8031457.614088814 -8031457.614088814 -11147209.3054409 0 0 0 0 0 109375259.1388724 -7317806.771883769 -7317806.771883769 -10663209.06654564 0 0 0 0 0 109513885.94755 -6867470.34406779 -6867470.34406779 -10399320.67410632 0 0 0 0 0 109628032.6210484 -6436412.124523968 -6436412.124523968 -10135833.15595188 0 0 0 0 0 109718605.6636676 -6024650.855093171 -6024650.855093171 -9873818.493458459 0 0 0 0 0 109395474.1152795 -5750387.265396993 -5750387.265396993 -9528661.52357626 0 0 0 0 0 109972738.3227276 -5925330.140554844 -5925330.140554844 -9765008.136601696 0 0 0 0 0 109455694.6911289 -5380536.139823661 -5380536.139823661 -9281629.908967445 0 0 0 0 0 109498854.8750717 -5027205.457068002 -5027205.457068002 -9036241.259896912 0 0 0 0 0 109525473.8885479 -4690151.811659427 -4690151.811659427 -8794141.577423202 0 0 0 0 0 109537717.4934791 -4368428.890862974 -4368428.890862974 -8554883.230816837 0 0 0 0 0 109536681.1931214 -4061734.480507202 -4061734.480507202 -8318921.050133689 0 0 0 0 0 109632804.8791904 -3732428.206920552 -3732428.206920552 -8061313.980844837 0 0 0 0 0 109523571.8492094 -3769514.841566445 -3769514.841566445 -8086440.600899572 0 0 0 0 0 109186671.8079621 -3626813.300247659 -3626813.300247659 -7827529.321257952 0 0 0 0 0 109162239.5503258 -3363599.612222569 -3363599.612222569 -7610859.69709132 0 0 0 0 0 109128736.1549274 -3112648.516568321 -3112648.516568321 -7397651.153921496 0 0 0 0 0 109089591.6758079 -2877599.744788091 -2877599.744788091 -7182998.257182319 0 0 0 0 0 109039330.7822923 -2657222.403331824 -2657222.403331824 -6976135.937481035 0 0 0 0 0 108964774.539179 -2455643.563033749 -2455643.563033749 -6790147.484301557 0 0 0 0 0 108997243.7417121 -2453947.59278758 -2453947.59278758 -6814207.987626289 0 0 0 0 0 108641601.7856748 -2385925.899029735 -2385925.899029735 -6595434.826922509 0 0 0 0 0 108582475.4889699 -2189585.243465899 -2189585.243465899 -6407964.183956091 0 0 0 0 0 108525539.932723 -2003437.054458942 -2003437.054458942 -6224106.515936687 0 0 0 0 0 108457156.1875898 -1825660.961455979 -1825660.961455979 -6044114.297579007 0 0 0 0 0 108468509.9484025 -1830491.878660797 -1830491.878660797 -6075119.989508559 0 0 0 0 0 108167530.2411916 -1782335.55717376 -1782335.55717376 -5877970.496358505 0 0 0 0 0 108100041.7004104 -1621063.560013206 -1621063.560013206 -5710294.401376451 0 0 0 0 0 108029347.2035632 -1467443.41237425 -1467443.41237425 -5546990.674092884 0 0 0 0 0 107956125.3549382 -1319331.811322517 -1319331.811322517 -5385073.148973261 0 0 0 0 0 107902188.6872312 -1182501.621867688 -1182501.621867688 -5199066.549722251 0 0 0 0 0 107833314.3560346 -1081619.204935504 -1081619.204935504 -5064485.676755149 0 0 0 0 0 107740789.0042431 -1016461.115861667 -1016461.115861667 -4955113.156509768 0 0 0 0 0 107621216.6223319 -957114.2802952207 -957114.2802952207 -4854599.517586439 0 0 0 0 0 107510105.6755655 -899345.0585770283 -899345.0585770283 -4748619.516034071 0 0 0 0 0 104308845.9841427 -17168469.27169009 -17168469.27169009 -15429875.03415504 0 0 0 0 0 -3523474.629768135 -1767542.705051793 -1767542.705051793 -52269183.52295222 0 0 0 0 0 -2968788.1919534 -2425025.985086742 -2425025.985086742 -47992448.22145673 0 0 0 0 0 -1872904.915787359 -3933523.275244082 -3933523.275244082 -44787269.66242381 0 0 0 0 0 -640107.8460018324 -5644749.214445968 -5644749.214445968 -42575298.66746156 0 0 0 0 0 -407866.5669559451 -4411460.530623522 -4411460.530623522 -37635794.02617259 0 0 0 0 0 3529272.302882343 -9220121.798551094 -9220121.798551094 -32992055.96050063 0 0 0 0 0 6107500.843209972 -11568568.48946909 -11568568.48946909 -30311394.79982297 0 0 0 0 0 8970983.251594771 -14068407.12208138 -14068407.12208138 -27813315.99413567 0 0 0 0 0 12255466.1253433 -16579615.15849141 -16579615.15849141 -25559223.42492582 0 0 0 0 0 18923986.058951 -20356241.91720952 -20356241.91720952 -20591726.54645299 0 0 0 0 0 13448368.83061519 -15833170.11842013 -15833170.11842013 -23964647.52767111 0 0 0 0 0 22907022.04670363 -22545510.89080983 -22545510.89080983 -19384718.23409218 0 0 0 0 0 27126653.00337194 -24557340.88020186 -24557340.88020186 -18422646.39163159 0 0 0 0 0 31530606.20223285 -26361673.34671086 -26361673.34671086 -17691447.93742957 0 0 0 0 0 36066396.39047711 -27935972.47194328 -27935972.47194328 -17174016.21981692 0 0 0 0 0 40679529.4106176 -29264883.6850776 -29264883.6850776 -16841683.26563128 0 0 0 0 0 45319719.4543781 -30340576.48384245 -30340576.48384245 -16666798.13560415 0 0 0 0 0 49943606.05639155 -31163211.86527026 -31163211.86527026 -16620858.84702673 0 0 0 0 0 54505715.98218742 -31738803.83084399 -31738803.83084399 -16675718.98334441 0 0 0 0 0 58031211.86261209 -30613218.443964 -30613218.443964 -16140393.40719459 0 0 0 0 0 60482130.27245467 -31768442.30574829 -31768442.30574829 -16163717.66508186 0 0 0 0 0 64598547.59550662 -31815556.51854593 -31815556.51854593 -16405485.57466278 0 0 0 0 0 68564983.91630343 -31675635.42442273 -31675635.42442273 -16660804.44321366 0 0 0 0 0 72362053.13943201 -31367277.53346395 -31367277.53346395 -16915866.92916122 0 0 0 0 0 76597726.81488061 -30380268.30744384 -30380268.30744384 -16646660.0380698 0 0 0 0 0 75696377.62356721 -30243937.12903946 -30243937.12903946 -16193964.38704508 0 0 0 0 0 79843528.13108543 -29790259.60233746 -29790259.60233746 -16885412.28908692 0 0 0 0 0 82910942.88140066 -29097196.62952051 -29097196.62952051 -17089249.02007852 0 0 0 0 0 85791017.10480759 -28316505.79218071 -28316505.79218071 -17254709.09244036 0 0 0 0 0 88483522.64117439 -27462622.24126891 -27462622.24126891 -17378007.10410347 0 0 0 0 0 90989706.35162097 -26550287.54381702 -26550287.54381702 -17457989.35962316 0 0 0 0 0 93314674.65027305 -25593212.30608316 -25593212.30608316 -17494405.4283838 0 0 0 0 0 95721021.61425865 -24722455.50744138 -24722455.50744138 -16735553.2261383 0 0 0 0 0 95186368.11938328 -24221222.01628953 -24221222.01628953 -17057046.09290514 0 0 0 0 0 97087232.07344161 -23249368.39682497 -23249368.39682497 -17024134.73411399 0 0 0 0 0 98830545.23161858 -22265028.83009873 -22265028.83009873 -16952211.30536141 0 0 0 0 0 100427494.2673983 -21274797.01583199 -21274797.01583199 -16843503.94382956 0 0 0 0 0 101882571.6791985 -20285732.95657269 -20285732.95657269 -16699128.03349054 0 0 0 0 0 103215884.1597567 -19312138.07700377 -19312138.07700377 -16513598.9692351 0 0 0 0 0 104735743.0808145 -18744756.0955427 -18744756.0955427 -15968367.30321781 0 0 0 0 0 103793940.4086277 -18219112.68296895 -18219112.68296895 -15980566.32650592 0 0 0 0 0 104856734.3919798 -17307845.78503987 -17307845.78503987 -15770685.00090594 0 0 0 0 0 105585430.3521561 -16673640.65895568 -16673640.65895568 -14894157.36333302 0 0 0 0 0 106436143.2756249 -15846223.51455714 -15846223.51455714 -14714511.89049417 0 0 0 0 0 106627876.972183 -14952371.66307325 -14952371.66307325 -14198472.20987097 0 0 0 0 0 105541161.8263 -15381483.25829886 -15381483.25829886 -14680803.11366389 0 0 0 0 0 107306826.9992248 -14191735.37234471 -14191735.37234471 -14003650.80696821 0 0 0 0 0 107911388.7485858 -13451525.46120155 -13451525.46120155 -13790283.61418574 0 0 0 0 0 108449445.9387578 -12732251.21935881 -12732251.21935881 -13563848.61612676 0 0 0 0 0 108925254.2260169 -12036423.72339961 -12036423.72339961 -13324804.5529851 0 0 0 0 0 108796189.2366627 -11378129.15652602 -11378129.15652602 -12838537.07304898 0 0 0 0 0 108078826.2595504 -11665589.58687225 -11665589.58687225 -13172985.20242825 0 0 0 0 0 109165989.7884414 -10748105.47112044 -10748105.47112044 -12596768.83902644 0 0 0 0 0 109487734.6804276 -10141219.56274958 -10141219.56274958 -12347668.55165386 0 0 0 0 0 109764776.6218574 -9558226.506421376 -9558226.506421376 -12093453.35094688 0 0 0 0 0 110002656.0236704 -8997632.56530378 -8997632.56530378 -11832608.15025054 0 0 0 0 0 110204373.1379409 -8459169.568940079 -8459169.568940079 -11567816.07344658 0 0 0 0 0 109477906.4854875 -8198290.004397389 -8198290.004397389 -11340241.5946402 0 0 0 0 0 110043388.8562885 -7546408.861599282 -7546408.861599282 -10891696.51019288 0 0 0 0 0 109664872.4830444 -7696853.121954665 -7696853.121954665 -11063655.69194418 0 0 0 0 0 110163469.5987321 -7081791.450588506 -7081791.450588506 -10635002.7979592 0 0 0 0 0 110258557.667287 -6637133.843421867 -6637133.843421867 -10377501.94607853 0 0 0 0 0 110330100.2260952 -6211953.107905975 -6211953.107905975 -10120423.20723538 0 0 0 0 0 110380318.146198 -5806022.587758762 -5806022.587758762 -9864123.282136573 0 0 0 0 0 110015009.295694 -5543903.7628581 -5543903.7628581 -9521172.243649859 0 0 0 0 0 109788073.8014134 -5631404.022949398 -5631404.022949398 -9613726.465899711 0 0 0 0 0 110040083.7456814 -5179288.549641881 -5179288.549641881 -9278354.186993845 0 0 0 0 0 110049001.8290204 -4831513.836202139 -4831513.836202139 -9038139.978961997 0 0 0 0 0 110043780.6184284 -4499643.285178018 -4499643.285178018 -8799691.603425818 0 0 0 0 0 110025421.7565219 -4183304.945413233 -4183304.945413233 -8564100.87400954 0 0 0 0 0 109995113.1626676 -3882021.469751446 -3882021.469751446 -8331642.821102896 0 0 0 0 0 109499393.6290707 -3491288.159325066 -3491288.159325066 -7857953.780224661 0 0 0 0 0 109954078.2399329 -3595137.277109298 -3595137.277109298 -8102585.304247368 0 0 0 0 0 109592785.7755942 -3461368.825876642 -3461368.825876642 -7843326.519071118 0 0 0 0 0 109544520.3852365 -3203101.814721842 -3203101.814721842 -7628611.582141324 0 0 0 0 0 109487322.8231351 -2957123.175756007 -2957123.175756007 -7418076.197318997 0 0 0 0 0 109412377.7204526 -2731776.796999039 -2731776.796999039 -7220268.353103681 0 0 0 0 0 109328236.9412632 -2523437.867431172 -2523437.867431172 -7030608.082563132 0 0 0 0 0 109255265.2285117 -2316052.369267061 -2316052.369267061 -6823107.987998804 0 0 0 0 0 108897887.3639659 -2253752.527429256 -2253752.527429256 -6597060.069614068 0 0 0 0 0 108926864.6409984 -2251252.912429135 -2251252.912429135 -6618809.756807353 0 0 0 0 0 108851571.5707387 -2058624.644139541 -2058624.644139541 -6432676.779872028 0 0 0 0 0 108772722.1703853 -1875423.597340818 -1875423.597340818 -6252056.259875927 0 0 0 0 0 108690095.2370035 -1702153.398857125 -1702153.398857125 -6072392.979060934 0 0 0 0 0 108385754.8613303 -1656304.306686257 -1656304.306686257 -5868306.210809153 0 0 0 0 0 108389786.8302339 -1664623.814869992 -1664623.814869992 -5904876.051442305 0 0 0 0 0 108308015.990428 -1506947.98540678 -1506947.98540678 -5738171.593543981 0 0 0 0 0 108224472.6023552 -1357320.453358069 -1357320.453358069 -5575218.934858479 0 0 0 0 0 108137874.0518232 -1213889.112705707 -1213889.112705707 -5414620.531222033 0 0 0 0 0 108007373.1888679 -1089004.680009078 -1089004.680009078 -5273599.743413363 0 0 0 0 0 107843368.2153184 -1009326.570307876 -1009326.570307876 -5174539.362389009 0 0 0 0 0 107714396.9728222 -956325.1527670174 -956325.1527670174 -5061308.489418043 0 0 0 0 0 107591210.2836563 -897868.4025975345 -897868.4025975345 -4953070.988452798 0 0 0 0 0 107470474.1042329 -840103.0355167674 -840103.0355167674 -4846561.511420151 0 0 0 0 0 106171769.9794812 -16802169.95792796 -16802169.95792796 -15238777.585643 0 0 0 0 0 -3927011.717432944 1334065.901246622 1334065.901246622 -57542978.98173463 0 0 0 0 0 -3631413.988247706 157365.4477076875 157365.4477076875 -51781336.97794817 0 0 0 0 0 -3340308.437556972 -1041932.646344421 -1041932.646344421 -47541614.69915342 0 0 0 0 0 -2244402.933823017 -2677582.146908881 -2677582.146908881 -44232289.1843773 0 0 0 0 0 1176893.468487397 -7512531.32601823 -7512531.32601823 -39399202.44521155 0 0 0 0 0 1379717.850190964 -6476010.924537389 -6476010.924537389 -35380346.70705022 0 0 0 0 0 3681107.501783753 -8805621.184595874 -8805621.184595874 -32771008.64161171 0 0 0 0 0 6712153.885072784 -11353333.42815126 -11353333.42815126 -30200545.53564477 0 0 0 0 0 10246483.27175086 -13962955.33334751 -13962955.33334751 -27819660.67843537 0 0 0 0 0 17499371.12698587 -18277844.64033857 -18277844.64033857 -22347176.53139772 0 0 0 0 0 15917817.41425384 -19040479.86215423 -19040479.86215423 -23584235.33907401 0 0 0 0 0 21873153.76844992 -20599657.86423623 -20599657.86423623 -20956849.23486969 0 0 0 0 0 26508647.65318019 -22753965.66086443 -22753965.66086443 -19797480.6797592 0 0 0 0 0 31341647.80664691 -24703233.76389204 -24703233.76389204 -18864926.69942727 0 0 0 0 0 36316424.37825114 -26420502.01491901 -26420502.01491901 -18144977.47987691 0 0 0 0 0 41351523.01600963 -27884228.31749872 -27884228.31749872 -17618838.69332514 0 0 0 0 0 46393105.94603166 -29085705.28699563 -29085705.28699563 -17264584.02507568 0 0 0 0 0 51378689.0782112 -30021667.69660804 -30021667.69660804 -17053958.49252235 0 0 0 0 0 56268662.31534875 -30698652.49411196 -30698652.49411196 -16962199.71834523 0 0 0 0 0 58970375.77165409 -32078111.57854324 -32078111.57854324 -16805556.41444997 0 0 0 0 0 62533845.58112246 -30933525.71875979 -30933525.71875979 -16239958.43832769 0 0 0 0 0 66870616.60845553 -31041734.68205812 -31041734.68205812 -16387329.02641758 0 0 0 0 0 71019256.04735713 -30955417.75356373 -30955417.75356373 -16564161.77143095 0 0 0 0 0 74963477.79749075 -30691697.45560623 -30691697.45560623 -16753809.95095341 0 0 0 0 0 79226285.38382538 -29803726.62143708 -29803726.62143708 -16415626.1031848 0 0 0 0 0 75973909.2142522 -30908771.24278411 -30908771.24278411 -17156873.22563718 0 0 0 0 0 82547032.129925 -29236764.45679602 -29236764.45679602 -16615989.89901441 0 0 0 0 0 85658260.97697556 -28563284.2021886 -28563284.2021886 -16795434.19363933 0 0 0 0 0 88558087.24082687 -27798729.85611421 -27798729.85611421 -16944794.94431439 0 0 0 0 0 91247350.06927226 -26958373.72535627 -26958373.72535627 -17059597.04835973 0 0 0 0 0 93731627.06778033 -26057536.39851805 -26057536.39851805 -17137353.62846028 0 0 0 0 0 96015934.87288637 -25110255.30205925 -25110255.30205925 -17176757.5069168 0 0 0 0 0 95461624.47242013 -24603447.5705888 -24603447.5705888 -17487620.96991764 0 0 0 0 0 97730493.32018203 -23776912.85217858 -23776912.85217858 -16751712.14804306 0 0 0 0 0 99567663.23322201 -22811202.68124293 -22811202.68124293 -16730034.35155859 0 0 0 0 0 101242927.9973428 -21831945.97195981 -21831945.97195981 -16670043.5027813 0 0 0 0 0 102764788.1686001 -20847090.06564793 -20847090.06564793 -16576052.77810816 0 0 0 0 0 104144112.0278415 -19862193.70814586 -19862193.70814586 -16446155.18854372 0 0 0 0 0 105359623.6314952 -18904136.84281622 -18904136.84281622 -16304855.24164729 0 0 0 0 0 104394084.5464124 -18353177.08051302 -18353177.08051302 -16284617.66158484 0 0 0 0 0 105800102.7023817 -17821672.48409018 -17821672.48409018 -15753100.97802845 0 0 0 0 0 106784304.5062783 -16921035.46007161 -16921035.46007161 -15570656.81756922 0 0 0 0 0 105246470.0992242 -16309340.4675523 -16309340.4675523 -15219071.05049906 0 0 0 0 0 106098920.4896694 -15471365.3466165 -15471365.3466165 -14986742.90498225 0 0 0 0 0 106300193.417314 -14589715.05062123 -14589715.05062123 -14452298.74379702 0 0 0 0 0 107199952.9222006 -15040976.21869086 -15040976.21869086 -14516491.66745835 0 0 0 0 0 106983283.9492872 -13819281.22467434 -13819281.22467434 -14206969.83252872 0 0 0 0 0 107592591.5623969 -13071842.10543917 -13071842.10543917 -13948644.54671041 0 0 0 0 0 108137321.4712972 -12348906.78408023 -12348906.78408023 -13679067.10123116 0 0 0 0 0 108620254.3061534 -11650794.80031585 -11650794.80031585 -13399867.07364722 0 0 0 0 0 108508404.9940444 -11011410.60601346 -11011410.60601346 -12902697.73587243 0 0 0 0 0 109343600.6220995 -11363959.94433612 -11363959.94433612 -13075100.90962325 0 0 0 0 0 108886611.7078371 -10381785.44061895 -10381785.44061895 -12626119.11726104 0 0 0 0 0 109217667.0867585 -9776671.659103448 -9776671.659103448 -12344439.08708098 0 0 0 0 0 109504499.0268883 -9195520.208161008 -9195520.208161008 -12057191.55522511 0 0 0 0 0 109749867.538363 -8639095.760632325 -8639095.760632325 -11771029.65159097 0 0 0 0 0 109960677.7171473 -8104320.69773498 -8104320.69773498 -11480516.70648362 0 0 0 0 0 110372703.4881041 -7942271.917431027 -7942271.917431027 -11300260.38319806 0 0 0 0 0 109821719.4162928 -7216606.070066699 -7216606.070066699 -10786476.64502359 0 0 0 0 0 110510368.6429967 -7446794.867549599 -7446794.867549599 -11031031.95534875 0 0 0 0 0 109950974.9158533 -6757345.015751871 -6757345.015751871 -10509568.60338639 0 0 0 0 0 110054020.3103043 -6318674.176521556 -6318674.176521556 -10234093.19831603 0 0 0 0 0 110133984.6268273 -5900032.589629677 -5900032.589629677 -9960664.06121072 0 0 0 0 0 110192594.0545369 -5500683.459687257 -5500683.459687257 -9689312.483315786 0 0 0 0 0 109838083.0596046 -5255952.151779045 -5255952.151779045 -9355945.511648064 0 0 0 0 0 110411449.3289034 -5418632.723084284 -5418632.723084284 -9609264.724608105 0 0 0 0 0 109870431.9295168 -4897792.987237171 -4897792.987237171 -9101038.442979662 0 0 0 0 0 109886975.6060722 -4556396.771138975 -4556396.771138975 -8849241.141412912 0 0 0 0 0 109888830.9135729 -4231124.242944471 -4231124.242944471 -8600972.140440099 0 0 0 0 0 109877479.0336357 -3921392.53908632 -3921392.53908632 -8356431.931585724 0 0 0 0 0 109854016.4389705 -3626611.092666376 -3626611.092666376 -8115978.213568922 0 0 0 0 0 109903648.2443247 -3322029.92673099 -3322029.92673099 -7876763.488220959 0 0 0 0 0 109819585.6331282 -3346301.923595537 -3346301.923595537 -7879620.434187746 0 0 0 0 0 109465473.5562522 -3226525.571648873 -3226525.571648873 -7633518.345781543 0 0 0 0 0 109422881.0974282 -2974062.086728013 -2974062.086728013 -7413770.967394616 0 0 0 0 0 109374427.4838624 -2736305.228304591 -2736305.228304591 -7195755.293461298 0 0 0 0 0 109318634.9612524 -2511457.955024722 -2511457.955024722 -6977828.355033046 0 0 0 0 0 109240452.647646 -2309066.205563045 -2309066.205563045 -6779884.316888014 0 0 0 0 0 109157675.7567032 -2110984.990968992 -2110984.990968992 -6588059.403058172 0 0 0 0 0 109175961.2592611 -2115216.663399078 -2115216.663399078 -6624456.703527622 0 0 0 0 0 108830978.0713298 -2057011.703526217 -2057011.703526217 -6404104.255415968 0 0 0 0 0 108760056.5537364 -1869626.271135002 -1869626.271135002 -6215886.726856962 0 0 0 0 0 108686627.4211289 -1692568.482878922 -1692568.482878922 -6031540.004954367 0 0 0 0 0 108607526.961966 -1523952.786486647 -1523952.786486647 -5851527.954095483 0 0 0 0 0 108604018.3399759 -1536778.163693957 -1536778.163693957 -5897363.831253527 0 0 0 0 0 108311038.7220815 -1495303.246774656 -1495303.246774656 -5696386.521015922 0 0 0 0 0 108233379.4282596 -1342572.82173373 -1342572.82173373 -5527800.98950045 0 0 0 0 0 108152461.3950426 -1195788.301253747 -1195788.301253747 -5362634.74253318 0 0 0 0 0 108070240.872439 -1050204.883371414 -1050204.883371414 -5194275.743950876 0 0 0 0 0 108041011.821459 -900543.010547586 -900543.010547586 -4992063.68452338 0 0 0 0 0 107924556.4205983 -844544.6718837052 -844544.6718837052 -4882788.414772583 0 0 0 0 0 107798075.794898 -789165.7220555998 -789165.7220555998 -4779423.458399304 0 0 0 0 0 107672733.0558518 -733623.4868289605 -733623.4868289605 -4676393.614042434 0 0 0 0 0 105820125.158739 -16415575.42749505 -16415575.42749505 -15537878.34982843 0 0 0 0 0 -3957481.333895286 -1719686.99923791 -1719686.99923791 -62484819.89588614 0 0 0 0 0 -3934136.100682449 -1536671.550080037 -1536671.550080037 -55980469.98035514 0 0 0 0 0 -2804459.817637074 -2388557.121349509 -2388557.121349509 -53179390.13250665 0 0 0 0 0 -1960196.23778972 -3551847.496228258 -3551847.496228258 -50655730.38910159 0 0 0 0 0 -688000.8605144802 -5358502.055606319 -5358502.055606319 -47034398.81329737 0 0 0 0 0 -830677.3497828668 -4292840.603855635 -4292840.603855635 -41906530.96661422 0 0 0 0 0 3417216.815307911 -9690290.118493073 -9690290.118493073 -35901375.96734153 0 0 0 0 0 6182506.274732216 -12147246.78941174 -12147246.78941174 -32695386.9630012 0 0 0 0 0 9319742.619396027 -14717432.43024656 -14717432.43024656 -29733075.59519978 0 0 0 0 0 12893107.67907551 -17304351.11871522 -17304351.11871522 -27106436.14604037 0 0 0 0 0 19914966.35674886 -21393389.83350736 -21393389.83350736 -21906529.15288778 0 0 0 0 0 14232940.83052609 -16559146.96748365 -16559146.96748365 -25675388.35447856 0 0 0 0 0 24195023.93817988 -23591273.60642302 -23591273.60642302 -20529722.0584284 0 0 0 0 0 28702186.27861874 -25591853.11906153 -25591853.11906153 -19442370.27355556 0 0 0 0 0 33382301.23161033 -27363067.90850134 -27363067.90850134 -18622198.63145682 0 0 0 0 0 38172470.21364498 -28882204.4706422 -28882204.4706422 -18040850.36063684 0 0 0 0 0 43013696.63858645 -30133279.53376717 -30133279.53376717 -17664369.62412086 0 0 0 0 0 47851102.60013499 -31112691.27608259 -31112691.27608259 -17458219.76052768 0 0 0 0 0 52641139.83262191 -31824127.70664176 -31824127.70664176 -17388369.81053474 0 0 0 0 0 57336810.54983584 -32277305.77041651 -32277305.77041651 -17421558.28765941 0 0 0 0 0 61021018.60089651 -31127030.2048307 -31127030.2048307 -16962160.93150203 0 0 0 0 0 63305853.99827424 -32196349.00679578 -32196349.00679578 -16986355.48723119 0 0 0 0 0 67483123.41010021 -32109488.24609815 -32109488.24609815 -17195602.05457057 0 0 0 0 0 71485346.65916274 -31837919.30654215 -31837919.30654215 -17415867.35503073 0 0 0 0 0 75294231.65974769 -31400812.20780797 -31400812.20780797 -17632007.10496772 0 0 0 0 0 79388477.39007543 -30317605.70561291 -30317605.70561291 -17375191.37561824 0 0 0 0 0 78690229.3922787 -30271147.92187512 -30271147.92187512 -16944236.49123212 0 0 0 0 0 82613141.48150404 -29615017.723713 -29615017.723713 -17563546.593481 0 0 0 0 0 85637719.53042641 -28816081.13267624 -28816081.13267624 -17715184.46779522 0 0 0 0 0 88461097.33570288 -27937050.59682497 -27937050.59682497 -17825249.62100785 0 0 0 0 0 91085076.89392206 -26994411.22816911 -26994411.22816911 -17892467.09198795 0 0 0 0 0 93513935.16518159 -26002434.65115364 -26002434.65115364 -17915297.80257293 0 0 0 0 0 95752289.90618293 -24975133.66723505 -24975133.66723505 -17894601.16178502 0 0 0 0 0 98108275.09753512 -24129341.88323425 -24129341.88323425 -17177411.20817051 0 0 0 0 0 97436621.06783524 -23591846.44207242 -23591846.44207242 -17438876.91023207 0 0 0 0 0 99245243.11294551 -22567457.47165706 -22567457.47165706 -17350620.27480792 0 0 0 0 0 100897774.9273484 -21537911.62766687 -21537911.62766687 -17225126.75295214 0 0 0 0 0 102402819.3185104 -20510070.21384158 -20510070.21384158 -17064265.93707279 0 0 0 0 0 103777035.2928292 -19498926.51169202 -19498926.51169202 -16869979.65313403 0 0 0 0 0 104993156.2389251 -18505202.48620089 -18505202.48620089 -16635236.03150287 0 0 0 0 0 106440408.4046018 -17957893.99080294 -17957893.99080294 -16132063.29465854 0 0 0 0 0 105440269.3355761 -17433083.66439777 -17433083.66439777 -16098513.17010372 0 0 0 0 0 106416944.219263 -16509058.96573213 -16509058.96573213 -15845029.79079422 0 0 0 0 0 107033595.9189849 -15947012.51804699 -15947012.51804699 -15042666.53265056 0 0 0 0 0 107801159.110077 -15115938.47444003 -15115938.47444003 -14829969.04251984 0 0 0 0 0 107883914.5455103 -14253874.22335459 -14253874.22335459 -14302029.29673661 0 0 0 0 0 106860635.8467085 -14654321.82587358 -14654321.82587358 -14742564.10134737 0 0 0 0 0 108490836.1069527 -13488191.3733794 -13488191.3733794 -14071605.60466671 0 0 0 0 0 109028137.3180354 -12746317.01657317 -12746317.01657317 -13826660.65775374 0 0 0 0 0 109500803.9191738 -12028850.77653129 -12028850.77653129 -13570359.95124579 0 0 0 0 0 109913899.8521026 -11336487.07441225 -11336487.07441225 -13303493.0032382 0 0 0 0 0 109708216.3087106 -10715567.64197744 -10715567.64197744 -12816940.71915734 0 0 0 0 0 109046213.8570017 -10977715.99672668 -10977715.99672668 -13112475.26814479 0 0 0 0 0 110023093.5405165 -10091720.06493697 -10091720.06493697 -12551344.2956842 0 0 0 0 0 110292549.8178506 -9492521.614256101 -9492521.614256101 -12280210.52659992 0 0 0 0 0 110518991.6731675 -8919068.588842127 -8919068.588842127 -12006806.10859463 0 0 0 0 0 110710293.4644331 -8367360.429331192 -8367360.429331192 -11726023.26045059 0 0 0 0 0 110866415.5234836 -7839459.447047929 -7839459.447047929 -11444764.12863499 0 0 0 0 0 110137107.7482425 -7592566.365743589 -7592566.365743589 -11190365.42406126 0 0 0 0 0 110619604.2791579 -6972676.147323391 -6972676.147323391 -10760974.28671708 0 0 0 0 0 110283192.9116708 -7102867.338011845 -7102867.338011845 -10900062.03523447 0 0 0 0 0 110702441.2987484 -6519740.818362982 -6519740.818362982 -10491167.18491916 0 0 0 0 0 110761871.8695109 -6087431.283157648 -6087431.283157648 -10221927.61054331 0 0 0 0 0 110800271.8925785 -5674934.480244582 -5674934.480244582 -9953928.996809926 0 0 0 0 0 110819162.1170795 -5281774.45361204 -5281774.45361204 -9688069.456462476 0 0 0 0 0 110424844.2232507 -5049029.722751544 -5049029.722751544 -9356301.035668289 0 0 0 0 0 110231742.7544147 -5119834.215383417 -5119834.215383417 -9420844.330057034 0 0 0 0 0 110422489.2961411 -4696717.801422806 -4696717.801422806 -9105673.756668951 0 0 0 0 0 110405805.9577823 -4361020.202874476 -4361020.202874476 -8857946.28464042 0 0 0 0 0 110376144.4175476 -4041483.512867636 -4041483.512867636 -8613313.615577282 0 0 0 0 0 110334699.8055522 -3737456.419169228 -3737456.419169228 -8372228.944437522 0 0 0 0 0 110282746.4162642 -3448314.737535268 -3448314.737535268 -8134850.160612008 0 0 0 0 0 109775336.0231129 -3079920.805849072 -3079920.805849072 -7647839.286948712 0 0 0 0 0 110221267.3102464 -3173452.362349489 -3173452.362349489 -7901452.788487955 0 0 0 0 0 109844846.7018578 -3062153.51844573 -3062153.51844573 -7654489.108078538 0 0 0 0 0 109779793.5953972 -2815141.093569181 -2815141.093569181 -7436428.692211204 0 0 0 0 0 109700970.4802639 -2582270.321497397 -2582270.321497397 -7224982.534154676 0 0 0 0 0 109608134.9197882 -2371465.766232062 -2371465.766232062 -7030198.26580523 0 0 0 0 0 109515811.6339053 -2169948.135510413 -2169948.135510413 -6828803.168055045 0 0 0 0 0 109428934.0007235 -1972597.639719117 -1972597.639719117 -6623039.671448242 0 0 0 0 0 109080733.0666841 -1916638.656300917 -1916638.656300917 -6392797.423382269 0 0 0 0 0 109092667.4302749 -1923502.132538262 -1923502.132538262 -6432299.976025512 0 0 0 0 0 109005278.0795212 -1740668.049041355 -1740668.049041355 -6244915.203713728 0 0 0 0 0 108914469.2813531 -1567237.402634596 -1567237.402634596 -6062267.269971434 0 0 0 0 0 108820828.8433062 -1402890.592705119 -1402890.592705119 -5882819.570353646 0 0 0 0 0 108525252.1894488 -1363591.648921355 -1363591.648921355 -5675904.09438837 0 0 0 0 0 108515177.4490956 -1379446.029361527 -1379446.029361527 -5726334.552715041 0 0 0 0 0 108423879.2302705 -1229784.212990079 -1229784.212990079 -5558905.605019346 0 0 0 0 0 108337512.5584146 -1082609.552017373 -1082609.552017373 -5389656.577763947 0 0 0 0 0 108259399.8872665 -926929.7825465259 -926929.7825465259 -5204463.018144966 0 0 0 0 0 107999794.4068671 -845413.1034763734 -845413.1034763734 -5088299.274000673 0 0 0 0 0 107880438.8618626 -786050.6650917941 -786050.6650917941 -4981314.697730505 0 0 0 0 0 107749643.3215117 -730324.9870158648 -730324.9870158648 -4876397.378912495 0 0 0 0 0 107625432.8977173 -676506.6900143931 -676506.6900143931 -4769905.902588535 0 0 0 0 0 107659854.4376875 -16034799.02692145 -16034799.02692145 -15359527.97971525 0 0 0 0 0 -4540429.727618441 2273050.397871383 2273050.397871383 -68544812.35664546 0 0 0 0 0 -2971138.070133603 -307859.837409268 -307859.837409268 -62011954.47604485 0 0 0 0 0 -4115160.837983001 -138598.9393614687 -138598.9393614687 -55141082.67362304 0 0 0 0 0 -3654513.3907625 -692400.3788933201 -692400.3788933201 -52282407.95551063 0 0 0 0 0 -2647012.299277675 -1783288.310347752 -1783288.310347752 -49466660.05530797 0 0 0 0 0 1249170.39851955 -7327938.887406659 -7327938.887406659 -42682959.26281617 0 0 0 0 0 1115491.467954709 -6378947.284051536 -6378947.284051536 -38818158.46040779 0 0 0 0 0 3754945.036847585 -8892516.335974205 -8892516.335974205 -35490056.80385745 0 0 0 0 0 7066067.099072962 -11582187.02837466 -11582187.02837466 -32405180.28794933 0 0 0 0 0 10914455.60004146 -14333154.50601455 -14333154.50601455 -29600846.15628415 0 0 0 0 0 18608250.21890084 -19073189.1332932 -19073189.1332932 -23798361.39324906 0 0 0 0 0 16858200.34378123 -19831816.0555045 -19831816.0555045 -24837138.08996563 0 0 0 0 0 23308576.17161608 -21445571.56005931 -21445571.56005931 -22201701.4332664 0 0 0 0 0 28265138.98904874 -23625987.47605798 -23625987.47605798 -20884619.60053883 0 0 0 0 0 33403056.09854461 -25574750.88705724 -25574750.88705724 -19832877.26063378 0 0 0 0 0 38648968.64212614 -27261130.56224528 -27261130.56224528 -19026491.93684199 0 0 0 0 0 43931455.75457429 -28669306.43877795 -28669306.43877795 -18440228.52339079 0 0 0 0 0 49182086.64334537 -29791417.1215069 -29791417.1215069 -18040219.1044149 0 0 0 0 0 54336710.72678823 -30629343.45709252 -30629343.45709252 -17795686.24216254 0 0 0 0 0 59357785.55130856 -31193983.63591682 -31193983.63591682 -17675907.957498 0 0 0 0 0 61904519.11576588 -32487626.19623732 -32487626.19623732 -17529883.01358747 0 0 0 0 0 65602936.74640535 -31321946.08451973 -31321946.08451973 -17030783.40116876 0 0 0 0 0 69988879.22997069 -31302055.66286207 -31302055.66286207 -17146324.19054904 0 0 0 0 0 74157429.03856428 -31086708.33027856 -31086708.33027856 -17288890.48110936 0 0 0 0 0 78094473.6665611 -30696313.42041708 -30696313.42041708 -17441040.43399173 0 0 0 0 0 82191920.98816411 -29710520.65534203 -29710520.65534203 -17120301.59622957 0 0 0 0 0 78895909.01117554 -30817364.81809622 -30817364.81809622 -17829167.20806795 0 0 0 0 0 85465454.73892903 -29032709.51991506 -29032709.51991506 -17277718.20421441 0 0 0 0 0 88513984.42158884 -28254517.26715755 -28254517.26715755 -17408226.6633803 0 0 0 0 0 91336325.83255561 -27393309.02847745 -27393309.02847745 -17506700.44311484 0 0 0 0 0 93937778.99053164 -26465747.6933405 -26465747.6933405 -17569272.23799658 0 0 0 0 0 96324273.72799595 -25486768.59592013 -25486768.59592013 -17593753.18694467 0 0 0 0 0 98505233.49059807 -24470604.29278452 -24470604.29278452 -17579394.28003218 0 0 0 0 0 97806840.94610614 -23923913.35749961 -23923913.35749961 -17831063.56043361 0 0 0 0 0 100016936.8561414 -23125767.0120252 -23125767.0120252 -17139757.77295362 0 0 0 0 0 101752291.0946452 -22108419.40628513 -22108419.40628513 -17063807.09306878 0 0 0 0 0 103324552.4470751 -21085629.25507604 -21085629.25507604 -16952100.75291797 0 0 0 0 0 104743314.5443477 -20064509.71107611 -20064509.71107611 -16807300.23649643 0 0 0 0 0 106004907.5525293 -19060116.49313283 -19060116.49313283 -16637261.76465019 0 0 0 0 0 107117903.2829717 -18082479.76847774 -18082479.76847774 -16441132.44391308 0 0 0 0 0 106081149.2989749 -17536337.24315788 -17536337.24315788 -16376695.74003572 0 0 0 0 0 107425753.6807639 -17020416.73894304 -17020416.73894304 -15887674.51317438 0 0 0 0 0 108317949.197617 -16109695.5789254 -16109695.5789254 -15657944.98731969 0 0 0 0 0 106684669.5811953 -15546486.75455631 -15546486.75455631 -15286471.93022858 0 0 0 0 0 107455144.1868094 -14701229.30308892 -14701229.30308892 -15018296.45383047 0 0 0 0 0 107548889.6235381 -13857187.02874508 -13857187.02874508 -14478168.70319946 0 0 0 0 0 108488776.9340384 -14301981.44658922 -14301981.44658922 -14592317.84840593 0 0 0 0 0 108161762.7027503 -13085927.31525792 -13085927.31525792 -14201280.68867414 0 0 0 0 0 108705916.9662708 -12340281.71810051 -12340281.71810051 -13913121.13398928 0 0 0 0 0 109186368.5827311 -11621259.53239318 -11621259.53239318 -13615907.01926 0 0 0 0 0 109607826.3967104 -10929158.82019353 -10929158.82019353 -13310924.88369969 0 0 0 0 0 109419566.3433989 -10330141.77946964 -10330141.77946964 -12818690.96318837 0 0 0 0 0 110271990.4100006 -10669834.48081902 -10669834.48081902 -13028262.05108234 0 0 0 0 0 109744118.8239098 -9708254.235810682 -9708254.235810682 -12520390.70422545 0 0 0 0 0 110024427.4072267 -9112131.855115134 -9112131.855115134 -12218381.34161241 0 0 0 0 0 110262449.9411355 -8541274.327368116 -8541274.327368116 -11914150.32624573 0 0 0 0 0 110461842.8459278 -7995390.877170522 -7995390.877170522 -11610048.70808109 0 0 0 0 0 110627847.7810064 -7473361.199100243 -7473361.199100243 -11304913.74902657 0 0 0 0 0 110992237.5578439 -7334176.538611896 -7334176.538611896 -11161320.10569312 0 0 0 0 0 110401479.96128 -6634788.055615726 -6634788.055615726 -10610251.82103703 0 0 0 0 0 111089791.9079545 -6851146.036164858 -6851146.036164858 -10877654.70681902 0 0 0 0 0 110494185.5925475 -6188289.440830328 -6188289.440830328 -10321991.79049818 0 0 0 0 0 110562264.7612742 -5763050.56697385 -5763050.56697385 -10036731.76411384 0 0 0 0 0 110608951.7863127 -5358038.106956176 -5358038.106956176 -9754870.424518475 0 0 0 0 0 110636956.5802428 -4971734.31101449 -4971734.31101449 -9474777.208005466 0 0 0 0 0 110252951.5707147 -4757235.038180402 -4757235.038180402 -9155934.435617028 0 0 0 0 0 110820242.0937767 -4907410.36150407 -4907410.36150407 -9424682.068966556 0 0 0 0 0 110258178.7434418 -4411881.102259504 -4411881.102259504 -8894596.159903925 0 0 0 0 0 110249005.2646129 -4083297.03217466 -4083297.03217466 -8637204.25940848 0 0 0 0 0 110226557.8952073 -3770854.280068879 -3770854.280068879 -8384173.533541879 0 0 0 0 0 110192172.3650192 -3473861.384064115 -3473861.384064115 -8135548.185905095 0 0 0 0 0 110146948.3798927 -3191774.654046044 -3191774.654046044 -7891808.228222152 0 0 0 0 0 110151649.8308797 -2912228.306224752 -2912228.306224752 -7671850.753213015 0 0 0 0 0 110092168.2265492 -2923924.88926648 -2923924.88926648 -7652595.803260182 0 0 0 0 0 109722797.161223 -2826920.670856361 -2826920.670856361 -7420173.45996454 0 0 0 0 0 109663094.7723885 -2586154.257271305 -2586154.257271305 -7198903.591971262 0 0 0 0 0 109598158.3954971 -2358741.746135451 -2358741.746135451 -6974191.297024465 0 0 0 0 0 109516535.9483501 -2153236.483842889 -2153236.483842889 -6767341.889406331 0 0 0 0 0 109429479.8924742 -1957406.214416794 -1957406.214416794 -6566455.904139439 0 0 0 0 0 109334030.6880389 -1769000.444844503 -1769000.444844503 -6372850.89756659 0 0 0 0 0 109337329.1593603 -1781146.037332029 -1781146.037332029 -6423480.403527645 0 0 0 0 0 109001420.315438 -1730022.59604348 -1730022.59604348 -6199526.712803767 0 0 0 0 0 108918508.3723613 -1552846.008404894 -1552846.008404894 -6010947.992444964 0 0 0 0 0 108832345.8269054 -1385128.436186568 -1385128.436186568 -5826565.569382822 0 0 0 0 0 108742505.2306064 -1225845.693938125 -1225845.693938125 -5647051.456394421 0 0 0 0 0 108724360.9696206 -1246635.940518882 -1246635.940518882 -5707806.83713811 0 0 0 0 0 108440111.9445551 -1211254.393168544 -1211254.393168544 -5504790.981838148 0 0 0 0 0 108351479.7063469 -1065680.532194575 -1065680.532194575 -5339285.608371088 0 0 0 0 0 108248823.5524897 -924505.0822438297 -924505.0822438297 -5181496.757751693 0 0 0 0 0 108123335.471949 -808897.4209845564 -808897.4209845564 -5064458.901147971 0 0 0 0 0 108117168.7169223 -667778.3461882704 -667778.3461882704 -4792735.198070103 0 0 0 0 0 108258578.6884399 -706701.774164872 -706701.774164872 -4897371.345437555 0 0 0 0 0 107967472.3590231 -616026.2482763526 -616026.2482763526 -4693857.225535807 0 0 0 0 0 107836168.987114 -564994.3294348057 -564994.3294348057 -4591752.403637815 0 0 0 0 0 107297466.2977136 -15607586.46699477 -15607586.46699477 -15571920.10235296 0 0 0 0 0 -2828210.638246466 -1077110.588565477 -1077110.588565477 -75049410.75115517 0 0 0 0 0 -3791123.991309213 -697192.8039919202 -697192.8039919202 -69749341.51335771 0 0 0 0 0 -3859989.599204128 770090.3115578449 770090.3115578449 -62215757.62269292 0 0 0 0 0 -2981116.17750502 -1184231.925181371 -1184231.925181371 -60296978.47691485 0 0 0 0 0 -2063970.532121449 -2675979.181316469 -2675979.181316469 -56758775.94518846 0 0 0 0 0 -458418.4481146001 -4416848.644842899 -4416848.644842899 -50890944.86329332 0 0 0 0 0 -1274689.853020308 -3441229.229691371 -3441229.229691371 -45882473.86139352 0 0 0 0 0 3542325.419861835 -9733699.11991404 -9733699.11991404 -38514320.8004586 0 0 0 0 0 6497314.518301126 -12338018.53865168 -12338018.53865168 -34706211.9837844 0 0 0 0 0 9898374.322740622 -15049024.65377733 -15049024.65377733 -31267857.08051565 0 0 0 0 0 13762232.83763227 -17759911.26587852 -17759911.26587852 -28258200.4496521 0 0 0 0 0 21158657.70366627 -22238958.68005032 -22238958.68005032 -22941534.00264905 0 0 0 0 0 15219159.61819124 -17056974.08750169 -17056974.08750169 -27117106.39757656 0 0 0 0 0 25738400.44794912 -24468234.16685624 -24468234.16685624 -21408003.21672279 0 0 0 0 0 30537493.56281907 -26472972.43501741 -26472972.43501741 -20212271.84565108 0 0 0 0 0 35497104.61495461 -28219788.73252983 -28219788.73252983 -19321170.6592359 0 0 0 0 0 40535726.42224148 -29685128.63665018 -29685128.63665018 -18697044.86814224 0 0 0 0 0 45597245.97415833 -30859016.99317241 -30859016.99317241 -18294541.24763555 0 0 0 0 0 50620864.27771194 -31740589.97322473 -31740589.97322473 -18072639.55625615 0 0 0 0 0 55561755.50675269 -32338301.99617429 -32338301.99617429 -17991661.62107656 0 0 0 0 0 60376044.53635015 -32666922.385568 -32666922.385568 -18014969.72667541 0 0 0 0 0 64205374.14028944 -31499800.93551236 -31499800.93551236 -17650496.49697814 0 0 0 0 0 66310513.777867 -32472301.12467308 -32472301.12467308 -17686132.46763084 0 0 0 0 0 70532098.63925251 -32251982.35084132 -32251982.35084132 -17867175.03212539 0 0 0 0 0 74549957.30119243 -31848014.52745213 -31848014.52745213 -18054277.24771304 0 0 0 0 0 78351477.55547307 -31282465.29754536 -31282465.29754536 -18232370.74877848 0 0 0 0 0 82288873.12005384 -30109657.32456576 -30109657.32456576 -18000985.55773064 0 0 0 0 0 81792364.94830212 -30152769.7673993 -30152769.7673993 -17590868.14977008 0 0 0 0 0 85466906.00136468 -29297427.50614478 -29297427.50614478 -18139754.96298664 0 0 0 0 0 88431335.05236393 -28396361.78308689 -28396361.78308689 -18237476.51948648 0 0 0 0 0 91181463.41719621 -27425138.1139068 -27425138.1139068 -18292715.32525641 0 0 0 0 0 93721721.821344 -26399479.33548142 -26399479.33548142 -18303150.12219272 0 0 0 0 0 96057763.14479204 -25335069.72577536 -25335069.72577536 -18269845.58062047 0 0 0 0 0 98197326.77504247 -24244116.8381392 -24244116.8381392 -18192458.37025383 0 0 0 0 0 100489709.9902754 -23429347.86719754 -23429347.86719754 -17526037.16087787 0 0 0 0 0 99685081.33283238 -22859005.24117033 -22859005.24117033 -17726602.5159544 0 0 0 0 0 101396502.0211599 -21789325.40603311 -21789325.40603311 -17584085.59252687 0 0 0 0 0 102950455.9222327 -20721890.10569619 -20721890.10569619 -17405856.16557117 0 0 0 0 0 104360915.3403896 -19669664.64816934 -19669664.64816934 -17194736.12192682 0 0 0 0 0 105620097.9622309 -18633637.50825392 -18633637.50825392 -16944301.61706002 0 0 0 0 0 106734916.4427857 -17621266.45015679 -17621266.45015679 -16671758.2020527 0 0 0 0 0 108111333.0057283 -17121110.03533205 -17121110.03533205 -16214786.87361241 0 0 0 0 0 107053026.1038077 -16588276.02886958 -16588276.02886958 -16129225.52651541 0 0 0 0 0 107938095.966483 -15654776.21597628 -15654776.21597628 -15841501.48026433 0 0 0 0 0 108437199.9139221 -15173353.002174 -15173353.002174 -15127450.27207759 0 0 0 0 0 109125451.8761442 -14333957.71564479 -14333957.71564479 -14874221.04992355 0 0 0 0 0 109097672.9204041 -13511206.52612199 -13511206.52612199 -14343381.87261497 0 0 0 0 0 108143580.2794354 -13880328.2185029 -13880328.2185029 -14737296.80707041 0 0 0 0 0 109633602.352744 -12745859.97664328 -12745859.97664328 -14080480.56185596 0 0 0 0 0 110102086.9444101 -12006708.82063547 -12006708.82063547 -13805912.2341155 0 0 0 0 0 110508828.2761035 -11294292.29179746 -11294292.29179746 -13521453.41186267 0 0 0 0 0 110858390.6488603 -10609323.14035856 -10609323.14035856 -13229078.01538955 0 0 0 0 0 110579217.6155624 -10028849.48566649 -10028849.48566649 -12746212.37184432 0 0 0 0 0 109974579.7718374 -10264138.04089699 -10264138.04089699 -13000251.56020512 0 0 0 0 0 110839891.7490289 -9413568.903163465 -9413568.903163465 -12458435.68640456 0 0 0 0 0 111056849.7083519 -8824563.077623501 -8824563.077623501 -12167373.67500694 0 0 0 0 0 111235596.4698085 -8260592.128600945 -8260592.128600945 -11873579.81742807 0 0 0 0 0 111379659.3370298 -7721617.671486316 -7721617.671486316 -11577018.10794143 0 0 0 0 0 111490576.5013543 -7207163.303725269 -7207163.303725269 -11280784.72064061 0 0 0 0 0 110761371.9263457 -6975171.433084205 -6975171.433084205 -11001618.51613766 0 0 0 0 0 111160391.4318818 -6389777.535291638 -6389777.535291638 -10594609.12034959 0 0 0 0 0 110867298.1187094 -6498842.184772663 -6498842.184772663 -10699166.67473894 0 0 0 0 0 111206736.4372732 -5950267.804522828 -5950267.804522828 -10313324.03470263 0 0 0 0 0 111231908.0611386 -5531845.98949404 -5531845.98949404 -10033722.98880979 0 0 0 0 0 111238307.9129721 -5132736.322755465 -5132736.322755465 -9755857.443374703 0 0 0 0 0 111226082.5188359 -4753955.095299727 -4753955.095299727 -9482579.928264558 0 0 0 0 0 110805612.6001357 -4550910.885833165 -4550910.885833165 -9163885.414094038 0 0 0 0 0 110646016.955694 -4605001.138228364 -4605001.138228364 -9200017.351044202 0 0 0 0 0 110776827.4591866 -4211736.617394715 -4211736.617394715 -8906482.646686934 0 0 0 0 0 110735149.3710338 -3889265.845860624 -3889265.845860624 -8652817.762290724 0 0 0 0 0 110681957.0942532 -3582849.465903576 -3582849.465903576 -8403017.512630751 0 0 0 0 0 110618363.8034575 -3291855.4023396 -3291855.4023396 -8157536.513830602 0 0 0 0 0 110545703.7639055 -3015472.494356488 -3015472.494356488 -7916250.124806143 0 0 0 0 0 110028693.1490972 -2669894.139207247 -2669894.139207247 -7418513.377798816 0 0 0 0 0 110464518.2582008 -2753268.882442317 -2753268.882442317 -7679694.061837058 0 0 0 0 0 110074492.5532345 -2664297.925238223 -2664297.925238223 -7446559.215834068 0 0 0 0 0 109994473.7354109 -2429402.911884064 -2429402.911884064 -7226126.024529366 0 0 0 0 0 109889628.5795918 -2215914.066697469 -2215914.066697469 -7020732.284885334 0 0 0 0 0 109784879.6446527 -2014465.348504882 -2014465.348504882 -6816273.031506384 0 0 0 0 0 109682134.3518612 -1821383.236719424 -1821383.236719424 -6614245.543998228 0 0 0 0 0 109585291.6116298 -1631605.520240894 -1631605.520240894 -6406092.954353902 0 0 0 0 0 109246245.4802545 -1583073.412872217 -1583073.412872217 -6174940.220599206 0 0 0 0 0 109241271.4469147 -1598999.110655766 -1598999.110655766 -6231203.996847238 0 0 0 0 0 109142209.7820688 -1426248.647876174 -1426248.647876174 -6043500.861006033 0 0 0 0 0 109040114.0326496 -1262430.945038261 -1262430.945038261 -5860284.228120508 0 0 0 0 0 108936339.9363931 -1107565.717101859 -1107565.717101859 -5681258.268787853 0 0 0 0 0 108649764.3463122 -1074783.864853863 -1074783.864853863 -5471876.05669732 0 0 0 0 0 108625481.0241285 -1098437.029982372 -1098437.029982372 -5537067.935996484 0 0 0 0 0 108524928.2165318 -958059.969047081 -958059.969047081 -5370912.678799735 0 0 0 0 0 108426120.555596 -823681.6529318353 -823681.6529318353 -5207648.337566538 0 0 0 0 0 108318910.4096615 -690388.7173482365 -690388.7173482365 -5020529.382259801 0 0 0 0 0 108033976.7581406 -604842.9267475536 -604842.9267475536 -4900220.523801957 0 0 0 0 0 108139763.3498907 -653226.0555568101 -653226.0555568101 -4985142.864196025 0 0 0 0 0 107907020.8584239 -557659.5420370059 -557659.5420370059 -4789238.832871801 0 0 0 0 0 107777970.0888632 -508359.2378541967 -508359.2378541967 -4684303.576670087 0 0 0 0 0 109102620.5152934 -15216959.79639775 -15216959.79639775 -15409536.22807824 0 0 0 0 0 -3093571.596111726 2880163.769575539 2880163.769575539 -82741065.42236276 0 0 0 0 0 -3926309.022565139 3259604.560148341 3259604.560148341 -75442803.40174466 0 0 0 0 0 -3843001.743861069 1163534.29894387 1163534.29894387 -70682493.65886392 0 0 0 0 0 -3796308.609666191 876316.7713577218 876316.7713577218 -60681402.98149553 0 0 0 0 0 -3764920.807878807 1291858.698275478 1291858.698275478 -58611265.10560753 0 0 0 0 0 -3365307.578884145 210111.7193531295 210111.7193531295 -54536927.28027949 0 0 0 0 0 1312748.122965117 -6747354.367102582 -6747354.367102582 -45589535.88027602 0 0 0 0 0 1045330.031831975 -5847413.548261357 -5847413.548261357 -41823697.35542381 0 0 0 0 0 3971363.93051237 -8571309.336209923 -8571309.336209923 -37876995.55370999 0 0 0 0 0 7581904.839303019 -11482372.55447882 -11482372.55447882 -34244506.2811967 0 0 0 0 0 11730673.54014327 -14433279.47178459 -14433279.47178459 -31009632.22060621 0 0 0 0 0 19933764.96707984 -19680989.41238732 -19680989.41238732 -24974561.50018086 0 0 0 0 0 18028790.73649982 -20403877.31992677 -20403877.31992677 -25708227.28141058 0 0 0 0 0 24979402.32844007 -22133473.43886381 -22133473.43886381 -23179586.87562086 0 0 0 0 0 30264295.22215143 -24357171.1675666 -24357171.1675666 -21716055.14269895 0 0 0 0 0 35709337.51928756 -26313229.74130668 -26313229.74130668 -20564441.67498766 0 0 0 0 0 41236195.59408642 -27975012.61853956 -27975012.61853956 -19689353.97684312 0 0 0 0 0 46761112.73705488 -29328798.52157462 -29328798.52157462 -19057474.65726826 0 0 0 0 0 52204097.32361094 -30368153.65376122 -30368153.65376122 -18628237.18133141 0 0 0 0 0 57514659.99307853 -31104490.39671888 -31104490.39671888 -18364682.13720384 0 0 0 0 0 62649020.64038993 -31552567.35311648 -31552567.35311648 -18228992.79623513 0 0 0 0 0 65029269.09978585 -32746712.66630895 -32746712.66630895 -18111367.1405566 0 0 0 0 0 68848035.05937816 -31566427.22906112 -31566427.22906112 -17695502.92201205 0 0 0 0 0 73260180.83246329 -31416180.59779804 -31416180.59779804 -17783336.49184373 0 0 0 0 0 77428558.9480398 -31071645.75507688 -31071645.75507688 -17894593.75555801 0 0 0 0 0 81337505.2177977 -30554900.86821525 -30554900.86821525 -18013509.48482225 0 0 0 0 0 85243686.68708827 -29476674.24136865 -29476674.24136865 -17725261.71061334 0 0 0 0 0 81927136.40308554 -30577224.89704329 -30577224.89704329 -18387648.43652132 0 0 0 0 0 88453185.74948452 -28690002.07451788 -28690002.07451788 -17836597.04600392 0 0 0 0 0 91419215.87810408 -27811520.33538621 -27811520.33538621 -17918990.62044487 0 0 0 0 0 94147540.34822579 -26859369.56071833 -26859369.56071833 -17966912.00685393 0 0 0 0 0 96644378.19460779 -25850512.87346925 -25850512.87346925 -17977746.68426239 0 0 0 0 0 98920184.68073654 -24799750.92746076 -24799750.92746076 -17949222.52928729 0 0 0 0 0 100985347.1438607 -23721062.23355605 -23721062.23355605 -17881416.00254133 0 0 0 0 0 100148724.9923472 -23138361.16874239 -23138361.16874239 -18073208.98996603 0 0 0 0 0 102288750.7718085 -22373533.13943097 -22373533.13943097 -17434567.30597933 0 0 0 0 0 103913641.6577611 -21312119.6670822 -21312119.6670822 -17306414.33874932 0 0 0 0 0 105375526.0724805 -20253088.22105065 -20253088.22105065 -17144340.49858704 0 0 0 0 0 106680306.8617986 -19206956.81232556 -19206956.81232556 -16951080.84394801 0 0 0 0 0 107825131.1438293 -18187328.1210411 -18187328.1210411 -16741118.46089716 0 0 0 0 0 108830187.0047491 -17190899.85448188 -17190899.85448188 -16499507.91152057 0 0 0 0 0 107724958.0641134 -16643060.59088212 -16643060.59088212 -16385426.67530147 0 0 0 0 0 109006160.2612482 -16171294.03030282 -16171294.03030282 -15948903.55074424 0 0 0 0 0 109799296.2566431 -15245403.26111691 -15245403.26111691 -15674042.34868705 0 0 0 0 0 108077998.9840093 -14732723.8762462 -14732723.8762462 -15283397.72371036 0 0 0 0 0 108771652.7335455 -13885842.80507372 -13885842.80507372 -14980484.50848456 0 0 0 0 0 108757984.4575608 -13084621.39505468 -13084621.39505468 -14441866.30270034 0 0 0 0 0 109733356.8820888 -13519234.90861567 -13519234.90861567 -14604382.99479919 0 0 0 0 0 109301210.3062016 -12316173.56133126 -12316173.56133126 -14134849.41635424 0 0 0 0 0 109778213.5659506 -11575955.84822507 -11575955.84822507 -13818849.46053591 0 0 0 0 0 110193946.1827994 -10864592.35261075 -10864592.35261075 -13496077.79563149 0 0 0 0 0 110553223.126618 -10182066.45469986 -10182066.45469986 -13167595.50637627 0 0 0 0 0 110291147.9390415 -9625978.300908757 -9625978.300908757 -12685170.37226924 0 0 0 0 0 111156235.5572644 -9951562.92407757 -9951562.92407757 -12929752.06229183 0 0 0 0 0 110562423.2168285 -9014520.853772558 -9014520.853772558 -12366822.08081721 0 0 0 0 0 110791574.2661466 -8429651.95491975 -8429651.95491975 -12046832.26958 0 0 0 0 0 110981450.3117475 -7871701.44791624 -7871701.44791624 -11726591.34814644 0 0 0 0 0 111135431.820197 -7339067.807541302 -7339067.807541302 -11407132.64632018 0 0 0 0 0 111257961.4325403 -6831142.213000058 -6831142.213000058 -11089235.65379975 0 0 0 0 0 111573664.0574694 -6715636.510374784 -6715636.510374784 -10983480.79788151 0 0 0 0 0 110947519.4436569 -6044920.984533599 -6044920.984533599 -10398494.71320841 0 0 0 0 0 111631545.5468857 -6246508.303343146 -6246508.303343146 -10687140.45529856 0 0 0 0 0 111003785.2136038 -5613202.994417364 -5613202.994417364 -10101071.25436931 0 0 0 0 0 111037958.443776 -5202500.484204341 -5202500.484204341 -9807988.121103395 0 0 0 0 0 111053302.5749987 -4811367.187882727 -4811367.187882727 -9517250.735621244 0 0 0 0 0 111050064.4807276 -4440505.632773938 -4440505.632773938 -9231618.756460439 0 0 0 0 0 110639366.360273 -4256106.46746187 -4256106.46746187 -8929034.433238441 0 0 0 0 0 111198512.8531642 -4393664.943571397 -4393664.943571397 -9211414.639841616 0 0 0 0 0 110618248.0568144 -3924575.70227491 -3924575.70227491 -8662617.529431552 0 0 0 0 0 110584087.0592148 -3609748.909390696 -3609748.909390696 -8400933.138129642 0 0 0 0 0 110538082.1263687 -3310952.22983102 -3310952.22983102 -8144377.560798663 0 0 0 0 0 110481513.4180272 -3027459.29514719 -3027459.29514719 -7892991.28720183 0 0 0 0 0 110415442.4756673 -2758557.161289625 -2758557.161289625 -7646924.246310853 0 0 0 0 0 110376108.9144039 -2504821.641047695 -2504821.641047695 -7447606.047325489 0 0 0 0 0 110340960.2310051 -2503851.436161828 -2503851.436161828 -7405694.772295797 0 0 0 0 0 109958419.7551937 -2429865.385063107 -2429865.385063107 -7188427.797458056 0 0 0 0 0 109876718.9566384 -2203860.482171907 -2203860.482171907 -6964761.105505346 0 0 0 0 0 109790859.4522249 -1993090.23550586 -1993090.23550586 -6746333.595453893 0 0 0 0 0 109696956.8764411 -1797255.563091203 -1797255.563091203 -6540449.824867932 0 0 0 0 0 109595930.4664643 -1611968.364566862 -1611968.364566862 -6341604.260971466 0 0 0 0 0 109494626.3524006 -1428892.314847797 -1428892.314847797 -6141059.017654084 0 0 0 0 0 109480626.9101092 -1450374.504948934 -1450374.504948934 -6209067.9515301 0 0 0 0 0 109154696.8799413 -1406793.266105811 -1406793.266105811 -5981734.860278605 0 0 0 0 0 109059920.9949823 -1239708.951317491 -1239708.951317491 -5793819.198167678 0 0 0 0 0 108962409.0195469 -1081726.378121175 -1081726.378121175 -5609684.197973403 0 0 0 0 0 108861606.0888454 -932252.1452368016 -932252.1452368016 -5431997.915572602 0 0 0 0 0 108830057.5999926 -960407.9323936029 -960407.9323936029 -5506468.302144281 0 0 0 0 0 108554613.9110132 -931573.7906804235 -931573.7906804235 -5300586.283301671 0 0 0 0 0 108457832.8478006 -795591.8014758668 -795591.8014758668 -5133325.752645265 0 0 0 0 0 108361934.213798 -666705.2126551546 -666705.2126551546 -4975533.426428544 0 0 0 0 0 108342195.5846296 -547086.733786367 -547086.733786367 -4803209.10200174 0 0 0 0 0 108134143.8507842 -439772.6163998467 -439772.6163998467 -4600980.937457727 0 0 0 0 0 108257762.5941686 -480806.6537385351 -480806.6537385351 -4695346.126374115 0 0 0 0 0 107995029.2982656 -392867.5516541121 -392867.5516541121 -4499553.062470769 0 0 0 0 0 108730846.0629243 -14748283.12607106 -14748283.12607106 -15531090.36920923 0 0 0 0 0 -1776879.67382164 -1255773.935934671 -1255773.935934671 -86497422.45253879 0 0 0 0 0 -3015461.275922788 124713.1993327367 124713.1993327367 -83374519.33357303 0 0 0 0 0 -2933078.259725567 1157242.514878354 1157242.514878354 -70462518.54044589 0 0 0 0 0 -2894394.543496324 798917.0311898517 798917.0311898517 -69061180.59767681 0 0 0 0 0 -1897316.161263712 -1189930.56371623 -1189930.56371623 -60984433.18446244 0 0 0 0 0 -416552.8228898592 -3225380.448408923 -3225380.448408923 -54064509.14090894 0 0 0 0 0 -1230580.604826227 -2137060.881733662 -2137060.881733662 -49370781.9350394 0 0 0 0 0 3843431.230888994 -9330389.348136103 -9330389.348136103 -40636950.02379046 0 0 0 0 0 6988937.569575541 -12155313.45017397 -12155313.45017397 -36197885.90812048 0 0 0 0 0 10673441.99901024 -15054426.41624093 -15054426.41624093 -32266484.99205821 0 0 0 0 0 14822258.77008886 -17962038.58061248 -17962038.58061248 -28896372.11636699 0 0 0 0 0 22638883.28775767 -22902887.74526848 -22902887.74526848 -23621387.61575163 0 0 0 0 0 16370561.47376537 -17344623.25336927 -17344623.25336927 -28185938.29802565 0 0 0 0 0 27529904.61546933 -25185899.12127708 -25185899.12127708 -21958979.9039006 0 0 0 0 0 32629876.39140895 -27207350.93673473 -27207350.93673473 -20683279.56934801 0 0 0 0 0 37859678.77305824 -28935858.33934831 -28935858.33934831 -19753603.99067752 0 0 0 0 0 43145355.22423547 -30351227.24286765 -30351227.24286765 -19111016.61413781 0 0 0 0 0 48419454.63092742 -31447685.96927858 -31447685.96927858 -18706586.34251777 0 0 0 0 0 53618325.24081168 -32227367.85892978 -32227367.85892978 -18489153.52630956 0 0 0 0 0 58695930.15746722 -32707832.21121972 -32707832.21121972 -18413613.55242052 0 0 0 0 0 63610710.29651488 -32908619.12159422 -32908619.12159422 -18439607.51037207 0 0 0 0 0 67568745.09229356 -31731343.85284993 -31731343.85284993 -18187112.62522689 0 0 0 0 0 69487046.57366589 -32596240.51803615 -32596240.51803615 -18247377.78772801 0 0 0 0 0 73730736.79764372 -32240886.1357618 -32240886.1357618 -18405045.84564056 0 0 0 0 0 77746771.27276404 -31704323.83578952 -31704323.83578952 -18563886.72827652 0 0 0 0 0 81519762.02647822 -31011408.14105713 -31011408.14105713 -18705252.45805215 0 0 0 0 0 85272744.52947676 -29756397.117582 -29756397.117582 -18515071.46667457 0 0 0 0 0 84984018.26589407 -29890711.73761269 -29890711.73761269 -18124360.86576422 0 0 0 0 0 88388653.50907929 -28837177.30507521 -28837177.30507521 -18602109.69433194 0 0 0 0 0 91274940.55001053 -27839992.46662015 -27839992.46662015 -18647152.17289424 0 0 0 0 0 93935726.97422741 -26782496.68682196 -26782496.68682196 -18647308.53671828 0 0 0 0 0 96376593.93029545 -25681726.45522216 -25681726.45522216 -18603515.56550628 0 0 0 0 0 98606827.48275039 -24551274.88359748 -24551274.88359748 -18514206.89710769 0 0 0 0 0 100635816.7940706 -23404365.97586077 -23404365.97586077 -18381692.83795252 0 0 0 0 0 102851692.0263165 -22626412.3533901 -22626412.3533901 -17774929.80156483 0 0 0 0 0 101922038.0364946 -22027547.07812748 -22027547.07812748 -17914734.60243664 0 0 0 0 0 103527513.663829 -20919869.2933888 -20919869.2933888 -17719636.60080059 0 0 0 0 0 104977325.1253293 -19824347.32948076 -19824347.32948076 -17490336.03540896 0 0 0 0 0 106276455.4433155 -18746929.7523515 -18746929.7523515 -17231185.49292446 0 0 0 0 0 107428745.155096 -17693605.75019394 -17693605.75019394 -16931333.14116566 0 0 0 0 0 108440528.6419469 -16672965.06239143 -16672965.06239143 -16616385.85845352 0 0 0 0 0 109725309.531637 -16216159.51905522 -16216159.51905522 -16218927.82394656 0 0 0 0 0 108615003.1921659 -15684047.70204598 -15684047.70204598 -16087514.26909931 0 0 0 0 0 109410636.4098772 -14748758.69570586 -14748758.69570586 -15759474.61153765 0 0 0 0 0 109794402.9068787 -14349734.50439847 -14349734.50439847 -15139144.51467466 0 0 0 0 0 110398731.3493399 -13510030.28350632 -13510030.28350632 -14852425.52305743 0 0 0 0 0 110266661.805294 -12730048.02689037 -12730048.02689037 -14322342.39186158 0 0 0 0 0 109383455.3022875 -13066703.00568772 -13066703.00568772 -14667141.90213902 0 0 0 0 0 110730185.4292635 -11968859.50649 -11968859.50649 -14029225.70488635 0 0 0 0 0 111129056.2496187 -11236196.51813006 -11236196.51813006 -13726684.89017313 0 0 0 0 0 111469621.1456549 -10532660.55101933 -10532660.55101933 -13416402.74778035 0 0 0 0 0 111755956.1597613 -9858456.309537694 -9858456.309537694 -13100622.89011682 0 0 0 0 0 111407179.4288428 -9320746.035730703 -9320746.035730703 -12625443.46884154 0 0 0 0 0 110860251.8949483 -9528442.291428529 -9528442.291428529 -12836298.02725429 0 0 0 0 0 111613314.9003557 -8716581.407614879 -8716581.407614879 -12317493.45406618 0 0 0 0 0 111779236.4507851 -8139444.944492463 -8139444.944492463 -12007676.91443078 0 0 0 0 0 111909655.581324 -7589284.114512729 -7589284.114512729 -11696951.00703992 0 0 0 0 0 112007650.8830533 -7064452.44925522 -7064452.44925522 -11385505.85527049 0 0 0 0 0 112076232.3449095 -6564229.516991638 -6564229.516991638 -11074978.55768097 0 0 0 0 0 111350217.2131995 -6347499.269971882 -6347499.269971882 -10773556.80498112 0 0 0 0 0 111664645.7852286 -5800170.619963693 -5800170.619963693 -10393042.56209153 0 0 0 0 0 111415647.5735313 -5887545.32241563 -5887545.32241563 -10461321.07667565 0 0 0 0 0 111675756.961754 -5375608.820445831 -5375608.820445831 -10101521.7100868 0 0 0 0 0 111668820.5456966 -4971390.843654626 -4971390.843654626 -9812104.951229798 0 0 0 0 0 111642982.987409 -4588235.189239714 -4588235.189239714 -9527821.770007897 0 0 0 0 0 111601032.6283167 -4224657.604021235 -4224657.604021235 -9247354.604270445 0 0 0 0 0 111156811.384669 -4051315.687973097 -4051315.687973097 -8944357.840190334 0 0 0 0 0 111030230.6461459 -4088717.308659086 -4088717.308659086 -8951644.93867401 0 0 0 0 0 111102417.7325339 -3726267.500444554 -3726267.500444554 -8681477.657058133 0 0 0 0 0 111036659.1087247 -3417880.956565707 -3417880.956565707 -8423129.885505719 0 0 0 0 0 110960929.8033133 -3125357.494058949 -3125357.494058949 -8169378.045448028 0 0 0 0 0 110876267.8914031 -2847980.56911944 -2847980.56911944 -7920557.995096877 0 0 0 0 0 110783813.5689966 -2585061.015771926 -2585061.015771926 -7676729.270798088 0 0 0 0 0 110259961.7562976 -2263881.70713584 -2263881.70713584 -7168418.476264759 0 0 0 0 0 110683831.5481825 -2335758.401226506 -2335758.401226506 -7437927.130364469 0 0 0 0 0 110278209.9160568 -2273214.327394229 -2273214.327394229 -7224372.364066376 0 0 0 0 0 110174466.5263715 -2055704.237733406 -2055704.237733406 -7007665.533499781 0 0 0 0 0 110058263.8140752 -1852358.993106544 -1852358.993106544 -6795991.748850643 0 0 0 0 0 109947815.1098513 -1659538.470431834 -1659538.470431834 -6588162.744543886 0 0 0 0 0 109836345.5503281 -1473723.383234758 -1473723.383234758 -6380328.00860368 0 0 0 0 0 109722707.8715262 -1294824.237945331 -1294824.237945331 -6177713.972356461 0 0 0 0 0 109394221.5456547 -1253694.042999594 -1253694.042999594 -5944007.28520375 0 0 0 0 0 109372697.7928384 -1278513.48041723 -1278513.48041723 -6016758.691664491 0 0 0 0 0 109262737.179214 -1116069.817473931 -1116069.817473931 -5829325.726593164 0 0 0 0 0 109149455.5922627 -962686.4909214719 -962686.4909214719 -5646866.247732919 0 0 0 0 0 109036794.8529752 -817633.0521687885 -817633.0521687885 -5468723.285770026 0 0 0 0 0 108758564.3645379 -790280.4301809728 -790280.4301809728 -5257760.862377958 0 0 0 0 0 108721695.3580274 -820854.3242082136 -820854.3242082136 -5335556.122775388 0 0 0 0 0 108613988.7601281 -688258.3473225245 -688258.3473225245 -5168906.867788218 0 0 0 0 0 108512609.8613434 -562681.4730316491 -562681.4730316491 -5007202.668303792 0 0 0 0 0 108369762.8717609 -463005.6083427834 -463005.6083427834 -4866445.395794025 0 0 0 0 0 108061010.4253089 -380537.3861928254 -380537.3861928254 -4699070.750359574 0 0 0 0 0 108202318.2913897 -421211.6643840941 -421211.6643840941 -4801952.689782172 0 0 0 0 0 107927111.0623076 -336386.1229671298 -336386.1229671298 -4591624.919749498 0 0 0 0 0 110493825.6595007 -14348630.90873498 -14348630.90873498 -15385510.68439041 0 0 0 0 0 -2514997.885227239 3037751.953110124 3037751.953110124 -101266512.1050369 0 0 0 0 0 806542.6577744161 2994754.831032989 2994754.831032989 -84243372.11660397 0 0 0 0 0 -3728479.543719144 4229743.555896286 4229743.555896286 -82302236.06238395 0 0 0 0 0 -2710502.812122063 2751553.685748084 2751553.685748084 -68626396.02041955 0 0 0 0 0 -3805441.40653486 4550112.442463611 4550112.442463611 -66070553.31156227 0 0 0 0 0 -2952962.18204585 2519554.976261279 2519554.976261279 -58438428.50339863 0 0 0 0 0 1565375.646795212 -5568437.636611014 -5568437.636611014 -47809581.2832114 0 0 0 0 0 1032822.119648667 -4817288.600802565 -4817288.600802565 -44363349.50420272 0 0 0 0 0 4289721.265465614 -7861838.414475927 -7861838.414475927 -39766761.37551568 0 0 0 0 0 8154535.424732405 -11050378.77112947 -11050378.77112947 -35590633.21158093 0 0 0 0 0 12628674.85693775 -14295793.87893513 -14295793.87893513 -31921230.85642188 0 0 0 0 0 21465148.43818627 -20121713.25619122 -20121713.25619122 -25793532.59567381 0 0 0 0 0 19402447.04933903 -20782344.87747294 -20782344.87747294 -26116148.19524356 0 0 0 0 0 26876279.98843006 -22678746.07660696 -22678746.07660696 -23822223.01488439 0 0 0 0 0 32500465.55867353 -24960528.36915413 -24960528.36915413 -22240681.36456227 0 0 0 0 0 38271895.49667861 -26936518.01358501 -26936518.01358501 -21011012.5869791 0 0 0 0 0 44075777.38563854 -28576491.49631931 -28576491.49631931 -20093809.35600736 0 0 0 0 0 49830650.008275 -29869881.05653199 -29869881.05653199 -19442524.41803196 0 0 0 0 0 55455082.22112362 -30821982.12616973 -30821982.12616973 -19006378.76010299 0 0 0 0 0 60903511.14961307 -31450680.1336595 -31450680.1336595 -18740432.15177869 0 0 0 0 0 66130652.24353705 -31775112.8284915 -31775112.8284915 -18603103.43315907 0 0 0 0 0 68328288.33839664 -32853305.5385629 -32853305.5385629 -18534499.43393674 0 0 0 0 0 72254553.45434384 -31668042.26307373 -31668042.26307373 -18215766.28100401 0 0 0 0 0 76679231.42125008 -31386972.14454454 -31386972.14454454 -18284413.97588778 0 0 0 0 0 80817445.63430539 -30909021.61497008 -30909021.61497008 -18370871.99402653 0 0 0 0 0 84674038.21512845 -30268645.52887826 -30268645.52887826 -18459283.75711691 0 0 0 0 0 88369072.90466993 -29100901.73802054 -29100901.73802054 -18216451.95616449 0 0 0 0 0 85047058.11113653 -30188676.83590014 -30188676.83590014 -18824079.14117369 0 0 0 0 0 91491429.15628146 -28209902.01861727 -28209902.01861727 -18284429.90372321 0 0 0 0 0 94356222.26573129 -27236427.84096564 -27236427.84096564 -18318655.8720917 0 0 0 0 0 96972770.63106869 -26199912.43931204 -26199912.43931204 -18317524.99600457 0 0 0 0 0 99351754.05476137 -25115950.27846628 -25115950.27846628 -18276723.55611603 0 0 0 0 0 101502831.9747082 -24000120.50255561 -24000120.50255561 -18196338.85854836 0 0 0 0 0 103440910.4723422 -22866385.25233221 -22866385.25233221 -18076261.11804398 0 0 0 0 0 102474282.2002387 -22252042.26802102 -22252042.26802102 -18208701.88706485 0 0 0 0 0 104532356.1846058 -21525948.06681865 -21525948.06681865 -17631337.19465229 0 0 0 0 0 106038581.1686268 -20428208.50514317 -20428208.50514317 -17453106.21923458 0 0 0 0 0 107380185.2886305 -19342011.24547438 -19342011.24547438 -17242868.44739882 0 0 0 0 0 108568755.371715 -18273479.02870305 -18273479.02870305 -17001967.51823275 0 0 0 0 0 109600495.5042071 -17239426.7093266 -17239426.7093266 -16748239.78496205 0 0 0 0 0 110492844.6678519 -16233869.42822992 -16233869.42822992 -16466646.59288057 0 0 0 0 0 109330658.5811999 -15692469.17052781 -15692469.17052781 -16300658.25065889 0 0 0 0 0 110524471.0652461 -15256724.9846419 -15256724.9846419 -15918961.64955604 0 0 0 0 0 111226006.7716015 -14332210.19137808 -14332210.19137808 -15607873.63110244 0 0 0 0 0 109428808.4407405 -13873678.00648074 -13873678.00648074 -15208372.18285078 0 0 0 0 0 110041649.9098544 -13029505.08696531 -13029505.08696531 -14872333.47804659 0 0 0 0 0 109923747.3176946 -12275574.97991079 -12275574.97991079 -14341552.88302469 0 0 0 0 0 110927656.0182506 -12697887.91240422 -12697887.91240422 -14549743.04060476 0 0 0 0 0 110396411.7687209 -11513865.62914968 -11513865.62914968 -14006603.1649445 0 0 0 0 0 110805464.304835 -10783060.07380371 -10783060.07380371 -13665208.20223897 0 0 0 0 0 111156313.1902395 -10082926.31052191 -10082926.31052191 -13319448.48370015 0 0 0 0 0 111454124.2297285 -9412587.051943777 -9412587.051943777 -12970128.46971295 0 0 0 0 0 111121189.185499 -8901935.728543419 -8901935.728543419 -12501574.85215035 0 0 0 0 0 111994105.5024078 -9212241.918859068 -9212241.918859068 -12778995.04593161 0 0 0 0 0 111339374.8260117 -8303400.917527523 -8303400.917527523 -12165037.02085344 0 0 0 0 0 111517646.7868121 -7733234.722344727 -7733234.722344727 -11829442.0115462 0 0 0 0 0 111658989.2002523 -7190423.273516187 -7190423.273516187 -11495352.45306014 0 0 0 0 0 111767043.3488373 -6673792.7714797 -6673792.7714797 -11163627.17397269 0 0 0 0 0 111846394.3645134 -6182448.754703453 -6182448.754703453 -10834639.16904596 0 0 0 0 0 112117620.2751382 -6088813.311863995 -6088813.311863995 -10766409.04656106 0 0 0 0 0 111458185.0810091 -5449702.125043227 -5449702.125043227 -10152262.00494902 0 0 0 0 0 112135611.2844274 -5636379.272762263 -5636379.272762263 -10459623.39905192 0 0 0 0 0 111478910.0528963 -5033863.592025165 -5033863.592025165 -9847430.651212126 0 0 0 0 0 111480252.9307557 -4638792.966250476 -4638792.966250476 -9546881.181095591 0 0 0 0 0 111464163.8075608 -4263874.140085315 -4263874.140085315 -9250660.155794714 0 0 0 0 0 111431270.1624932 -3909044.873446278 -3909044.873446278 -8960656.613439912 0 0 0 0 0 110996685.0314533 -3754501.308307435 -3754501.308307435 -8675953.709067624 0 0 0 0 0 111545727.5839422 -3879376.984780183 -3879376.984780183 -8970161.813017843 0 0 0 0 0 110950023.7813349 -3437680.161007735 -3437680.161007735 -8405752.049842807 0 0 0 0 0 110891760.4643952 -3137463.985985118 -3137463.985985118 -8141168.194849744 0 0 0 0 0 110823140.1711854 -2853017.648101685 -2853017.648101685 -7882377.76492604 0 0 0 0 0 110745374.5942676 -2583621.016030489 -2583621.016030489 -7629410.76870325 0 0 0 0 0 110659295.0479781 -2328393.496822323 -2328393.496822323 -7382764.564171039 0 0 0 0 0 110577373.3940247 -2099842.412071636 -2099842.412071636 -7203923.504158292 0 0 0 0 0 110565901.5713962 -2087387.355586176 -2087387.355586176 -7142083.348361029 0 0 0 0 0 110175916.8991545 -2035857.427782201 -2035857.427782201 -6936390.903807819 0 0 0 0 0 110066368.4623796 -1828644.397344232 -1828644.397344232 -6718755.472072206 0 0 0 0 0 109962777.1525147 -1634149.783191462 -1634149.783191462 -6505935.164509341 0 0 0 0 0 109852432.7409588 -1449768.534832451 -1449768.534832451 -6303919.951956553 0 0 0 0 0 109747819.5788455 -1267109.164502162 -1267109.164502162 -6097676.067218907 0 0 0 0 0 109637197.5585152 -1093689.202624767 -1093689.202624767 -5896250.717496179 0 0 0 0 0 109606511.2514087 -1124202.603154319 -1124202.603154319 -5981264.746575518 0 0 0 0 0 109290806.0238612 -1087979.849161932 -1087979.849161932 -5751422.402643564 0 0 0 0 0 109183725.1997867 -931896.052043346 -931896.052043346 -5565536.388576807 0 0 0 0 0 109075930.4302417 -784259.4891169464 -784259.4891169464 -5382826.413521553 0 0 0 0 0 108963387.8848266 -645300.4558682916 -645300.4558682916 -5208788.073384448 0 0 0 0 0 108921884.1982632 -679134.8654781699 -679134.8654781699 -5293951.41152574 0 0 0 0 0 108654949.2618086 -655519.6164932995 -655519.6164932995 -5086984.339772858 0 0 0 0 0 108552797.9345701 -529528.9602484406 -529528.9602484406 -4921155.783719887 0 0 0 0 0 108460420.7576502 -413331.1829306262 -413331.1829306262 -4772614.887494836 0 0 0 0 0 108389870.4464815 -305707.6169913582 -305707.6169913582 -4592506.455118491 0 0 0 0 0 108279011.4372924 -259896.8222427363 -259896.8222427363 -4502985.948436277 0 0 0 0 0 108147619.5375135 -218820.616997182 -218820.616997182 -4403282.383363262 0 0 0 0 0 110115942.1811875 -13844267.44142442 -13844267.44142442 -15414416.01103866 0 0 0 0 0 -1947906.169586475 4927944.537085861 4927944.537085861 -97366111.70005308 0 0 0 0 0 -650107.9740024934 4663649.841068831 4663649.841068831 -81265565.12212442 0 0 0 0 0 -3388832.443989612 5627124.272714991 5627124.272714991 -80008309.61968268 0 0 0 0 0 -1088155.57038581 1054005.78880847 1054005.78880847 -64420091.06131952 0 0 0 0 0 -1885215.54455022 3167380.351967562 3167380.351967562 -68067451.38041112 0 0 0 0 0 -367873.9024240685 -1160424.124859019 -1160424.124859019 -55471601.47050184 0 0 0 0 0 -1292536.397625126 -165476.6542816943 -165476.6542816943 -52103667.36951666 0 0 0 0 0 4234374.531096422 -8482299.036484543 -8482299.036484543 -42100091.3682494 0 0 0 0 0 7651728.027194896 -11552388.73116906 -11552388.73116906 -36984468.12918761 0 0 0 0 0 11581646.06444877 -14755968.50745629 -14755968.50745629 -32568044.26348186 0 0 0 0 0 16022505.0128943 -17968635.97471069 -17968635.97471069 -28939043.30566185 0 0 0 0 0 24342244.04725112 -23402636.7367274 -23402636.7367274 -23876703.9302309 0 0 0 0 0 17695425.73776439 -17461631.91504602 -17461631.91504602 -28782879.27404173 0 0 0 0 0 29554654.4072036 -25758574.91237444 -25758574.91237444 -22129090.20965952 0 0 0 0 0 34957131.29042895 -27810050.24319244 -27810050.24319244 -20814395.61609571 0 0 0 0 0 40465968.49007748 -29528384.98728775 -29528384.98728775 -19881314.84037726 0 0 0 0 0 45998227.62552453 -30894027.56772539 -30894027.56772539 -19259652.01670992 0 0 0 0 0 51472979.56434205 -31904870.30909741 -31904870.30909741 -18880980.888832 0 0 0 0 0 56833653.39021087 -32578297.68161503 -32578297.68161503 -18691272.55370899 0 0 0 0 0 62031971.81220921 -32936791.3428414 -32936791.3428414 -18641282.79956338 0 0 0 0 0 67028448.92574771 -33004124.19249101 -33004124.19249101 -18688160.17007185 0 0 0 0 0 71112710.26955573 -31825427.14656773 -31825427.14656773 -18558856.7363892 0 0 0 0 0 72821413.04457603 -32565475.37952943 -32565475.37952943 -18662747.34775707 0 0 0 0 0 77069431.61598647 -32075684.7357397 -32075684.7357397 -18801254.81798984 0 0 0 0 0 81057614.87533906 -31405987.25940859 -31405987.25940859 -18930908.85129296 0 0 0 0 0 84779382.2562698 -30590557.18038318 -30590557.18038318 -19042455.19368776 0 0 0 0 0 88328619.399095 -29256481.12436422 -29256481.12436422 -18904232.55507568 0 0 0 0 0 88248801.63831426 -29484381.43177866 -29484381.43177866 -18531594.18996366 0 0 0 0 0 91361546.56778365 -28236357.0400018 -28236357.0400018 -18941261.46933399 0 0 0 0 0 94151856.02818276 -27149951.9253416 -27149951.9253416 -18934837.02962037 0 0 0 0 0 96706076.76161608 -26014294.17156619 -26014294.17156619 -18883379.38840108 0 0 0 0 0 99034007.95267373 -24844481.44667688 -24844481.44667688 -18785638.29959619 0 0 0 0 0 101145385.6113175 -23656267.4229417 -23656267.4229417 -18642170.09459941 0 0 0 0 0 103052810.8187103 -22462023.04026986 -22462023.04026986 -18457239.27264236 0 0 0 0 0 105180507.0633959 -21726427.33154154 -21726427.33154154 -17918534.47929442 0 0 0 0 0 104133896.9287371 -21103085.91285972 -21103085.91285972 -17998421.72410569 0 0 0 0 0 105625796.799452 -19965638.46400368 -19965638.46400368 -17752579.08315852 0 0 0 0 0 106958478.7888972 -18846703.52171391 -18846703.52171391 -17475107.26997529 0 0 0 0 0 108145116.4456348 -17753082.79295925 -17753082.79295925 -17167964.82231655 0 0 0 0 0 109192862.6174589 -16687668.39705578 -16687668.39705578 -16825153.32101015 0 0 0 0 0 110096101.5746925 -15664448.36160819 -15664448.36160819 -16465339.00908519 0 0 0 0 0 111281463.5517998 -15253434.66765675 -15253434.66765675 -16137313.25296202 0 0 0 0 0 110124521.3883612 -14731751.74658649 -14731751.74658649 -15959873.30730717 0 0 0 0 0 110830784.411556 -13797253.09814142 -13797253.09814142 -15596861.62996803 0 0 0 0 0 111098089.1166354 -13481929.24838718 -13481929.24838718 -15079136.22783212 0 0 0 0 0 111619176.15715 -12647343.5298159 -12647343.5298159 -14760533.62447465 0 0 0 0 0 111384999.1199521 -11914506.62103085 -11914506.62103085 -14237371.03331449 0 0 0 0 0 110575699.0268221 -12216638.18460453 -12216638.18460453 -14529412.97850877 0 0 0 0 0 111775618.7044258 -11161334.81561657 -11161334.81561657 -13916457.30982844 0 0 0 0 0 112105157.0300022 -10439107.46262537 -10439107.46262537 -13588256.79405006 0 0 0 0 0 112380435.6888265 -9747589.3379591 -9747589.3379591 -13254214.4474445 0 0 0 0 0 112605390.7615139 -9085478.267540464 -9085478.267540464 -12915603.60884817 0 0 0 0 0 112188344.6631216 -8593597.719966955 -8593597.719966955 -12454272.08255525 0 0 0 0 0 111703625.475034 -8771525.081901675 -8771525.081901675 -12618595.25259781 0 0 0 0 0 112340871.5782166 -8003719.393453471 -8003719.393453471 -12128750.52934152 0 0 0 0 0 112456467.0356302 -7442149.65720025 -7442149.65720025 -11802790.73408686 0 0 0 0 0 112539178.1615337 -6907978.188139102 -6907978.188139102 -11477071.1628853 0 0 0 0 0 112592179.6734258 -6399746.149087626 -6399746.149087626 -11152550.62395389 0 0 0 0 0 112618174.7422092 -5916730.472345966 -5916730.472345966 -10830671.73548508 0 0 0 0 0 111898687.8766116 -5715562.944664399 -5715562.944664399 -10509267.06499178 0 0 0 0 0 112132337.4039854 -5206201.492499192 -5206201.492499192 -10156090.72682256 0 0 0 0 0 111926028.5568326 -5272446.27003689 -5272446.27003689 -10188421.88512115 0 0 0 0 0 112109500.1390347 -4797655.525318983 -4797655.525318983 -9855929.594401905 0 0 0 0 0 112069733.5979127 -4410200.003636391 -4410200.003636391 -9559957.999939287 0 0 0 0 0 112013554.5856835 -4043223.125495295 -4043223.125495295 -9269314.750185845 0 0 0 0 0 111943777.3554822 -3695765.777249183 -3695765.777249183 -8983090.141452953 0 0 0 0 0 111477870.3964399 -3552154.168766413 -3552154.168766413 -8698325.138363071 0 0 0 0 0 111384018.1043057 -3572773.388774496 -3572773.388774496 -8676251.123478841 0 0 0 0 0 111398879.5959904 -3242120.109104437 -3242120.109104437 -8431321.63321287 0 0 0 0 0 111310149.8192466 -2948518.11365051 -2948518.11365051 -8169479.481096275 0 0 0 0 0 111212941.1913183 -2670584.470484693 -2670584.470484693 -7913034.387136653 0 0 0 0 0 111108047.8141429 -2407572.434136597 -2407572.434136597 -7662215.145330251 0 0 0 0 0 110996823.2446453 -2158886.355339589 -2158886.355339589 -7417189.190813476 0 0 0 0 0 110465642.566702 -1867115.645002343 -1867115.645002343 -6900326.552249309 0 0 0 0 0 110876724.8174842 -1925553.83435758 -1925553.83435758 -7180279.295759312 0 0 0 0 0 110468247.4223386 -1887589.826468359 -1887589.826468359 -6987473.522249353 0 0 0 0 0 110342222.3480529 -1685853.491612712 -1685853.491612712 -6767321.845115909 0 0 0 0 0 110209862.2178622 -1495322.521881819 -1495322.521881819 -6555768.649168275 0 0 0 0 0 110091685.1636057 -1309180.749016859 -1309180.749016859 -6343334.85729789 0 0 0 0 0 109967925.7660127 -1131433.733913302 -1131433.733913302 -6137567.166602161 0 0 0 0 0 109841129.6868844 -963447.1106115602 -963447.1106115602 -5936583.653672396 0 0 0 0 0 109524241.7491785 -929917.0993199212 -929917.0993199212 -5700422.360883194 0 0 0 0 0 109486232.1697747 -964079.7649221338 -964079.7649221338 -5790835.183883306 0 0 0 0 0 109366300.8652185 -812250.2385680034 -812250.2385680034 -5603843.267582925 0 0 0 0 0 109241889.3175523 -670156.3532753667 -670156.3532753667 -5423938.579525215 0 0 0 0 0 109121471.2253308 -534236.6605376368 -534236.6605376368 -5245989.504424 0 0 0 0 0 108851600.9602683 -511761.0568864238 -511761.0568864238 -5036015.675368642 0 0 0 0 0 108805558.6786236 -547273.276252363 -547273.276252363 -5123365.058641317 0 0 0 0 0 108689037.4380801 -424487.0506773259 -424487.0506773259 -4958032.979220664 0 0 0 0 0 108578486.7984733 -318445.0718327652 -318445.0718327652 -4807851.379624875 0 0 0 0 0 108402632.6677463 -242015.4083995907 -242015.4083995907 -4687329.077847295 0 0 0 0 0 108217239.50898 -198524.3863843343 -198524.3863843343 -4603073.800327469 0 0 0 0 0 108071245.20196 -161634.0050179706 -161634.0050179706 -4495839.34621045 0 0 0 0 0 111826902.4325154 -13437585.73352941 -13437585.73352941 -15284635.56676957 0 0 0 0 0 -2738630.062568931 7316445.74625836 7316445.74625836 -96227405.17440228 0 0 0 0 0 -1309805.818123759 7035016.95174091 7035016.95174091 -78808752.71903701 0 0 0 0 0 -3046804.697684569 6135829.929222435 6135829.929222435 -65484573.87217841 0 0 0 0 0 -2940643.043424453 6939400.249139492 6939400.249139492 -78478444.56360404 0 0 0 0 0 -2395514.587750138 4747514.380981589 4747514.380981589 -61535823.71759133 0 0 0 0 0 1686177.822314568 -4060256.453185303 -4060256.453185303 -48799692.43878086 0 0 0 0 0 1328492.985348155 -3421772.618828226 -3421772.618828226 -46214073.69339688 0 0 0 0 0 4579231.300274746 -6766240.139297984 -6766240.139297984 -40971596.98317595 0 0 0 0 0 8650094.922488051 -10351832.58665326 -10351832.58665326 -36272070.76080338 0 0 0 0 0 13651277.09874681 -14000163.3258023 -14000163.3258023 -32207154.18225613 0 0 0 0 0 23194121.65940788 -20426830.72052734 -20426830.72052734 -26173724.280417 0 0 0 0 0 20961864.30135746 -20998518.98007261 -20998518.98007261 -25970321.11962662 0 0 0 0 0 28988653.73253341 -23110878.58122423 -23110878.58122423 -24065882.24196097 0 0 0 0 0 34967905.28404351 -25466151.7218919 -25466151.7218919 -22402684.84508255 0 0 0 0 0 41074457.57303131 -27464939.97242887 -27464939.97242887 -21136308.03007106 0 0 0 0 0 47168444.03341925 -29079622.82497505 -29079622.82497505 -20213057.1024366 0 0 0 0 0 53136582.2759774 -30304635.05808369 -30304635.05808369 -19571356.24737679 0 0 0 0 0 58928379.33909459 -31161987.13956634 -31161987.13956634 -19153656.28074788 0 0 0 0 0 64495392.05406749 -31675667.06447914 -31675667.06447914 -18906820.42027003 0 0 0 0 0 69796984.71709238 -31870834.775838 -31870834.775838 -18784567.04487898 0 0 0 0 0 71791754.14518738 -32810346.69612605 -32810346.69612605 -18791824.07677197 0 0 0 0 0 75818338.29151425 -31627310.45741691 -31627310.45741691 -18578920.85620164 0 0 0 0 0 80223784.84549023 -31211346.78078905 -31211346.78078905 -18632652.25102336 0 0 0 0 0 84310077.48019956 -30606571.59822118 -30606571.59822118 -18702000.44620535 0 0 0 0 0 88089217.25251582 -29839284.55293214 -29839284.55293214 -18764436.54119591 0 0 0 0 0 91543471.36742736 -28586187.7036638 -28586187.7036638 -18585515.12742566 0 0 0 0 0 88239317.13135059 -29651424.43171794 -29651424.43171794 -19122957.93456547 0 0 0 0 0 94560229.43575248 -27595922.84706897 -27595922.84706897 -18611085.84128709 0 0 0 0 0 97305342.78158039 -26533711.85873513 -26533711.85873513 -18600112.56494887 0 0 0 0 0 99796930.99899326 -25418450.02517526 -25418450.02517526 -18549612.0670149 0 0 0 0 0 102042190.8427284 -24266442.9301574 -24266442.9301574 -18459225.04496566 0 0 0 0 0 104055275.6123284 -23093615.27515051 -23093615.27515051 -18328787.76241991 0 0 0 0 0 105857386.5759685 -21913126.3762817 -21913126.3762817 -18158774.72622347 0 0 0 0 0 104769729.63204 -21271359.82628789 -21271359.82628789 -18233479.18513806 0 0 0 0 0 106734901.5955088 -20589136.75976711 -20589136.75976711 -17725370.68540927 0 0 0 0 0 108113221.8945363 -19462843.71736267 -19462843.71736267 -17499162.95729264 0 0 0 0 0 109329694.0767391 -18355127.86213658 -18355127.86213658 -17241913.8342793 0 0 0 0 0 110393277.1690047 -17271980.16453147 -17271980.16453147 -16957200.96356209 0 0 0 0 0 111310641.1967563 -16226356.31329241 -16226356.31329241 -16659845.5373703 0 0 0 0 0 112088864.2436909 -15223879.60816458 -15223879.60816458 -16349594.98500258 0 0 0 0 0 110877329.7401629 -14691299.82750066 -14691299.82750066 -16133444.48612915 0 0 0 0 0 111985530.8679129 -14299096.24459809 -14299096.24459809 -15809072.97970159 0 0 0 0 0 112587438.2421768 -13375101.53381433 -13375101.53381433 -15463269.44510981 0 0 0 0 0 110728112.567505 -12974247.95824913 -12974247.95824913 -15058988.50873549 0 0 0 0 0 111259408.4100751 -12137695.24419718 -12137695.24419718 -14694188.40007444 0 0 0 0 0 111041620.0406782 -11434097.74461759 -11434097.74461759 -14176004.31602268 0 0 0 0 0 112068031.547571 -11842202.53608499 -11842202.53608499 -14427746.42821146 0 0 0 0 0 111442537.361491 -10683780.7262754 -10683780.7262754 -13816435.3486821 0 0 0 0 0 111783540.527737 -9966040.80575151 -9966040.80575151 -13452456.34577676 0 0 0 0 0 112069660.7655849 -9279342.638944617 -9279342.638944617 -13085983.60188161 0 0 0 0 0 112306687.9786263 -8624176.960937427 -8624176.960937427 -12717451.85692389 0 0 0 0 0 111908410.5571973 -8160664.78550531 -8160664.78550531 -12266920.7491615 0 0 0 0 0 112784657.3845825 -8453594.149412474 -8453594.149412474 -12574831.38604941 0 0 0 0 0 112073288.6271913 -7578779.824876945 -7578779.824876945 -11915524.47866425 0 0 0 0 0 112200708.2813846 -7025932.297946479 -7025932.297946479 -11566409.72440284 0 0 0 0 0 112294246.5210821 -6500941.777337804 -6500941.777337804 -11220957.52121348 0 0 0 0 0 112358122.6590497 -6002101.792755229 -6002101.792755229 -10878908.88694953 0 0 0 0 0 112394996.0047049 -5528829.848877874 -5528829.848877874 -10540991.94880343 0 0 0 0 0 112619921.1207384 -5458212.711146881 -5458212.711146881 -10511734.65153821 0 0 0 0 0 111931993.7806595 -4851844.651443403 -4851844.651443403 -9872591.150934989 0 0 0 0 0 112600221.5716353 -5023315.825287961 -5023315.825287961 -10196144.9682151 0 0 0 0 0 111919208.5489535 -4452783.718414336 -4452783.718414336 -9561158.256498853 0 0 0 0 0 111888347.0715383 -4074710.465660278 -4074710.465660278 -9255153.185682472 0 0 0 0 0 111841191.62152 -3717410.213483614 -3717410.213483614 -8955497.483831584 0 0 0 0 0 111779832.1490682 -3379412.652296687 -3379412.652296687 -8662463.950846363 0 0 0 0 0 111324280.1531718 -3254309.730845338 -3254309.730845338 -8397531.99877467 0 0 0 0 0 111861482.8228202 -3366704.3678386 -3366704.3678386 -8701855.825321022 0 0 0 0 0 111253016.5914958 -2953041.629918502 -2953041.629918502 -8124953.876993546 0 0 0 0 0 111171726.5672504 -2668102.417035953 -2668102.417035953 -7858656.908726135 0 0 0 0 0 111081507.2007372 -2398654.588846661 -2398654.588846661 -7598835.541650442 0 0 0 0 0 110983526.4607896 -2144019.969650961 -2144019.969650961 -7345157.512501692 0 0 0 0 0 110879054.7604705 -1903668.734563085 -1903668.734563085 -7098050.353563683 0 0 0 0 0 110735801.9346276 -1711603.533450675 -1711603.533450675 -6955087.687769063 0 0 0 0 0 110771587.2821954 -1676335.389978987 -1676335.389978987 -6858301.530626082 0 0 0 0 0 110351041.2159165 -1661100.109729497 -1661100.109729497 -6683048.630018062 0 0 0 0 0 110230767.6097285 -1465848.124658434 -1465848.124658434 -6464102.486466955 0 0 0 0 0 110119853.200581 -1278194.755986222 -1278194.755986222 -6253411.324621394 0 0 0 0 0 110001388.117797 -1097916.676808782 -1097916.676808782 -6043966.351155085 0 0 0 0 0 109883020.9822825 -926304.7728445028 -926304.7728445028 -5838257.722943597 0 0 0 0 0 109762207.678938 -764100.3672000282 -764100.3672000282 -5637927.858188948 0 0 0 0 0 109712164.1235702 -805493.6886368409 -805493.6886368409 -5742731.051273809 0 0 0 0 0 109408603.9384541 -776206.534215978 -776206.534215978 -5510865.186083017 0 0 0 0 0 109290235.5022494 -631227.54584447 -631227.54584447 -5326726.254415249 0 0 0 0 0 109172916.1593023 -494038.0932149839 -494038.0932149839 -5147488.55270557 0 0 0 0 0 109050765.5667159 -364476.1324899633 -364476.1324899633 -4976763.866890357 0 0 0 0 0 108999455.8383253 -403735.2731142634 -403735.2731142634 -5072352.400759324 0 0 0 0 0 108740669.8400387 -386090.6814215226 -386090.6814215226 -4865044.492841352 0 0 0 0 0 108638055.4462993 -272651.5310792827 -272651.5310792827 -4695045.818172798 0 0 0 0 0 108517668.3186834 -173331.1047570186 -173331.1047570186 -4549787.407182601 0 0 0 0 0 108441973.8592036 -70369.08959305736 -70369.08959305736 -4391540.928947372 0 0 0 0 0 108303279.5289609 -33303.94455455172 -33303.94455455172 -4290405.24490342 0 0 0 0 0 111445611.9882649 -12899467.17280257 -12899467.17280257 -15220867.1494813 0 0 0 0 0 -3023831.275646896 10197715.36152505 10197715.36152505 -92584217.88514847 0 0 0 0 0 -2654902.392797756 7422727.840200538 7422727.840200538 -72924561.42132145 0 0 0 0 0 -1850293.698973218 9631538.190095112 9631538.190095112 -76899716.97067946 0 0 0 0 0 152879.8654087281 1023365.82356932 1023365.82356932 -55787378.45744143 0 0 0 0 0 -2173007.095172139 5373432.817689242 5373432.817689242 -60680549.2966401 0 0 0 0 0 -982337.2349873163 1697626.987382015 1697626.987382015 -52920214.42184756 0 0 0 0 0 4778433.147849035 -7141483.18218832 -7141483.18218832 -42625596.43307911 0 0 0 0 0 8365971.182210071 -10589356.48237724 -10589356.48237724 -36882806.56535488 0 0 0 0 0 12518328.93728941 -14296614.74523932 -14296614.74523932 -32128674.35109206 0 0 0 0 0 17373477.95672247 -17811658.22161693 -17811658.22161693 -28287021.50232851 0 0 0 0 0 26254043.77079642 -23766536.60472343 -23766536.60472343 -23640103.73324612 0 0 0 0 0 19160377.62084348 -17448604.63034941 -17448604.63034941 -28815813.11945826 0 0 0 0 0 31800230.90404463 -26215387.10804758 -26215387.10804758 -21864286.60803169 0 0 0 0 0 37528557.82438494 -28308744.39064781 -28308744.39064781 -20567117.29357718 0 0 0 0 0 43316265.59396759 -30015706.37877705 -30015706.37877705 -19687488.12923628 0 0 0 0 0 49085539.81061617 -31321245.32043259 -31321245.32043259 -19121655.1320807 0 0 0 0 0 54750786.26428925 -32240406.97552727 -32240406.97552727 -18803210.54375863 0 0 0 0 0 60257795.92267808 -32800324.58926373 -32800324.58926373 -18668698.78165948 0 0 0 0 0 65556566.03055727 -33029366.34150153 -33029366.34150153 -18666605.79611137 0 0 0 0 0 70619434.30271503 -32957715.4051345 -32957715.4051345 -18747842.69545836 0 0 0 0 0 74816490.94568656 -31783373.34949846 -31783373.34949846 -18749961.24570614 0 0 0 0 0 76299996.95832621 -32381714.58045404 -32381714.58045404 -18915251.6806096 0 0 0 0 0 80525093.43267968 -31750086.08058324 -31750086.08058324 -19041429.60249827 0 0 0 0 0 84463834.41266601 -30955297.27883432 -30955297.27883432 -19154416.81104212 0 0 0 0 0 88114536.90521972 -30019303.35127838 -30019303.35127838 -19235892.94417441 0 0 0 0 0 91433671.36729445 -28613850.3711043 -28613850.3711043 -19160858.75036971 0 0 0 0 0 91565286.43216571 -28939424.48593327 -28939424.48593327 -18807492.71183164 0 0 0 0 0 94365972.51469362 -27499803.29971046 -27499803.29971046 -19151281.0171706 0 0 0 0 0 97042292.85509364 -26331686.04533773 -26331686.04533773 -19095949.65712809 0 0 0 0 0 99476655.35367408 -25123422.10394334 -25123422.10394334 -18992254.52801339 0 0 0 0 0 101676998.0070217 -23893427.21183021 -23893427.21183021 -18843544.01673043 0 0 0 0 0 103657142.5144141 -22657308.44902957 -22657308.44902957 -18650171.2878795 0 0 0 0 0 105434077.2668782 -21424703.1190934 -21424703.1190934 -18416293.14851825 0 0 0 0 0 107463918.5795471 -20735634.25647653 -20735634.25647653 -17952272.42341794 0 0 0 0 0 106307775.9817706 -20091473.09335611 -20091473.09335611 -17972984.63342796 0 0 0 0 0 107676489.0685986 -18931553.09659786 -18931553.09659786 -17678947.64070913 0 0 0 0 0 108887884.08496 -17797342.85359672 -17797342.85359672 -17356802.922231 0 0 0 0 0 109954713.4508774 -16697737.74359531 -16697737.74359531 -17003427.84158508 0 0 0 0 0 110887691.2263942 -15642023.63045365 -15642023.63045365 -16633506.95023249 0 0 0 0 0 111681845.26182 -14622864.28457581 -14622864.28457581 -16240065.9642147 0 0 0 0 0 112777876.2838992 -14237829.41841826 -14237829.41841826 -15972225.38043269 0 0 0 0 0 111578930.3110367 -13731225.28729323 -13731225.28729323 -15748024.92806555 0 0 0 0 0 112189453.1516694 -12806317.60135392 -12806317.60135392 -15353073.19928014 0 0 0 0 0 112342420.8643461 -12577542.98914993 -12577542.98914993 -14947145.43662359 0 0 0 0 0 112779851.5614928 -11751081.62505366 -11751081.62505366 -14598147.01567593 0 0 0 0 0 112448602.7072281 -11068981.49245747 -11068981.49245747 -14087953.249712 0 0 0 0 0 111715266.1338995 -11335495.566987 -11335495.566987 -14323712.98692208 0 0 0 0 0 112766812.2504723 -10328049.38811905 -10328049.38811905 -13741489.07669404 0 0 0 0 0 113027621.7584341 -9619546.227896189 -9619546.227896189 -13389908.2633466 0 0 0 0 0 113238145.5432349 -8941995.176645655 -8941995.176645655 -13034048.45949675 0 0 0 0 0 113401240.3131509 -8296736.031247114 -8296736.031247114 -12676814.73277619 0 0 0 0 0 112922202.3594248 -7851437.919749949 -7851437.919749949 -12232825.48100262 0 0 0 0 0 112498271.8562655 -8000648.646113222 -8000648.646113222 -12349920.25591852 0 0 0 0 0 113022239.5570172 -7279217.129052961 -7279217.129052961 -11892013.72116455 0 0 0 0 0 113087758.4930681 -6735862.732927329 -6735862.732927329 -11552439.52332394 0 0 0 0 0 113123460.8233032 -6219460.296471246 -6219460.296471246 -11213971.1723294 0 0 0 0 0 113132727.6847515 -5729736.405227231 -5729736.405227231 -10878642.88014756 0 0 0 0 0 113117421.868655 -5265473.492321356 -5265473.492321356 -10547180.29668901 0 0 0 0 0 112407454.7397078 -5080423.270943011 -5080423.270943011 -10208025.19412117 0 0 0 0 0 112562312.1402792 -4610458.975775437 -4610458.975775437 -9884586.820930274 0 0 0 0 0 112397902.9967412 -4655694.585325529 -4655694.585325529 -9880957.438566621 0 0 0 0 0 112506362.2571864 -4219299.397421605 -4219299.397421605 -9578026.941668306 0 0 0 0 0 112434965.6498141 -3849736.2301497 -3849736.2301497 -9277157.939250493 0 0 0 0 0 112349789.7650786 -3500448.616209811 -3500448.616209811 -8981620.255567219 0 0 0 0 0 112253412.5488882 -3169713.243490436 -3169713.243490436 -8691200.413479662 0 0 0 0 0 111768559.6533324 -3055349.061716291 -3055349.061716291 -8426470.692944821 0 0 0 0 0 111706420.7427863 -3059570.779094136 -3059570.779094136 -8375331.543546286 0 0 0 0 0 111666045.2646674 -2760952.959085288 -2760952.959085288 -8156657.328553372 0 0 0 0 0 111555479.9839359 -2482843.887240771 -2482843.887240771 -7892691.400956015 0 0 0 0 0 111437901.342404 -2220073.536171913 -2220073.536171913 -7634739.152080985 0 0 0 0 0 111313847.1098238 -1971862.457451686 -1971862.457451686 -7382961.838466701 0 0 0 0 0 111184613.8198421 -1737875.867670182 -1737875.867670182 -7137573.20698863 0 0 0 0 0 110667534.1960829 -1464741.250844261 -1464741.250844261 -6605120.503477925 0 0 0 0 0 111050641.9649955 -1517245.573902949 -1517245.573902949 -6899645.775160617 0 0 0 0 0 110615145.237084 -1518022.756104274 -1518022.756104274 -6739097.271651557 0 0 0 0 0 110482074.0004622 -1323710.204062915 -1323710.204062915 -6513209.389532346 0 0 0 0 0 110348920.6646553 -1137274.21706445 -1137274.21706445 -6296688.861009459 0 0 0 0 0 110215600.4312559 -961293.9238725861 -961293.9238725861 -6085678.686463983 0 0 0 0 0 110079960.4138121 -794396.0213901914 -794396.0213901914 -5880780.983797874 0 0 0 0 0 109942863.754511 -639009.5735757373 -639009.5735757373 -5683965.865349662 0 0 0 0 0 109636044.4282602 -613429.6542115426 -613429.6542115426 -5445889.512752213 0 0 0 0 0 109581626.2039984 -656740.5160081029 -656740.5160081029 -5553450.87560029 0 0 0 0 0 109450275.2035643 -516255.3749213101 -516255.3749213101 -5368580.106229343 0 0 0 0 0 109318365.1749936 -383945.1646310773 -383945.1646310773 -5190898.905322015 0 0 0 0 0 109190896.7035555 -256826.3690759868 -256826.3690759868 -5013611.248634565 0 0 0 0 0 108932432.5209779 -238262.042361509 -238262.042361509 -4809854.253675515 0 0 0 0 0 108876304.0993378 -277960.858746332 -277960.858746332 -4902482.020370817 0 0 0 0 0 108750278.1843446 -173955.2425268927 -173955.2425268927 -4752711.472286433 0 0 0 0 0 108665478.4178168 -57704.27215337203 -57704.27215337203 -4578085.015424656 0 0 0 0 0 108365454.2781332 -21167.70032783728 -21167.70032783728 -4475085.634018079 0 0 0 0 0 108217127.9340016 17584.85709833175 17584.85709833175 -4373013.143223098 0 0 0 0 0 113097060.8579229 -12488501.1818952 -12488501.1818952 -15106495.28330934 0 0 0 0 0 -2580443.48079607 11395957.31781001 11395957.31781001 -70951588.71126062 0 0 0 0 0 -3412612.197063762 12553367.96245255 12553367.96245255 -87534917.32214279 0 0 0 0 0 -2785508.276085569 7148034.638171896 7148034.638171896 -58724954.45033394 0 0 0 0 0 -2026196.044558457 7552847.604055102 7552847.604055102 -68403774.81489149 0 0 0 0 0 2001056.330962853 -1973171.190647484 -1973171.190647484 -48773181.47241825 0 0 0 0 0 1492995.515591247 -1625992.735479759 -1625992.735479759 -46998375.38772499 0 0 0 0 0 4463833.936730414 -5354429.981997065 -5354429.981997065 -41336456.24311331 0 0 0 0 0 9264921.832390407 -9529880.42199184 -9529880.42199184 -36151364.56190935 0 0 0 0 0 14780429.54381833 -13585982.34249906 -13585982.34249906 -31782584.3443497 0 0 0 0 0 25105386.99952928 -20637142.58560229 -20637142.58560229 -26042654.2413564 0 0 0 0 0 22695383.06890448 -21090255.05138636 -21090255.05138636 -25184061.01023648 0 0 0 0 0 31310359.32771961 -23467278.99481891 -23467278.99481891 -23850805.28786661 0 0 0 0 0 37666441.62728739 -25906313.58881577 -25906313.58881577 -22163066.09031094 0 0 0 0 0 44132832.7883084 -27926682.5336621 -27926682.5336621 -20908834.37935224 0 0 0 0 0 50494939.41091184 -29497895.01964716 -29497895.01964716 -20024518.48065588 0 0 0 0 0 56671779.75772358 -30646258.83074178 -30646258.83074178 -19428282.97510623 0 0 0 0 0 62613224.18049886 -31398976.71747744 -31398976.71747744 -19058418.73002027 0 0 0 0 0 68275046.77276483 -31784286.7421055 -31784286.7421055 -18852823.80185145 0 0 0 0 0 73636476.42396039 -31842238.22875078 -31842238.22875078 -18765886.03865345 0 0 0 0 0 75411047.99349993 -32616273.45440842 -32616273.45440842 -18870301.9696039 0 0 0 0 0 79519393.11789382 -31450211.22835493 -31450211.22835493 -18776638.93714547 0 0 0 0 0 83866097.52768765 -30894198.0284864 -30894198.0284864 -18829694.85245319 0 0 0 0 0 87878224.99504112 -30156315.29465486 -30156315.29465486 -18882502.88802633 0 0 0 0 0 91560508.95745051 -29269611.27774509 -29269611.27774509 -18925576.65783295 0 0 0 0 0 94749915.09447041 -27936917.91041622 -27936917.91041622 -18825125.43169205 0 0 0 0 0 91481373.97998936 -28970879.59527012 -28970879.59527012 -19282133.584933 0 0 0 0 0 97637251.98256002 -26851849.52332203 -26851849.52332203 -18809290.60826875 0 0 0 0 0 100246903.4832747 -25707722.63262494 -25707722.63262494 -18753742.91486106 0 0 0 0 0 102590773.6253216 -24519878.10809288 -24519878.10809288 -18657529.71715529 0 0 0 0 0 104693086.3328474 -23307885.11352657 -23307885.11352657 -18520215.12837507 0 0 0 0 0 106565887.3781834 -22087176.1496358 -22087176.1496358 -18341670.4636835 0 0 0 0 0 108226756.679414 -20869128.48952239 -20869128.48952239 -18123919.44412293 0 0 0 0 0 107022581.8528552 -20201457.15103568 -20201457.15103568 -18141838.40225803 0 0 0 0 0 108882269.1314376 -19568857.60816846 -19568857.60816846 -17711845.76011337 0 0 0 0 0 110126284.2777898 -18421111.75637768 -18421111.75637768 -17439473.86185445 0 0 0 0 0 111215838.4869051 -17299421.22013477 -17299421.22013477 -17138135.19888049 0 0 0 0 0 112143523.265665 -16216597.84161787 -16216597.84161787 -16819970.20337228 0 0 0 0 0 112939207.5469026 -15173879.04925362 -15173879.04925362 -16478912.14876707 0 0 0 0 0 113616678.4201606 -14169707.80351722 -14169707.80351722 -16122732.3616506 0 0 0 0 0 112368395.7723447 -13643658.90867914 -13643658.90867914 -15860817.63133069 0 0 0 0 0 113377901.9404057 -13294758.46798263 -13294758.46798263 -15611647.81144917 0 0 0 0 0 113881409.3884684 -12382369.62797793 -12382369.62797793 -15236443.14607588 0 0 0 0 0 111971951.665159 -12038996.72021616 -12038996.72021616 -14835330.14867952 0 0 0 0 0 112420281.9559505 -11215524.52067143 -11215524.52067143 -14444798.04207457 0 0 0 0 0 112106277.7309961 -10566002.57559442 -10566002.57559442 -13945954.1382718 0 0 0 0 0 113148279.7969792 -10958057.79880155 -10958057.79880155 -14238322.1019866 0 0 0 0 0 112436028.2819495 -9830143.641853575 -9830143.641853575 -13564407.13394891 0 0 0 0 0 112710550.0702183 -9127083.412570234 -9127083.412570234 -13179449.49979653 0 0 0 0 0 112932315.7262658 -8458418.781709621 -8458418.781709621 -12794976.82212369 0 0 0 0 0 113108828.8819624 -7822415.467973617 -7822415.467973617 -12410784.77475074 0 0 0 0 0 112647927.7227404 -7407907.730985556 -7407907.730985556 -11983339.38203715 0 0 0 0 0 113522402.6996531 -7682748.075836334 -7682748.075836334 -12318913.59676286 0 0 0 0 0 112760361.1328567 -6845099.657357719 -6845099.657357719 -11619656.38338859 0 0 0 0 0 112838980.4727032 -6311132.86282635 -6311132.86282635 -11259486.10975105 0 0 0 0 0 112886478.0009319 -5805385.134571983 -5805385.134571983 -10903790.17628651 0 0 0 0 0 112906582.2331391 -5326297.65190869 -5326297.65190869 -10553748.66826453 0 0 0 0 0 112901945.2564135 -4873309.008220481 -4873309.008220481 -10209526.68652603 0 0 0 0 0 113080730.2819932 -4825875.831010998 -4825875.831010998 -10219980.07805279 0 0 0 0 0 112368879.3441219 -4253252.746758068 -4253252.746758068 -9559806.738913253 0 0 0 0 0 113025183.7661956 -4409542.306011657 -4409542.306011657 -9897206.991205441 0 0 0 0 0 112323552.6105406 -3872252.935690351 -3872252.935690351 -9243182.17190557 0 0 0 0 0 112260778.2300464 -3513209.970945372 -3513209.970945372 -8934574.183189692 0 0 0 0 0 112184305.0728949 -3174095.60614526 -3174095.60614526 -8633064.602510039 0 0 0 0 0 112095340.9875174 -2853835.700363461 -2853835.700363461 -8338238.026529276 0 0 0 0 0 111621782.1304592 -2757402.992627867 -2757402.992627867 -8094828.511355688 0 0 0 0 0 112145853.1345173 -2857446.716655259 -2857446.716655259 -8407055.995968457 0 0 0 0 0 111527082.3764871 -2472310.396936177 -2472310.396936177 -7821038.021928661 0 0 0 0 0 111423853.6371639 -2203243.06958847 -2203243.06958847 -7554296.487736433 0 0 0 0 0 111312925.3148447 -1949386.859565306 -1949386.859565306 -7294840.432910394 0 0 0 0 0 111196075.6686028 -1709821.262066012 -1709821.262066012 -7041349.952815324 0 0 0 0 0 111073137.1612976 -1484228.552740216 -1484228.552740216 -6795908.842194304 0 0 0 0 0 110880815.2546202 -1327393.475539311 -1327393.475539311 -6693239.029222847 0 0 0 0 0 110946656.9372049 -1273298.745381596 -1273298.745381596 -6554915.969126019 0 0 0 0 0 110512894.5526696 -1288199.880765668 -1288199.880765668 -6413183.094593315 0 0 0 0 0 110383433.1964794 -1101499.771072929 -1101499.771072929 -6194582.272753981 0 0 0 0 0 110260170.1129529 -921320.5463091995 -921320.5463091995 -5979284.456743963 0 0 0 0 0 110131054.4687875 -751374.1158017325 -751374.1158017325 -5769621.114524595 0 0 0 0 0 110000404.9228556 -592567.9582548676 -592567.9582548676 -5566056.036695438 0 0 0 0 0 109864645.7060469 -444526.6710961001 -444526.6710961001 -5371209.580761308 0 0 0 0 0 109802035.198891 -493165.5579496567 -493165.5579496567 -5490877.075817783 0 0 0 0 0 109509985.0408661 -470644.5197987616 -470644.5197987616 -5258469.025492884 0 0 0 0 0 109382629.599587 -336207.1507775014 -336207.1507775014 -5076735.656695554 0 0 0 0 0 109255232.9033918 -209749.6922687266 -209749.6922687266 -4901252.598943155 0 0 0 0 0 109126151.5535154 -89464.84038140677 -89464.84038140677 -4730474.651982095 0 0 0 0 0 109061044.3098641 -137496.6379533858 -137496.6379533858 -4845362.926784215 0 0 0 0 0 108817568.3931051 -125725.731643535 -125725.731643535 -4638247.052438445 0 0 0 0 0 108693493.8217377 -34747.86386247804 -34747.86386247804 -4495916.333952225 0 0 0 0 0 108516679.2426307 15202.35341105359 15202.35341105359 -4482346.866314152 0 0 0 0 0 108639675.880176 134245.647909984 134245.647909984 -4274248.604055825 0 0 0 0 0 108470754.906562 151727.2531679011 151727.2531679011 -4164321.520866832 0 0 0 0 0 112713812.6438249 -11920534.45523517 -11920534.45523517 -14949464.42218424 0 0 0 0 0 -3703585.782315165 14310372.32404351 14310372.32404351 -81383651.24040189 0 0 0 0 0 -409573.5524194386 5314786.403993064 5314786.403993064 -59485076.97938929 0 0 0 0 0 -3010464.744693764 12785791.87004512 12785791.87004512 -66012384.05091699 0 0 0 0 0 -2075230.740537649 5173242.379983934 5173242.379983934 -53349349.21373782 0 0 0 0 0 5207754.934929362 -5344814.608964474 -5344814.608964474 -42058103.30274089 0 0 0 0 0 8918077.09824465 -9587814.152788421 -9587814.152788421 -36000077.03298447 0 0 0 0 0 13562536.57675104 -13669631.96877265 -13669631.96877265 -30787803.94106359 0 0 0 0 0 18842904.1571003 -17538580.35985166 -17538580.35985166 -26849493.39708213 0 0 0 0 0 28360033.733423 -24037687.59628452 -24037687.59628452 -22858612.73668519 0 0 0 0 0 20727324.9373034 -17349901.97438458 -17349901.97438458 -28197012.28711586 0 0 0 0 0 34258484.79886295 -26595310.77519801 -26595310.77519801 -21126960.78349618 0 0 0 0 0 40319031.30242237 -28740274.92088896 -28740274.92088896 -19929950.05029532 0 0 0 0 0 46409195.28584346 -30417182.55879075 -30417182.55879075 -19152006.36697601 0 0 0 0 0 52404981.60260336 -31648000.81799425 -31648000.81799425 -18685059.3080872 0 0 0 0 0 58246260.33229816 -32467902.88812377 -32467902.88812377 -18463261.51393209 0 0 0 0 0 63880636.58246884 -32904640.99190137 -32904640.99190137 -18414567.64935832 0 0 0 0 0 69263110.56758541 -32992978.55468547 -32992978.55468547 -18484472.24692884 0 0 0 0 0 74372129.56845565 -32772289.15124075 -32772289.15124075 -18616024.97653322 0 0 0 0 0 78666885.16883723 -31613127.28029279 -31613127.28029279 -18762122.66024883 0 0 0 0 0 79908531.11076964 -32044153.52821393 -32044153.52821393 -18998370.43691098 0 0 0 0 0 84083769.96944423 -31280361.3760672 -31280361.3760672 -19122915.33340687 0 0 0 0 0 87948832.98035339 -30356205.23074609 -30356205.23074609 -19222149.75337693 0 0 0 0 0 91502449.29426268 -29301074.21749009 -29301074.21749009 -19281321.76565737 0 0 0 0 0 94569403.55803403 -27832709.31184814 -27832709.31184814 -19278152.14826893 0 0 0 0 0 94919369.21966769 -28259832.38917652 -28259832.38917652 -18940622.16631377 0 0 0 0 0 97379951.06601158 -26633001.6308044 -26633001.6308044 -19224541.44113217 0 0 0 0 0 99927244.47975673 -25390187.02506504 -25390187.02506504 -19119471.36338118 0 0 0 0 0 102221477.3635041 -24124379.94429836 -24124379.94429836 -18970559.29917568 0 0 0 0 0 104281837.2912584 -22843606.01986588 -22843606.01986588 -18777626.00891582 0 0 0 0 0 106126470.0975635 -21562565.18354484 -21562565.18354484 -18535788.01559237 0 0 0 0 0 107769746.3148973 -20294307.66140696 -20294307.66140696 -18251796.42586816 0 0 0 0 0 109683135.2131938 -19659813.23064464 -19659813.23064464 -17872572.76034112 0 0 0 0 0 108429552.3430389 -18999132.57975649 -18999132.57975649 -17835035.40568051 0 0 0 0 0 109669302.1050781 -17825937.25302381 -17825937.25302381 -17497388.40531057 0 0 0 0 0 110759480.3349054 -16685675.79088165 -16685675.79088165 -17133163.17057412 0 0 0 0 0 111706810.7079383 -15586634.01319595 -15586634.01319595 -16737623.16708087 0 0 0 0 0 112511553.4568219 -14533458.69610427 -14533458.69610427 -16338925.90089078 0 0 0 0 0 113195690.8221994 -13527520.25990222 -13527520.25990222 -15924935.17265032 0 0 0 0 0 114200292.5539635 -13194275.31790928 -13194275.31790928 -15728970.89700121 0 0 0 0 0 112967352.972866 -12693951.25272767 -12693951.25272767 -15450962.61275107 0 0 0 0 0 113482453.2862536 -11782826.46384961 -11782826.46384961 -15028913.71974011 0 0 0 0 0 113523270.557402 -11639648.67754767 -11639648.67754767 -14740499.63812689 0 0 0 0 0 113877232.505258 -10827409.09413044 -10827409.09413044 -14364819.12884185 0 0 0 0 0 113453551.5808371 -10198739.28008104 -10198739.28008104 -13873349.23377292 0 0 0 0 0 112797472.3872691 -10428364.79533949 -10428364.79533949 -14050435.7542841 0 0 0 0 0 113700966.1341589 -9472331.878590381 -9472331.878590381 -13503108.89427891 0 0 0 0 0 113893902.1987846 -8780354.70144831 -8780354.70144831 -13131202.833945 0 0 0 0 0 114039365.7914194 -8121776.519102673 -8121776.519102673 -12757116.29409437 0 0 0 0 0 114141606.9807344 -7496607.316110625 -7496607.316110625 -12384406.95790175 0 0 0 0 0 113605075.7595441 -7100036.121306567 -7100036.121306567 -11962638.92174175 0 0 0 0 0 113242245.6024386 -7219431.84676713 -7219431.84676713 -12030479.99555982 0 0 0 0 0 113653869.0663648 -6546843.041520273 -6546843.041520273 -11608102.56991821 0 0 0 0 0 113671559.1803915 -6022702.195531345 -6022702.195531345 -11256384.10361252 0 0 0 0 0 113661768.6601478 -5526581.149733606 -5526581.149733606 -10908222.61014069 0 0 0 0 0 113628395.034101 -5057690.167237426 -5057690.167237426 -10564501.50139543 0 0 0 0 0 113573496.523071 -4613773.773754425 -4613773.773754425 -10225281.96682953 0 0 0 0 0 112875901.129306 -4444723.639807118 -4444723.639807118 -9871172.225025468 0 0 0 0 0 112954058.7203721 -4015181.880965388 -4015181.880965388 -9579401.307990579 0 0 0 0 0 112830422.6241662 -4039680.807669198 -4039680.807669198 -9539736.850843413 0 0 0 0 0 112865426.650726 -3643754.479503387 -3643754.479503387 -9269276.073259709 0 0 0 0 0 112764020.3638164 -3292928.638080899 -3292928.638080899 -8964435.228549469 0 0 0 0 0 112651301.2978424 -2961737.22095766 -2961737.22095766 -8665782.854255602 0 0 0 0 0 112528906.6724631 -2648981.12534163 -2648981.12534163 -8373212.477476982 0 0 0 0 0 112029188.4373834 -2562724.691120415 -2562724.691120415 -8129583.850600283 0 0 0 0 0 111996687.5283204 -2551308.684575334 -2551308.684575334 -8050129.521229151 0 0 0 0 0 111904167.1202922 -2284625.143741476 -2284625.143741476 -7858294.180689938 0 0 0 0 0 111772736.3233171 -2022524.029993912 -2022524.029993912 -7593677.828739789 0 0 0 0 0 111636144.2043762 -1775296.871385536 -1775296.871385536 -7335156.413937409 0 0 0 0 0 111493582.2205239 -1542466.226699965 -1542466.226699965 -7083824.833251397 0 0 0 0 0 111347517.7536713 -1323502.339949671 -1323502.339949671 -6839162.044552964 0 0 0 0 0 110823185.3836796 -1083033.164580194 -1083033.164580194 -6308659.055844705 0 0 0 0 0 111194831.7669076 -1119328.430118442 -1119328.430118442 -6603867.72446421 0 0 0 0 0 110751457.5584778 -1142431.826428627 -1142431.826428627 -6460368.880014228 0 0 0 0 0 110608919.6000932 -958163.5292600234 -958163.5292600234 -6238174.319553209 0 0 0 0 0 110465576.2078835 -783435.1281661722 -783435.1281661722 -6023906.442407916 0 0 0 0 0 110319769.2027782 -619083.1544206894 -619083.1544206894 -5814659.641133142 0 0 0 0 0 110170889.4725658 -466629.9274166544 -466629.9274166544 -5614293.967503003 0 0 0 0 0 110022774.258123 -324240.6315448585 -324240.6315448585 -5419728.21616901 0 0 0 0 0 109729220.5423067 -304236.6541790576 -304236.6541790576 -5181154.630966602 0 0 0 0 0 109661549.6438704 -355107.3425491789 -355107.3425491789 -5303443.119203267 0 0 0 0 0 109521776.0702107 -224620.3926158609 -224620.3926158609 -5120887.445563748 0 0 0 0 0 109382066.6177257 -102001.7780877847 -102001.7780877847 -4944677.702111415 0 0 0 0 0 109243837.0544863 13454.69282634126 13454.69282634126 -4771964.1400665 0 0 0 0 0 109000161.3193716 23725.09104286023 23725.09104286023 -4564631.69796279 0 0 0 0 0 108905556.5072834 -37030.94478415868 -37030.94478415868 -4696057.280281723 0 0 0 0 0 108718252.8666913 33193.42463775347 33193.42463775347 -4572036.048898497 0 0 0 0 0 108810429.1655774 170553.5421246628 170553.5421246628 -4319714.060760369 0 0 0 0 0 108493060.2270938 176019.5932841116 176019.5932841116 -4315499.508739691 0 0 0 0 0 108356864.3795098 204367.7120641065 204367.7120641065 -4248035.800497042 0 0 0 0 0 114297823.9788304 -11508091.17979741 -11508091.17979741 -14850977.17984311 0 0 0 0 0 -3361026.755562115 13118185.45162337 13118185.45162337 -58718366.83946331 0 0 0 0 0 -4061181.988816782 14950028.97278125 14950028.97278125 -74122398.18862972 0 0 0 0 0 1751040.646792426 1463299.435018207 1463299.435018207 -46758017.65194663 0 0 0 0 0 486267.9910557654 967625.0115901589 967625.0115901589 -47421299.74684284 0 0 0 0 0 4646493.395192614 -3909058.288286338 -3909058.288286338 -40611445.50731157 0 0 0 0 0 9986561.078288088 -8676132.396125868 -8676132.396125868 -35040004.91437406 0 0 0 0 0 15927812.45492991 -13127052.11124198 -13127052.11124198 -30511886.62241916 0 0 0 0 0 27199550.07329273 -20812549.58818828 -20812549.58818828 -25329672.29623918 0 0 0 0 0 24564703.28806115 -21122541.50110295 -21122541.50110295 -23671665.8050072 0 0 0 0 0 33822992.80632234 -23801965.01423788 -23801965.01423788 -23129071.31069129 0 0 0 0 0 40649382.96766906 -26325149.75168278 -26325149.75168278 -21487891.59488707 0 0 0 0 0 47468821.61192498 -28343131.20771539 -28343131.20771539 -20305905.7206203 0 0 0 0 0 54067695.46296253 -29858511.21071054 -29858511.21071054 -19503131.20941718 0 0 0 0 0 60433225.19973832 -30914058.58189599 -30914058.58189599 -18997088.82943282 0 0 0 0 0 66503356.88239253 -31544947.94485164 -31544947.94485164 -18711107.00929054 0 0 0 0 0 72240451.02034235 -31790671.26774241 -31790671.26774241 -18576050.65042165 0 0 0 0 0 77621155.13153532 -31695054.60194042 -31695054.60194042 -18545636.50853566 0 0 0 0 0 79165646.82025117 -32280520.42327838 -32280520.42327838 -18762155.16110884 0 0 0 0 0 83313348.18149196 -31130970.89015398 -31130970.89015398 -18805367.5648178 0 0 0 0 0 87592000.5341226 -30437900.57916548 -30437900.57916548 -18860431.6312678 0 0 0 0 0 91504209.69829769 -29570804.84578855 -29570804.84578855 -18907979.03790356 0 0 0 0 0 95063106.25518538 -28560811.49215718 -28560811.49215718 -18932919.9072456 0 0 0 0 0 97963947.4225177 -27155188.27137294 -27155188.27137294 -18925422.09585628 0 0 0 0 0 94756321.62458353 -28147984.32643621 -28147984.32643621 -19292115.38319048 0 0 0 0 0 100704388.4153839 -25982860.60619593 -25982860.60619593 -18871244.08908118 0 0 0 0 0 103154302.7973774 -24764494.51533938 -24764494.51533938 -18777858.84864853 0 0 0 0 0 105342093.9573578 -23517856.80105807 -23517856.80105807 -18637345.50468582 0 0 0 0 0 107301163.844191 -22256762.4598199 -22256762.4598199 -18451684.04450281 0 0 0 0 0 109020313.1656351 -20990618.16908369 -20990618.16908369 -18227194.40697421 0 0 0 0 0 110521046.8280634 -19736729.24173713 -19736729.24173713 -17969845.04783622 0 0 0 0 0 109216457.6451236 -19051827.29452219 -19051827.29452219 -17931609.60512649 0 0 0 0 0 110961292.0119372 -18472016.78304064 -18472016.78304064 -17587142.48291156 0 0 0 0 0 112068639.0616528 -17311954.82515085 -17311954.82515085 -17271975.07604109 0 0 0 0 0 113024239.6475468 -16184884.94028345 -16184884.94028345 -16931478.97840388 0 0 0 0 0 113817699.3178298 -15107191.58403312 -15107191.58403312 -16582030.63666803 0 0 0 0 0 114488713.2744386 -14068070.91847826 -14068070.91847826 -16205321.78995132 0 0 0 0 0 115063022.8486308 -13074947.39301566 -13074947.39301566 -15809183.59513418 0 0 0 0 0 113782662.2115261 -12559052.22844337 -12559052.22844337 -15509075.66049408 0 0 0 0 0 114696092.9846523 -12257383.40279638 -12257383.40279638 -15333391.86263175 0 0 0 0 0 115100924.2356247 -11359021.97969023 -11359021.97969023 -14929299.27110434 0 0 0 0 0 113154208.5448846 -11074454.84669139 -11074454.84669139 -14537662.77648918 0 0 0 0 0 113519847.4897822 -10268071.53079744 -10268071.53079744 -14125578.78368189 0 0 0 0 0 113113860.3718023 -9675151.879493762 -9675151.879493762 -13651698.77457619 0 0 0 0 0 114165712.4782068 -10050023.57241501 -10050023.57241501 -13980974.0903375 0 0 0 0 0 113373989.2183408 -8956250.21948546 -8956250.21948546 -13249095.12894257 0 0 0 0 0 113581602.4745285 -8273119.214917515 -8273119.214917515 -12847862.23154796 0 0 0 0 0 113740816.8990815 -7625496.107366974 -7625496.107366974 -12448223.07743647 0 0 0 0 0 113857213.4569404 -7011814.336349932 -7011814.336349932 -12052601.04783656 0 0 0 0 0 113338868.8474204 -6646586.146114334 -6646586.146114334 -11651529.95623819 0 0 0 0 0 114206781.0561715 -6902728.676201779 -6902728.676201779 -12011417.94561813 0 0 0 0 0 113400423.805882 -6104208.943487457 -6104208.943487457 -11276960.62198116 0 0 0 0 0 113430681.2807149 -5591746.545967117 -5591746.545967117 -10908849.80127353 0 0 0 0 0 113433432.7223564 -5107254.629430819 -5107254.629430819 -10544904.94152776 0 0 0 0 0 113409868.2507262 -4650779.282612166 -4650779.282612166 -10190853.16423595 0 0 0 0 0 113366318.664888 -4218680.679332262 -4218680.679332262 -9841498.508123016 0 0 0 0 0 113499635.1016539 -4194317.258786281 -4194317.258786281 -9891954.3720838 0 0 0 0 0 112767416.0780808 -3657054.669319963 -3657054.669319963 -9214550.426510748 0 0 0 0 0 113409406.1191806 -3798224.680079006 -3798224.680079006 -9564419.08595323 0 0 0 0 0 112689993.6670126 -3296049.277766746 -3296049.277766746 -8896483.68807118 0 0 0 0 0 112597816.2757459 -2956066.122597184 -2956066.122597184 -8586032.654043643 0 0 0 0 0 112493542.2457791 -2635748.614730804 -2635748.614730804 -8283994.111268922 0 0 0 0 0 112378969.2502447 -2333713.370360604 -2333713.370360604 -7988725.454305375 0 0 0 0 0 111888146.2232646 -2266203.581137507 -2266203.581137507 -7769534.553552972 0 0 0 0 0 112397505.8503781 -2354164.055018408 -2354164.055018408 -8087756.758784508 0 0 0 0 0 111771917.5511121 -1997365.972000781 -1997365.972000781 -7495368.689200424 0 0 0 0 0 111647622.7387433 -1744799.871219741 -1744799.871219741 -7229552.283287984 0 0 0 0 0 111517231.9922759 -1506776.537305413 -1506776.537305413 -6971277.478135952 0 0 0 0 0 111382631.3305881 -1282589.875053992 -1282589.875053992 -6718774.255979607 0 0 0 0 0 111243445.4475631 -1072487.906038483 -1072487.906038483 -6475191.688177461 0 0 0 0 0 111009342.2075097 -944041.6265175459 -944041.6265175459 -6405253.779865744 0 0 0 0 0 111101748.2884633 -874962.3274080486 -874962.3274080486 -6238403.74126563 0 0 0 0 0 110657019.4545862 -914499.0587777436 -914499.0587777436 -6121257.641328307 0 0 0 0 0 110520948.1237593 -736319.9579019101 -736319.9579019101 -5901693.365385577 0 0 0 0 0 110382301.0746576 -569084.9804152797 -569084.9804152797 -5688924.216959861 0 0 0 0 0 110241910.1884365 -412474.1754316129 -412474.1754316129 -5481705.321545293 0 0 0 0 0 110099747.0399392 -266608.6749823048 -266608.6749823048 -5282787.231444136 0 0 0 0 0 109951585.3520032 -131360.3551836469 -131360.3551836469 -5092879.030392458 0 0 0 0 0 109874143.0583357 -188239.3765595465 -188239.3765595465 -5227926.347320589 0 0 0 0 0 109593232.6457786 -172526.3541190709 -172526.3541190709 -4996536.200755204 0 0 0 0 0 109457809.1233432 -47883.5825976316 -47883.5825976316 -4817151.2782556 0 0 0 0 0 109323317.9696339 69285.38106826118 69285.38106826118 -4642102.107495281 0 0 0 0 0 109187976.2257403 179340.1289954682 179340.1289954682 -4472574.825319306 0 0 0 0 0 109105533.3153771 121619.5972060278 121619.5972060278 -4606442.219921471 0 0 0 0 0 108885814.4723172 132851.3852064995 132851.3852064995 -4389580.209719522 0 0 0 0 0 108666392.2008296 211156.4678735474 211156.4678735474 -4306241.181483479 0 0 0 0 0 108593954.0736049 335961.3746194109 335961.3746194109 -4036126.978821896 0 0 0 0 0 108776280.8004868 326047.7001379339 326047.7001379339 -4103027.194543331 0 0 0 0 0 113915122.8870843 -10912871.90781314 -10912871.90781314 -14599667.56353953 0 0 0 0 0 -4362075.676230009 14603517.56095979 14603517.56095979 -64988996.36641145 0 0 0 0 0 -1854616.737364752 7789047.008285034 7789047.008285034 -54534734.76514647 0 0 0 0 0 5094897.317933835 -3643755.000947368 -3643755.000947368 -40084928.12708956 0 0 0 0 0 9647139.582534265 -8401728.722613979 -8401728.722613979 -33612020.2473199 0 0 0 0 0 14661051.4101129 -12966819.21181523 -12966819.21181523 -28519037.41833143 0 0 0 0 0 20374953.00672673 -17284710.37842849 -17284710.37842849 -24579139.38070068 0 0 0 0 0 30647563.37240697 -24268038.35086063 -24268038.35086063 -21487279.68110989 0 0 0 0 0 22411202.82552569 -17241064.09921626 -17241064.09921626 -26856124.32026083 0 0 0 0 0 36910615.23516349 -26974299.9404987 -26974299.9404987 -19939884.46253066 0 0 0 0 0 43357493.81885358 -29114568.28980717 -29114568.28980717 -18892338.27033442 0 0 0 0 0 49724990.18542065 -30746755.35205572 -30746755.35205572 -18262005.22797972 0 0 0 0 0 55940029.7841379 -31901999.40080205 -31901999.40080205 -17952276.24118886 0 0 0 0 0 61947623.21025097 -32603724.00265262 -32603724.00265262 -17868241.44990364 0 0 0 0 0 67688006.19085421 -32900277.57039237 -32900277.57039237 -17936453.94188946 0 0 0 0 0 73135180.80678153 -32835306.43338403 -32835306.43338403 -18094956.59137298 0 0 0 0 0 78263582.7979774 -32458821.10515634 -32458821.10515634 -18289940.81035643 0 0 0 0 0 82619389.97632298 -31313728.46497824 -31313728.46497824 -18592238.52243293 0 0 0 0 0 83612194.58951731 -31566130.80667453 -31566130.80667453 -18916003.35433443 0 0 0 0 0 87717635.74111454 -30663631.95485052 -30663631.95485052 -19042419.95015312 0 0 0 0 0 91484528.76519792 -29612708.09721429 -29612708.09721429 -19130482.21948308 0 0 0 0 0 94924525.23170879 -28446463.49907537 -28446463.49907537 -19168742.03786518 0 0 0 0 0 97714233.3649022 -26919331.80564572 -26919331.80564572 -19251588.96874788 0 0 0 0 0 98279322.55904041 -27444645.40287 -27444645.40287 -18927091.60172729 0 0 0 0 0 100387435.0709345 -25643988.35475576 -25643988.35475576 -19154774.0704362 0 0 0 0 0 102782858.6578313 -24338859.64283995 -24338859.64283995 -19008767.22349518 0 0 0 0 0 104921903.0393688 -23017420.38572374 -23017420.38572374 -18818200.69385015 0 0 0 0 0 106837388.7111183 -21686757.59700243 -21686757.59700243 -18583039.91623504 0 0 0 0 0 108545052.5339043 -20374579.48381183 -20374579.48381183 -18292239.64026776 0 0 0 0 0 110038403.8373615 -19086588.11333312 -19086588.11333312 -17962547.60721087 0 0 0 0 0 111822491.2972929 -18510563.70341473 -18510563.70341473 -17677625.22190819 0 0 0 0 0 110484748.8978106 -17837002.5710216 -17837002.5710216 -17584837.95945558 0 0 0 0 0 111594909.1696714 -16656810.13521315 -16656810.13521315 -17206439.12656768 0 0 0 0 0 112556164.7229696 -15518306.18696191 -15518306.18696191 -16803672.77810339 0 0 0 0 0 113381602.7923882 -14424782.71057418 -14424782.71057418 -16372901.65748761 0 0 0 0 0 114055420.9822401 -13393965.08486227 -13393965.08486227 -15951348.23577126 0 0 0 0 0 114630768.8895316 -12402453.15591806 -12402453.15591806 -15518542.64193576 0 0 0 0 0 115543243.7842161 -12110699.64023168 -12110699.64023168 -15390398.48962758 0 0 0 0 0 114284347.1966131 -11624703.02170883 -11624703.02170883 -15070402.19879316 0 0 0 0 0 114704398.5212915 -10731634.09574995 -10731634.09574995 -14624679.26024103 0 0 0 0 0 114635403.8941441 -10675876.72624084 -10675876.72624084 -14459623.77366818 0 0 0 0 0 114907762.527796 -9879084.373417288 -9879084.373417288 -14058124.16347039 0 0 0 0 0 114396311.8053694 -9306805.410489393 -9306805.410489393 -13592583.89067695 0 0 0 0 0 113821354.0346357 -9497260.499455081 -9497260.499455081 -13708322.02571503 0 0 0 0 0 114572108.7637663 -8599831.252177142 -8599831.252177142 -13203585.22847834 0 0 0 0 0 114699592.7297139 -7927936.545514796 -7927936.545514796 -12813199.25338925 0 0 0 0 0 114782623.0579845 -7291517.754316066 -7291517.754316066 -12424082.70793648 0 0 0 0 0 114827501.5605338 -6688238.733607746 -6688238.733607746 -12036877.90556706 0 0 0 0 0 114236883.4088223 -6340751.805967402 -6340751.805967402 -11642528.77341001 0 0 0 0 0 113935024.1880842 -6430149.324081673 -6430149.324081673 -11659799.81092866 0 0 0 0 0 114235186.1500411 -5809559.14693069 -5809559.14693069 -11277658.32655376 0 0 0 0 0 114206652.5986654 -5307161.371966698 -5307161.371966698 -10916255.82906097 0 0 0 0 0 114151809.3159718 -4834014.601924043 -4834014.601924043 -10561968.01224031 0 0 0 0 0 114078195.4622077 -4386457.57291965 -4386457.57291965 -10210415.80028042 0 0 0 0 0 113985432.440216 -3964186.42444736 -3964186.42444736 -9866317.854640365 0 0 0 0 0 113303405.2903059 -3811236.672930125 -3811236.672930125 -9499686.131058842 0 0 0 0 0 113304671.7545561 -3424620.474179933 -3424620.474179933 -9243401.554409688 0 0 0 0 0 113223631.611591 -3427091.736285941 -3427091.736285941 -9165486.846893195 0 0 0 0 0 113186424.9719026 -3072566.203759312 -3072566.203759312 -8929699.00418192 0 0 0 0 0 113056786.8239572 -2741316.787198829 -2741316.787198829 -8622987.906237205 0 0 0 0 0 112918392.7058792 -2428856.7936247 -2428856.7936247 -8322702.004676947 0 0 0 0 0 112771271.1594375 -2134783.385536606 -2134783.385536606 -8029968.157175753 0 0 0 0 0 112259069.3292212 -2076163.09079595 -2076163.09079595 -7808860.861304286 0 0 0 0 0 112255581.3594894 -2049383.395782029 -2049383.395782029 -7701740.065673424 0 0 0 0 0 112113040.5275257 -1815071.529200617 -1815071.529200617 -7537837.905921292 0 0 0 0 0 111962150.1046344 -1569510.232595645 -1569510.232595645 -7273362.197558084 0 0 0 0 0 111807889.6833245 -1337855.427496951 -1337855.427496951 -7015230.132503963 0 0 0 0 0 111647987.3770644 -1120217.05171723 -1120217.05171723 -6765392.623293285 0 0 0 0 0 111487205.4545802 -916427.3466576722 -916427.3466576722 -6522605.655511965 0 0 0 0 0 110968531.4148684 -697939.0542589894 -697939.0542589894 -5996629.164233893 0 0 0 0 0 111322766.6160783 -725430.9500315416 -725430.9500315416 -6287444.485787054 0 0 0 0 0 110870109.6448114 -770329.5143921204 -770329.5143921204 -6168489.158341699 0 0 0 0 0 110717401.3729293 -598177.049010664 -598177.049010664 -5948401.769345198 0 0 0 0 0 110561842.446383 -436515.8671222795 -436515.8671222795 -5736069.490786658 0 0 0 0 0 110402996.4431821 -286293.484044895 -286293.484044895 -5531993.554814398 0 0 0 0 0 110243440.8611795 -147179.1112190059 -147179.1112190059 -5336166.253624761 0 0 0 0 0 110087423.6986966 -14331.80607677234 -14331.80607677234 -5141495.256682117 0 0 0 0 0 109806521.3977459 -1878.788580028151 -1878.788580028151 -4905962.468689667 0 0 0 0 0 109725432.7461791 -59773.0762447527 -59773.0762447527 -5042320.378538861 0 0 0 0 0 109577889.2015698 60993.4169130331 60993.4169130331 -4862551.343620851 0 0 0 0 0 109430645.1506145 174309.9462321975 174309.9462321975 -4687876.918397931 0 0 0 0 0 109285411.8923077 279989.0604708961 279989.0604708961 -4517737.56002745 0 0 0 0 0 109052646.6202624 283628.8269843415 283628.8269843415 -4308488.673892881 0 0 0 0 0 108949754.6135331 214311.7532734188 214311.7532734188 -4462862.724548837 0 0 0 0 0 108842850.9445808 341450.6976386443 341450.6976386443 -4235113.216924434 0 0 0 0 0 108490052.5761129 388396.8104243334 388396.8104243334 -4120814.975503469 0 0 0 0 0 108627436.3214432 374481.0313274607 374481.0313274607 -4173279.598237362 0 0 0 0 0 115424347.0307124 -10502142.63753362 -10502142.63753362 -14519065.06087703 0 0 0 0 0 -2882147.888414771 11003680.25511001 11003680.25511001 -49710984.03262161 0 0 0 0 0 1239389.596605701 3445274.218845166 3445274.218845166 -42195289.65341012 0 0 0 0 0 932836.3724960898 2175920.363548914 2175920.363548914 -45039733.47807883 0 0 0 0 0 4683632.437175117 -2544845.345639421 -2544845.345639421 -37947860.57389796 0 0 0 0 0 10375591.63802801 -7793644.009922395 -7793644.009922395 -33062270.7144224 0 0 0 0 0 16748719.02435476 -12700500.6920383 -12700500.6920383 -28347091.73173798 0 0 0 0 0 29380406.40840244 -21024609.75881089 -21024609.75881089 -23994240.34427116 0 0 0 0 0 26554142.18710141 -21121187.36268022 -21121187.36268022 -21306034.72587601 0 0 0 0 0 36678047.41188943 -24192426.17218096 -24192426.17218096 -21885426.37338645 0 0 0 0 0 43900432.62809291 -26742515.71068233 -26742515.71068233 -20364899.04480908 0 0 0 0 0 51020085.10317443 -28737571.81486416 -28737571.81486416 -19316526.19428705 0 0 0 0 0 57873452.10113335 -30183501.4233452 -30183501.4233452 -18658841.49097775 0 0 0 0 0 64410809.28949374 -31121212.09924204 -31121212.09924204 -18287124.10212952 0 0 0 0 0 70598750.33966485 -31610652.79574764 -31610652.79574764 -18116750.61390483 0 0 0 0 0 76378517.69717281 -31694952.06113518 -31694952.06113518 -18080684.05037433 0 0 0 0 0 81741497.09286276 -31441230.51884044 -31441230.51884044 -18133371.88429558 0 0 0 0 0 83019022.19937506 -31810517.43290021 -31810517.43290021 -18486416.00362287 0 0 0 0 0 87202352.43311743 -30681416.32046587 -30681416.32046587 -18657216.29290233 0 0 0 0 0 91378134.93179835 -29846304.73862383 -29846304.73862383 -18723595.47810364 0 0 0 0 0 95164009.58285132 -28848115.01394944 -28848115.01394944 -18771174.78240901 0 0 0 0 0 98571962.82538156 -27723822.01088606 -27723822.01088606 -18787672.61302975 0 0 0 0 0 101169729.4880578 -26247170.90840213 -26247170.90840213 -18882012.00375132 0 0 0 0 0 98041430.30357686 -27193743.86063037 -27193743.86063037 -19152010.5890539 0 0 0 0 0 103737613.414483 -25000214.72766259 -25000214.72766259 -18798411.73150473 0 0 0 0 0 106009620.6144869 -23718209.93335865 -23718209.93335865 -18665609.41758846 0 0 0 0 0 108037095.0171144 -22418151.02519272 -22418151.02519272 -18483265.0117907 0 0 0 0 0 109839752.5952972 -21101676.15731334 -21101676.15731334 -18250092.53016685 0 0 0 0 0 111394358.641993 -19803064.3450425 -19803064.3450425 -17989725.97217192 0 0 0 0 0 112728369.6448672 -18533786.29164049 -18533786.29164049 -17697779.68090295 0 0 0 0 0 111333248.7802438 -17835634.96026507 -17835634.96026507 -17605165.80138145 0 0 0 0 0 112956779.2945453 -17308416.28956203 -17308416.28956203 -17349377.27467468 0 0 0 0 0 113926829.8108422 -16143637.11054504 -16143637.11054504 -16996790.09440059 0 0 0 0 0 114743235.6069217 -15018426.94188519 -15018426.94188519 -16619763.94709891 0 0 0 0 0 115407627.7582629 -13952436.95720652 -13952436.95720652 -16244246.29372836 0 0 0 0 0 115961914.7494985 -12934515.73086838 -12934515.73086838 -15835515.69305889 0 0 0 0 0 116424303.1355983 -11946479.58970525 -11946479.58970525 -15402963.68545775 0 0 0 0 0 115120547.526662 -11444267.35305939 -11444267.35305939 -15067306.76434955 0 0 0 0 0 115934438.2931079 -11190262.23679464 -11190262.23679464 -14968368.51078523 0 0 0 0 0 116243028.3661149 -10310550.2688095 -10310550.2688095 -14540124.15837206 0 0 0 0 0 114269897.0590283 -10085148.317388 -10085148.317388 -14167364.65703489 0 0 0 0 0 114554637.5015048 -9298169.289998822 -9298169.289998822 -13734254.48009568 0 0 0 0 0 114063992.293747 -8764239.927460307 -8764239.927460307 -13290491.41754536 0 0 0 0 0 115118369.2387099 -9120211.242022462 -9120211.242022462 -13653882.70969325 0 0 0 0 0 114252592.0292158 -8068456.451684544 -8068456.451684544 -12872887.66581049 0 0 0 0 0 114392414.1259749 -7410433.171533721 -7410433.171533721 -12459683.47473848 0 0 0 0 0 114490360.2930234 -6786181.135799057 -6786181.135799057 -12048449.20027625 0 0 0 0 0 114548769.620037 -6195999.018865643 -6195999.018865643 -11642866.6807022 0 0 0 0 0 113979113.979528 -5879765.247049948 -5879765.247049948 -11271234.1302828 0 0 0 0 0 114836932.1946057 -6117717.986389023 -6117717.986389023 -11653210.68130773 0 0 0 0 0 113990248.5139323 -5361251.918189199 -5361251.918189199 -10890224.73356393 0 0 0 0 0 113974100.1364772 -4872004.639586859 -4872004.639586859 -10515812.2011562 0 0 0 0 0 113933369.1908591 -4410829.697359698 -4410829.697359698 -10147485.43621506 0 0 0 0 0 113868948.6576314 -3977125.473645373 -3977125.473645373 -9789872.562230913 0 0 0 0 0 113787353.8970495 -3567830.251722031 -3567830.251722031 -9438319.260805231 0 0 0 0 0 113876267.4835652 -3566285.513860717 -3566285.513860717 -9528923.160982771 0 0 0 0 0 113127922.2312581 -3065293.886115504 -3065293.886115504 -8838823.087642863 0 0 0 0 0 113752743.4120415 -3191648.08449309 -3191648.08449309 -9198726.066639602 0 0 0 0 0 113019408.3862247 -2725174.686746463 -2725174.686746463 -8520766.115353851 0 0 0 0 0 112899094.8672854 -2405240.358782405 -2405240.358782405 -8210965.866672439 0 0 0 0 0 112768498.2844073 -2104385.112412499 -2104385.112412499 -7909634.235763244 0 0 0 0 0 112629820.8611699 -1821276.765203771 -1821276.765203771 -7615606.066094066 0 0 0 0 0 112124051.2151314 -1781992.524192629 -1781992.524192629 -7422125.989703179 0 0 0 0 0 112617197.0879009 -1858375.669445647 -1858375.669445647 -7744843.349563238 0 0 0 0 0 111986392.5775161 -1530744.632568995 -1530744.632568995 -7149968.790236671 0 0 0 0 0 111842714.9013508 -1294740.797467145 -1294740.797467145 -6886083.124947348 0 0 0 0 0 111694569.3005285 -1072157.60716033 -1072157.60716033 -6629947.34727549 0 0 0 0 0 111543380.9445843 -863877.4629344071 -863877.4629344071 -6380489.671062048 0 0 0 0 0 111385307.4440955 -670238.5492768032 -670238.5492768032 -6142380.230291337 0 0 0 0 0 111122931.4980255 -566950.6979533039 -566950.6979533039 -6096050.517408054 0 0 0 0 0 111226913.5155126 -488601.4911177818 -488601.4911177818 -5907523.329105706 0 0 0 0 0 110784448.0446033 -543822.4708001582 -543822.4708001582 -5810628.449086512 0 0 0 0 0 110635286.3982848 -379359.3145639867 -379359.3145639867 -5594381.865180136 0 0 0 0 0 110484732.3061739 -225506.2544239317 -225506.2544239317 -5385114.69098677 0 0 0 0 0 110333889.1209198 -81821.47868264277 -81821.47868264277 -5182449.674623067 0 0 0 0 0 110178320.7276734 50427.98863223681 50427.98863223681 -4989487.062349652 0 0 0 0 0 110022533.8842525 175951.6711791555 175951.6711791555 -4802503.975606549 0 0 0 0 0 109930842.5324282 111345.3567055308 111345.3567055308 -4953172.643029059 0 0 0 0 0 109663525.3155879 120865.3092542324 120865.3092542324 -4723691.021924781 0 0 0 0 0 109519694.3395015 235737.7142398635 235737.7142398635 -4546722.535583445 0 0 0 0 0 109376623.4326517 342719.3546176018 342719.3546176018 -4373889.856414369 0 0 0 0 0 109233945.9672644 443156.3664959161 443156.3664959161 -4209536.20177136 0 0 0 0 0 109145439.6537762 381725.6267755157 381725.6267755157 -4351287.442311113 0 0 0 0 0 108904343.9472289 377831.1990689791 377831.1990689791 -4159094.580366253 0 0 0 0 0 108815707.173365 486622.4447448489 486622.4447448489 -3970541.387771716 0 0 0 0 0 108735016.0038503 526063.4682567085 526063.4682567085 -3892374.748244279 0 0 0 0 0 115045235.6647869 -9882971.495696107 -9882971.495696107 -14173264.38935644 0 0 0 0 0 -4862561.477171438 14902510.42144012 14902510.42144012 -58514088.08901387 0 0 0 0 0 465295.2309496506 6528794.365933892 6528794.365933892 -47499762.45372078 0 0 0 0 0 5621091.381882303 -2091474.725514666 -2091474.725514666 -37267941.36371402 0 0 0 0 0 9887118.216716111 -7166171.957086567 -7166171.957086567 -30173626.93699459 0 0 0 0 0 15884712.96132674 -12338210.41444105 -12338210.41444105 -25207947.00174299 0 0 0 0 0 22107948.36236576 -17064158.23042332 -17064158.23042332 -21606525.62205847 0 0 0 0 0 33053414.2627887 -24632512.25883019 -24632512.25883019 -19657199.81821918 0 0 0 0 0 24181703.16157275 -17130518.29170768 -17130518.29170768 -24775654.99697779 0 0 0 0 0 39843258.59819681 -27330174.34151391 -27330174.34151391 -18238876.28779529 0 0 0 0 0 46658648.44731395 -29460420.31466788 -29460420.31466788 -17410870.23374279 0 0 0 0 0 53270741.90385804 -31055911.81637004 -31055911.81637004 -17033019.98068058 0 0 0 0 0 59696475.11203545 -32099289.08503277 -32099289.08503277 -16935646.90757534 0 0 0 0 0 65850379.01434582 -32661958.99705389 -32661958.99705389 -17033581.30078318 0 0 0 0 0 71681212.91661429 -32797540.49977982 -32797540.49977982 -17242815.65690812 0 0 0 0 0 77161896.70290923 -32563408.62585842 -32563408.62585842 -17509887.84279171 0 0 0 0 0 82256904.19782673 -32017122.28979589 -32017122.28979589 -17781692.81859843 0 0 0 0 0 86667752.70478393 -30889605.52415975 -30889605.52415975 -18227166.64777709 0 0 0 0 0 87398362.80372898 -30944910.85283079 -30944910.85283079 -18660149.5513575 0 0 0 0 0 91407238.14078155 -29907232.67508627 -29907232.67508627 -18795158.97381048 0 0 0 0 0 95054214.04430471 -28733171.52107039 -28733171.52107039 -18877717.38300316 0 0 0 0 0 98349831.42575572 -27460118.47060307 -27460118.47060307 -18900525.47138399 0 0 0 0 0 100854131.6560342 -25882759.25808154 -25882759.25808154 -19076244.79908465 0 0 0 0 0 101624440.654613 -26505645.35603617 -26505645.35603617 -18762726.03787955 0 0 0 0 0 103363250.2563463 -24535609.3524386 -24535609.3524386 -18939635.43779031 0 0 0 0 0 105584573.8981011 -23178975.5980051 -23178975.5980051 -18760734.02036273 0 0 0 0 0 107562375.4733258 -21814221.6947754 -21814221.6947754 -18529088.97185052 0 0 0 0 0 109324840.7706163 -20460051.6613979 -20460051.6613979 -18258097.09307838 0 0 0 0 0 110882115.7016485 -19119538.17174556 -19119538.17174556 -17922528.20620386 0 0 0 0 0 112214981.6352152 -17822150.42539056 -17822150.42539056 -17554474.72054669 0 0 0 0 0 113871350.227419 -17298557.17903274 -17298557.17903274 -17366390.15084824 0 0 0 0 0 112455080.7535556 -16621692.48248401 -16621692.48248401 -17223050.74457017 0 0 0 0 0 113429989.3608465 -15442318.61755965 -15442318.61755965 -16808841.97305645 0 0 0 0 0 114257923.5944256 -14318733.39899774 -14318733.39899774 -16371483.83353949 0 0 0 0 0 114950066.2908938 -13244511.18907949 -13244511.18907949 -15926280.50296336 0 0 0 0 0 115518685.2563896 -12220343.03737037 -12220343.03737037 -15474045.37524378 0 0 0 0 0 115988746.9599874 -11241968.09289419 -11241968.09289419 -15013955.55799457 0 0 0 0 0 116798917.7733738 -11001841.05051947 -11001841.05051947 -14965110.8148776 0 0 0 0 0 115523657.4239257 -10530199.85140295 -10530199.85140295 -14606673.41763146 0 0 0 0 0 115848466.158944 -9660989.53230577 -9660989.53230577 -14141165.33190898 0 0 0 0 0 115677235.8972156 -9687301.249365849 -9687301.249365849 -14102342.58415612 0 0 0 0 0 115867757.5984094 -8912679.66973638 -8912679.66973638 -13680981.71905397 0 0 0 0 0 115273622.3741571 -8399340.233137252 -8399340.233137252 -13247858.26019644 0 0 0 0 0 114779871.8379561 -8550477.984683745 -8550477.984683745 -13299357.69117609 0 0 0 0 0 115379243.7351564 -7716546.435945704 -7716546.435945704 -12843063.26249468 0 0 0 0 0 115441672.1893829 -7069126.259149292 -7069126.259149292 -12437609.6500779 0 0 0 0 0 115464579.6334718 -6456881.380655515 -6456881.380655515 -12036542.10661599 0 0 0 0 0 115453905.944059 -5877789.694408337 -5877789.694408337 -11638102.7787494 0 0 0 0 0 114814395.3050485 -5579618.235315114 -5579618.235315114 -11275387.08026097 0 0 0 0 0 114573332.1378303 -5638138.356342895 -5638138.356342895 -11240393.99490215 0 0 0 0 0 114764763.8841933 -5071945.927020682 -5071945.927020682 -10901593.18425863 0 0 0 0 0 114691135.5547694 -4593380.175001356 -4593380.175001356 -10533719.63721177 0 0 0 0 0 114594844.0449819 -4143434.161801986 -4143434.161801986 -10174138.33897694 0 0 0 0 0 114482161.9359057 -3719179.980043715 -3719179.980043715 -9818516.956471812 0 0 0 0 0 114353194.9379108 -3319830.339758773 -3319830.339758773 -9471431.559481662 0 0 0 0 0 113689127.8998706 -3182665.102085202 -3182665.102085202 -9095052.747771125 0 0 0 0 0 113616533.0932844 -2839304.70010949 -2839304.70010949 -8876150.902362959 0 0 0 0 0 113576101.0544963 -2820647.211659587 -2820647.211659587 -8760334.580181317 0 0 0 0 0 113469707.7693901 -2507895.638644517 -2507895.638644517 -8561117.411400493 0 0 0 0 0 113313868.2410085 -2196501.160613568 -2196501.160613568 -8253930.052888846 0 0 0 0 0 113150688.3072958 -1903693.902668366 -1903693.902668366 -7954039.875613662 0 0 0 0 0 112980044.4477473 -1629352.045975349 -1629352.045975349 -7663349.671246978 0 0 0 0 0 112457301.1682299 -1598423.782361543 -1598423.782361543 -7466821.103571458 0 0 0 0 0 112482942.2119756 -1556096.898232409 -1556096.898232409 -7331292.175866927 0 0 0 0 0 112292185.1564061 -1354055.800922114 -1354055.800922114 -7196653.900707325 0 0 0 0 0 112125377.8421894 -1123985.206802382 -1123985.206802382 -6932940.173700878 0 0 0 0 0 111956380.7318477 -908415.8964951286 -908415.8964951286 -6677130.633831002 0 0 0 0 0 111777840.8813517 -709832.9393352822 -709832.9393352822 -6431958.665339761 0 0 0 0 0 111603597.554232 -522085.5410195881 -522085.5410195881 -6191199.701494409 0 0 0 0 0 111080156.9354027 -327764.6949774413 -327764.6949774413 -5679849.34916161 0 0 0 0 0 111422435.778661 -347858.9111856386 -347858.9111856386 -5959222.818259622 0 0 0 0 0 110969534.1906143 -405103.8978291961 -405103.8978291961 -5859293.654907659 0 0 0 0 0 110804657.0060779 -246864.7772583827 -246864.7772583827 -5643682.05342663 0 0 0 0 0 110638256.4173806 -98248.54774240781 -98248.54774240781 -5435459.639568251 0 0 0 0 0 110469127.7151605 38245.78825185743 38245.78825185743 -5236895.568986913 0 0 0 0 0 110300944.0036649 166293.2975071965 166293.2975071965 -5042687.924888143 0 0 0 0 0 110136154.2956059 287684.1495975861 287684.1495975861 -4852431.703705378 0 0 0 0 0 109869558.4572556 295077.2303211581 295077.2303211581 -4619512.169436743 0 0 0 0 0 109774905.0200046 229439.3437274558 229439.3437274558 -4770960.393350505 0 0 0 0 0 109619860.3223993 340330.0662588895 340330.0662588895 -4593920.801693314 0 0 0 0 0 109465679.0516023 444452.0130410637 444452.0130410637 -4421788.108000377 0 0 0 0 0 109320333.2399305 541265.873974517 541265.873974517 -4255587.010469305 0 0 0 0 0 109082923.2956036 541318.5623613637 541318.5623613637 -4053201.236503712 0 0 0 0 0 108986961.3216942 475945.1965332078 475945.1965332078 -4201017.116410629 0 0 0 0 0 108822982.7832353 560365.8220984538 560365.8220984538 -4029542.241623463 0 0 0 0 0 108619899.9654582 579304.6680878382 579304.6680878382 -3979227.782256078 0 0 0 0 0 116474340.5398455 -9476921.580276916 -9476921.580276916 -14109353.50459613 0 0 0 0 0 -3179000.475029845 11474575.79451351 11474575.79451351 -43716183.04569988 0 0 0 0 0 -52825.70672438285 4400078.765609839 4400078.765609839 -38998537.54792075 0 0 0 0 0 5825723.238701968 -1895193.210993485 -1895193.210993485 -35306084.20214472 0 0 0 0 0 11715753.49871636 -7611027.192328542 -7611027.192328542 -29048793.90489012 0 0 0 0 0 17268986.02206995 -12451594.01352802 -12451594.01352802 -24522252.74189992 0 0 0 0 0 32217978.52542673 -21406448.51367555 -21406448.51367555 -22049299.17751227 0 0 0 0 0 28166505.39876012 -21360400.00449265 -21360400.00449265 -18577338.19899494 0 0 0 0 0 39886234.60325175 -24685240.33226964 -24685240.33226964 -20026114.16905739 0 0 0 0 0 47363873.40584616 -27218180.63211062 -27218180.63211062 -18753244.19880931 0 0 0 0 0 54843195.18912391 -29170087.08339104 -29170087.08339104 -17941384.49814508 0 0 0 0 0 61910558.359851 -30493902.36564082 -30493902.36564082 -17499130.61922071 0 0 0 0 0 68618621.43670498 -31284149.33458619 -31284149.33458619 -17303124.31843284 0 0 0 0 0 74889774.19770207 -31604456.06161856 -31604456.06161856 -17285632.53278506 0 0 0 0 0 80669228.9552912 -31509176.84537848 -31509176.84537848 -17372849.72976663 0 0 0 0 0 85978543.57036087 -31072683.18270033 -31072683.18270033 -17520525.31755148 0 0 0 0 0 86956683.69489938 -31210872.52532617 -31210872.52532617 -18030797.95869222 0 0 0 0 0 91149786.64982824 -30102174.94989535 -30102174.94989535 -18333765.88881908 0 0 0 0 0 95192653.11625634 -29124889.54307777 -29124889.54307777 -18422071.02758539 0 0 0 0 0 98821067.43120465 -27997080.9035834 -27997080.9035834 -18476856.95914456 0 0 0 0 0 102062795.6352714 -26762325.29970554 -26762325.29970554 -18487118.0968443 0 0 0 0 0 104334222.9625448 -25223540.06038827 -25223540.06038827 -18694088.43423318 0 0 0 0 0 101312629.0404316 -26116743.34641727 -26116743.34641727 -18857126.33996079 0 0 0 0 0 106713877.2012525 -23906234.29570153 -23906234.29570153 -18583164.21279804 0 0 0 0 0 108812339.8261893 -22571363.44361594 -22571363.44361594 -18415363.84957182 0 0 0 0 0 110654792.2359415 -21227511.36686386 -21227511.36686386 -18197037.18086314 0 0 0 0 0 112280002.522215 -19875621.8450211 -19875621.8450211 -17922137.22477176 0 0 0 0 0 113666552.4965377 -18555443.62570161 -18555443.62570161 -17631498.04058845 0 0 0 0 0 114830677.8772136 -17279749.22627455 -17279749.22627455 -17305231.4342211 0 0 0 0 0 113356731.7239916 -16571112.83826691 -16571112.83826691 -17167840.02052583 0 0 0 0 0 114857673.5981673 -16096073.6022318 -16096073.6022318 -17001137.03305423 0 0 0 0 0 115685567.1619847 -14934926.37622943 -14934926.37622943 -16615881.04018867 0 0 0 0 0 116351449.5906303 -13832302.18187984 -13832302.18187984 -16218580.5607242 0 0 0 0 0 116900179.2367598 -12776362.97878779 -12776362.97878779 -15802016.66335411 0 0 0 0 0 117343041.3685979 -11763587.39998182 -11763587.39998182 -15363566.25516171 0 0 0 0 0 117695424.3880734 -10793482.25720568 -10793482.25720568 -14910016.51899665 0 0 0 0 0 116376538.392935 -10306361.65190708 -10306361.65190708 -14540576.72224464 0 0 0 0 0 117086929.552455 -10100888.34539482 -10100888.34539482 -14520304.16170694 0 0 0 0 0 117299923.3016709 -9246389.299889755 -9246389.299889755 -14072800.41013684 0 0 0 0 0 115313838.9358238 -9078630.402982993 -9078630.402982993 -13723469.42418141 0 0 0 0 0 115517521.1371815 -8317797.856452939 -8317797.856452939 -13275094.24926974 0 0 0 0 0 114948648.1416564 -7843115.556915016 -7843115.556915016 -12867152.05113461 0 0 0 0 0 116000743.9793465 -8178848.79027055 -8178848.79027055 -13260558.22853651 0 0 0 0 0 115067556.741822 -7174331.556885177 -7174331.556885177 -12439059.88753586 0 0 0 0 0 115143443.7848419 -6541492.997475273 -6541492.997475273 -12014999.67903877 0 0 0 0 0 115180352.6809412 -5943868.677019979 -5943868.677019979 -11596312.12457806 0 0 0 0 0 115182623.1526104 -5379769.664542863 -5379769.664542863 -11182579.77239599 0 0 0 0 0 114564828.4717829 -5113830.226605357 -5113830.226605357 -10846745.79600958 0 0 0 0 0 115408572.3714887 -5333148.025008475 -5333148.025008475 -11247180.81939781 0 0 0 0 0 114528327.5620929 -4620209.529483133 -4620209.529483133 -10460900.77072852 0 0 0 0 0 114467346.2572353 -4155656.472571159 -4155656.472571159 -10083046.06922898 0 0 0 0 0 114385165.3507283 -3719101.43936926 -3719101.43936926 -9712751.572522555 0 0 0 0 0 114282161.7711535 -3309340.629031852 -3309340.629031852 -9353612.916819513 0 0 0 0 0 114164699.2423133 -2923561.75004188 -2923561.75004188 -9001715.874428505 0 0 0 0 0 114210384.3119168 -2944454.196896714 -2944454.196896714 -9132221.92632309 0 0 0 0 0 113449882.0774373 -2480638.584686662 -2480638.584686662 -8434241.311119525 0 0 0 0 0 114055611.4071883 -2591954.920940858 -2591954.920940858 -8801038.686206959 0 0 0 0 0 113312500.6726363 -2161582.767392918 -2161582.767392918 -8117438.333213399 0 0 0 0 0 113165636.2661769 -1862133.438584054 -1862133.438584054 -7809560.280700263 0 0 0 0 0 113010677.2544419 -1581103.823166256 -1581103.823166256 -7510205.5204363 0 0 0 0 0 112848780.5596427 -1317901.709571295 -1317901.709571295 -7220011.095436248 0 0 0 0 0 112330347.2972407 -1306605.963370859 -1306605.963370859 -7054593.921183205 0 0 0 0 0 112804927.3638291 -1371351.883745146 -1371351.883745146 -7379348.093206467 0 0 0 0 0 112172673.0349931 -1073089.951375963 -1073089.951375963 -6786192.207182543 0 0 0 0 0 112010117.4065774 -854566.4139884425 -854566.4139884425 -6525844.411603418 0 0 0 0 0 111841559.2347796 -650723.9817381579 -650723.9817381579 -6274944.271115063 0 0 0 0 0 111672505.8391402 -461454.6935875747 -461454.6935875747 -6034301.179845511 0 0 0 0 0 111497165.1506108 -284374.8960462273 -284374.8960462273 -5800971.119535558 0 0 0 0 0 111211473.0655733 -204350.0430948918 -204350.0430948918 -5769159.725882137 0 0 0 0 0 111323873.9357234 -117445.0417300202 -117445.0417300202 -5569088.674313747 0 0 0 0 0 110890228.5349058 -181901.3806921717 -181901.3806921717 -5485235.233533757 0 0 0 0 0 110729566.2782733 -31224.62450182778 -31224.62450182778 -5274894.715621589 0 0 0 0 0 110567380.0498774 108973.8362013547 108973.8362013547 -5070661.40201233 0 0 0 0 0 110403420.7183357 238483.5781998684 238483.5781998684 -4875226.488111349 0 0 0 0 0 110240453.2892688 360150.1713027896 360150.1713027896 -4685695.839520023 0 0 0 0 0 110076376.2436049 474328.9436410789 474328.9436410789 -4502851.859004054 0 0 0 0 0 109972030.3432151 402435.1445175561 402435.1445175561 -4667973.294742713 0 0 0 0 0 109717399.9684515 406955.8972776404 406955.8972776404 -4441828.679307458 0 0 0 0 0 109565857.8909542 511810.6747428 511810.6747428 -4269750.251560178 0 0 0 0 0 109416889.2962409 607834.1831540192 607834.1831540192 -4101144.505008193 0 0 0 0 0 109260829.2515925 696068.6098990859 696068.6098990859 -3946551.858446188 0 0 0 0 0 109180700.0630424 636955.7340884231 636955.7340884231 -4086758.223427374 0 0 0 0 0 108958870.9713043 636241.0974185481 636241.0974185481 -3884296.669276517 0 0 0 0 0 108867587.1417669 727623.6349096149 727623.6349096149 -3722007.039680185 0 0 0 0 0 116100183.5672276 -8838008.106889522 -8838008.106889522 -13672164.77625195 0 0 0 0 0 -4389558.224182013 13540680.23367033 13540680.23367033 -48388001.60577831 0 0 0 0 0 2151541.212751459 3830976.596526769 3830976.596526769 -39943228.17422329 0 0 0 0 0 10746815.77320035 -6571768.921990407 -6571768.921990407 -24799752.00151666 0 0 0 0 0 2453652.067753379 724599.171622119 724599.171622119 -30551975.71982532 0 0 0 0 0 16915247.32896199 -11796556.64550632 -11796556.64550632 -21601449.0817687 0 0 0 0 0 22656340.21580099 -15350063.42954441 -15350063.42954441 -21316948.79848636 0 0 0 0 0 35879352.16876652 -24956756.85155724 -24956756.85155724 -16904668.09765886 0 0 0 0 0 28254415.55570542 -18937135.69202463 -18937135.69202463 -21268985.6331551 0 0 0 0 0 43032061.65067633 -27716259.99655531 -27716259.99655531 -16020947.95567617 0 0 0 0 0 50131894.05054537 -29891489.0707318 -29891489.0707318 -15603993.25610901 0 0 0 0 0 57034720.78908417 -31364203.82663277 -31364203.82663277 -15506943.10657549 0 0 0 0 0 63661682.43525924 -32262406.88543353 -32262406.88543353 -15675743.28132149 0 0 0 0 0 69951964.34494977 -32653293.60270317 -32653293.60270317 -15977248.99566088 0 0 0 0 0 75844127.48225658 -32599418.48518484 -32599418.48518484 -16346502.16545942 0 0 0 0 0 81321714.01871485 -32183170.97030923 -32183170.97030923 -16739064.14017451 0 0 0 0 0 86364217.06150152 -31456401.11201843 -31456401.11201843 -17097930.14713899 0 0 0 0 0 90793256.86417317 -30348786.80942829 -30348786.80942829 -17686113.10381117 0 0 0 0 0 91242046.51503964 -30194279.33945636 -30194279.33945636 -18233500.12628167 0 0 0 0 0 95124514.90479754 -29022811.79578971 -29022811.79578971 -18381822.65478898 0 0 0 0 0 98621819.61542134 -27732016.25792695 -27732016.25792695 -18465412.48163858 0 0 0 0 0 101757437.5164839 -26355201.45923394 -26355201.45923394 -18473534.96370998 0 0 0 0 0 103953925.8679373 -24731982.57384922 -24731982.57384922 -18749085.91969842 0 0 0 0 0 104924116.9096885 -25450056.51397466 -25450056.51397466 -18449486.97229466 0 0 0 0 0 106283302.0574831 -23328599.76485315 -23328599.76485315 -18588052.42008033 0 0 0 0 0 108336664.5197685 -21918605.43789032 -21918605.43789032 -18367532.75298275 0 0 0 0 0 110139407.2545682 -20527564.65715945 -20527564.65715945 -18109121.15608029 0 0 0 0 0 111727959.7739618 -19156254.12926074 -19156254.12926074 -17802170.01331302 0 0 0 0 0 113124140.5771039 -17798833.88744954 -17798833.88744954 -17426389.52896393 0 0 0 0 0 114295296.3531125 -16495751.18962977 -16495751.18962977 -17027261.11399065 0 0 0 0 0 115819093.8975302 -16042383.79579823 -16042383.79579823 -16936030.10815876 0 0 0 0 0 114333912.9887599 -15358970.05215267 -15358970.05215267 -16748719.8817529 0 0 0 0 0 115172116.5574598 -14194958.08559029 -14194958.08559029 -16306908.8498472 0 0 0 0 0 115864911.3681766 -13076063.30611093 -13076063.30611093 -15842305.55524114 0 0 0 0 0 116430603.2524215 -12022529.51825279 -12022529.51825279 -15378950.64872567 0 0 0 0 0 116891756.9598251 -11018427.83879324 -11018427.83879324 -14906222.08797654 0 0 0 0 0 117262588.8253466 -10059369.93638388 -10059369.93638388 -14419097.86344106 0 0 0 0 0 117963679.036681 -9869252.482582541 -9869252.482582541 -14450779.10256042 0 0 0 0 0 116683513.6653752 -9416810.657367907 -9416810.657367907 -14059892.12638049 0 0 0 0 0 116913984.7938675 -8576316.039816802 -8576316.039816802 -13578600.32552019 0 0 0 0 0 116640853.776176 -8687291.764200155 -8687291.764200155 -13674648.786449 0 0 0 0 0 116749881.9215202 -7939200.655333524 -7939200.655333524 -13237651.18488787 0 0 0 0 0 116081942.1630685 -7484660.415392509 -7484660.415392509 -12840673.39245656 0 0 0 0 0 115666799.7558921 -7597570.2227268 -7597570.2227268 -12827904.93584671 0 0 0 0 0 116120064.8626268 -6827563.454060989 -6827563.454060989 -12421825.56425052 0 0 0 0 0 116119178.7028388 -6207202.46719578 -6207202.46719578 -12006260.79306003 0 0 0 0 0 116084509.003325 -5621433.207446399 -5621433.207446399 -11595228.24569183 0 0 0 0 0 116018286.5138485 -5069813.571270742 -5069813.571270742 -11190258.93114219 0 0 0 0 0 115336596.7343442 -4820294.325748991 -4820294.325748991 -10861634.69924873 0 0 0 0 0 115154472.8522433 -4849201.524904676 -4849201.524904676 -10775836.3490574 0 0 0 0 0 115240949.8528279 -4337855.218215362 -4337855.218215362 -10482361.69464895 0 0 0 0 0 115124640.644363 -3884267.868063644 -3884267.868063644 -10110285.37493024 0 0 0 0 0 114989032.0048374 -3458987.089267895 -3458987.089267895 -9747688.573839873 0 0 0 0 0 114839604.8141176 -3058771.058685463 -3058771.058685463 -9390256.754527168 0 0 0 0 0 114676490.9722179 -2683308.431092827 -2683308.431092827 -9042557.073995454 0 0 0 0 0 114032655.1445726 -2561768.632472721 -2561768.632472721 -8659246.675003566 0 0 0 0 0 113890402.4568925 -2261318.041176185 -2261318.041176185 -8478454.111025147 0 0 0 0 0 113888261.2407485 -2222556.353096557 -2222556.353096557 -8326106.482804218 0 0 0 0 0 113716804.4181271 -1951162.912603352 -1951162.912603352 -8164107.888112285 0 0 0 0 0 113536286.3950186 -1660246.825271035 -1660246.825271035 -7858103.514519993 0 0 0 0 0 113349662.7919887 -1387696.540793757 -1387696.540793757 -7560592.146119726 0 0 0 0 0 113158210.1576463 -1132492.167101574 -1132492.167101574 -7272013.914800642 0 0 0 0 0 112625272.5632931 -1129465.639173138 -1129465.639173138 -7103891.466489871 0 0 0 0 0 112680966.5612606 -1071113.866188612 -1071113.866188612 -6938604.257897818 0 0 0 0 0 112441074.4197508 -903090.9210048995 -903090.9210048995 -6836695.741161817 0 0 0 0 0 112255819.4049051 -692804.7096681247 -692804.7096681247 -6579192.642373318 0 0 0 0 0 112064942.6215331 -498834.8127073533 -498834.8127073533 -6330938.867689952 0 0 0 0 0 111874570.2963958 -316685.5332017362 -316685.5332017362 -6089855.158804741 0 0 0 0 0 111685831.2118094 -146182.6178091206 -146182.6178091206 -5854325.012139817 0 0 0 0 0 111163220.2668547 27337.78752499875 27337.78752499875 -5356257.64539342 0 0 0 0 0 111494440.4153359 13612.94223365776 13612.94223365776 -5627517.837087694 0 0 0 0 0 111047684.5255954 -51207.93772620306 -51207.93772620306 -5535001.753545774 0 0 0 0 0 110872255.2746876 94977.01441598963 94977.01441598963 -5327057.101406941 0 0 0 0 0 110693495.1369187 228411.1709790847 228411.1709790847 -5125333.014715109 0 0 0 0 0 110516877.2505049 353519.4122750256 353519.4122750256 -4929408.507467308 0 0 0 0 0 110340465.0077863 470083.8227678314 470083.8227678314 -4739420.573665338 0 0 0 0 0 110168508.1789066 580701.6130889609 580701.6130889609 -4553027.532998024 0 0 0 0 0 109915730.3729225 582804.5204712071 582804.5204712071 -4324881.754463269 0 0 0 0 0 109808796.5833406 510145.6230684464 510145.6230684464 -4490117.602461598 0 0 0 0 0 109647895.3186346 611070.5154176588 611070.5154176588 -4317642.678012189 0 0 0 0 0 109488189.1829617 703991.6173320818 703991.6173320818 -4154273.156283705 0 0 0 0 0 109320003.9317984 782480.6177035765 782480.6177035765 -3997641.7890032 0 0 0 0 0 109091003.4091669 774361.9512801404 774361.9512801404 -3826375.123960217 0 0 0 0 0 109059857.086997 750396.4922383074 750396.4922383074 -3906245.968487686 0 0 0 0 0 108755549.9167038 771577.0479210871 771577.0479210871 -3791372.510330791 0 0 0 0 0 117439831.5846845 -8440916.137597175 -8440916.137597175 -13626803.67678698 0 0 0 0 0 -2969412.577776843 9975823.117663315 9975823.117663315 -34744982.10044176 0 0 0 0 0 4033190.13897823 -758935.7674799538 -758935.7674799538 -29509068.97702607 0 0 0 0 0 5423837.225574301 140469.6288893693 140469.6288893693 -31357909.24613073 0 0 0 0 0 12170728.20574266 -7304323.49419769 -7304323.49419769 -26023089.99478434 0 0 0 0 0 22570013.56947571 -16900333.36380829 -16900333.36380829 -17826989.96606579 0 0 0 0 0 16078539.62534492 -11202439.78618917 -11202439.78618917 -18152554.34561224 0 0 0 0 0 35172575.81060644 -22173926.28016727 -22173926.28016727 -18840469.19421263 0 0 0 0 0 31587946.70454287 -22450247.92229395 -22450247.92229395 -14934309.38948324 0 0 0 0 0 43084118.91562108 -25281276.39195941 -25281276.39195941 -17640024.11062005 0 0 0 0 0 51174831.26677537 -27828237.20990444 -27828237.20990444 -16743202.9780525 0 0 0 0 0 58897443.10655646 -29625615.0433385 -29625615.0433385 -16260953.26125384 0 0 0 0 0 66192543.71841556 -30790015.22507911 -30790015.22507911 -16059402.40053394 0 0 0 0 0 73054403.52111688 -31406978.85712579 -31406978.85712579 -16074507.86161948 0 0 0 0 0 79353909.16238572 -31524307.49041805 -31524307.49041805 -16237385.14611548 0 0 0 0 0 85111560.68094279 -31234187.24631196 -31234187.24631196 -16464775.74780284 0 0 0 0 0 90315153.48821895 -30600877.18533043 -30600877.18533043 -16718101.16429617 0 0 0 0 0 90955480.95960224 -30478679.08464752 -30478679.08464752 -17403968.28519422 0 0 0 0 0 95135838.96707703 -29405472.32840012 -29405472.32840012 -17837820.76204529 0 0 0 0 0 99013547.03934896 -28285018.25382634 -28285018.25382634 -17954754.90169687 0 0 0 0 0 102465571.4589369 -27035525.75154143 -27035525.75154143 -18017330.58656723 0 0 0 0 0 105507901.4244948 -25691901.04121183 -25691901.04121183 -18028768.46901231 0 0 0 0 0 107432597.2077315 -24094574.21380471 -24094574.21380471 -18363525.65987556 0 0 0 0 0 104541466.0153528 -24931456.45164381 -24931456.45164381 -18408583.86242683 0 0 0 0 0 109633437.8842949 -22715909.54561546 -22715909.54561546 -18217610.31525429 0 0 0 0 0 111537660.6978557 -21333126.149226 -21333126.149226 -18027846.21051986 0 0 0 0 0 113190644.6967496 -19949319.23567918 -19949319.23567918 -17775398.79077254 0 0 0 0 0 114623862.509836 -18579510.20754508 -18579510.20754508 -17467772.18681542 0 0 0 0 0 115830196.2739543 -17252064.40528949 -17252064.40528949 -17145498.86718554 0 0 0 0 0 116832362.0621136 -15971955.6342862 -15971955.6342862 -16789090.78215902 0 0 0 0 0 115284750.1318684 -15242412.51391879 -15242412.51391879 -16607671.4074687 0 0 0 0 0 116648659.7125836 -14850339.0853776 -14850339.0853776 -16541638.5377226 0 0 0 0 0 117330489.0529299 -13702725.13755603 -13702725.13755603 -16128188.6981419 0 0 0 0 0 117867989.4193226 -12607636.25947819 -12607636.25947819 -15707708.64255515 0 0 0 0 0 118292718.2258061 -11562071.19649482 -11562071.19649482 -15260621.71632478 0 0 0 0 0 118627929.9001729 -10564338.31836258 -10564338.31836258 -14795806.39203108 0 0 0 0 0 118872061.8401359 -9618507.214365412 -9618507.214365412 -14326172.12964983 0 0 0 0 0 117547848.4821411 -9150168.704539979 -9150168.704539979 -13926518.94643262 0 0 0 0 0 118152002.9200257 -8996028.48206104 -8996028.48206104 -13989707.34166409 0 0 0 0 0 118269435.6048623 -8172943.073974831 -8172943.073974831 -13528382.67010135 0 0 0 0 0 116282517.9018322 -8063529.27234382 -8063529.27234382 -13211199.41703698 0 0 0 0 0 116408873.47749 -7330668.07615546 -7330668.07615546 -12749775.51400623 0 0 0 0 0 115765121.577464 -6917316.497897865 -6917316.497897865 -12384812.76230669 0 0 0 0 0 116808010.45155 -7232333.337690322 -7232333.337690322 -12803068.40874665 0 0 0 0 0 115817793.844726 -6276290.115144914 -6276290.115144914 -11947102.95679613 0 0 0 0 0 115830945.0687413 -5672209.203023463 -5672209.203023463 -11517000.75337694 0 0 0 0 0 115810007.2348928 -5102882.733429207 -5102882.733429207 -11092676.45376939 0 0 0 0 0 115757597.26549 -4567706.415777419 -4567706.415777419 -10675463.12317785 0 0 0 0 0 115096897.9125091 -4351428.079058071 -4351428.079058071 -10378526.39098165 0 0 0 0 0 115922666.5474699 -4551826.059532817 -4551826.059532817 -10793210.99434172 0 0 0 0 0 115014637.4064757 -3884153.401244005 -3884153.401244005 -9990448.371916 0 0 0 0 0 114911133.5468464 -3445655.53521078 -3445655.53521078 -9611625.477628432 0 0 0 0 0 114789333.9990177 -3034659.786938302 -3034659.786938302 -9242120.027976345 0 0 0 0 0 114650130.9626487 -2649556.373697543 -2649556.373697543 -8883162.976144517 0 0 0 0 0 114498138.3189496 -2288665.084545913 -2288665.084545913 -8533564.332895145 0 0 0 0 0 114502096.316598 -2331423.136168357 -2331423.136168357 -8703461.04685788 0 0 0 0 0 113733186.2004 -1904802.446396932 -1904802.446396932 -8002410.207981889 0 0 0 0 0 114318027.0077136 -2001819.715413009 -2001819.715413009 -8373319.904591286 0 0 0 0 0 113568842.0992951 -1607334.027199382 -1607334.027199382 -7688570.868462025 0 0 0 0 0 113396998.0580643 -1328821.270239532 -1328821.270239532 -7384011.925228724 0 0 0 0 0 113218750.1700955 -1068227.544406676 -1068227.544406676 -7088887.43112928 0 0 0 0 0 113035407.348503 -824771.6878972845 -824771.6878972845 -6803105.610065944 0 0 0 0 0 112508507.4522132 -840097.5482457128 -840097.5482457128 -6666168.071471548 0 0 0 0 0 112963051.0309854 -893754.4784675622 -893754.4784675622 -6991686.995342181 0 0 0 0 0 112334117.0196157 -624904.0871650149 -624904.0871650149 -6401073.99863239 0 0 0 0 0 112155070.1482895 -424115.5012960955 -424115.5012960955 -6145444.218069733 0 0 0 0 0 111967503.7182135 -241721.0179207841 -241721.0179207841 -5904432.47488247 0 0 0 0 0 111780527.7865191 -71008.95373817238 -71008.95373817238 -5672268.350209042 0 0 0 0 0 111589504.2495397 88383.32776857684 88383.32776857684 -5445367.234288809 0 0 0 0 0 111294823.5618988 158215.0191374857 158215.0191374857 -5423051.298659093 0 0 0 0 0 111397420.2010249 237106.2629866366 237106.2629866366 -5225659.781137589 0 0 0 0 0 110977019.8262642 170135.6660458568 170135.6660458568 -5149265.783526404 0 0 0 0 0 110803138.8255199 306194.448651631 306194.448651631 -4944563.919784577 0 0 0 0 0 110629656.1016296 432380.6407628027 432380.6407628027 -4747845.366930351 0 0 0 0 0 110455997.7053415 549938.010042434 549938.010042434 -4556853.99421278 0 0 0 0 0 110284422.5968998 659773.0319921422 659773.0319921422 -4372669.794281875 0 0 0 0 0 110114113.4259778 763539.4840651363 763539.4840651363 -4193421.225103074 0 0 0 0 0 109997141.1503578 684054.1527618342 684054.1527618342 -4374215.31336984 0 0 0 0 0 109756020.7679842 683893.4074065086 683893.4074065086 -4153076.144116805 0 0 0 0 0 109598748.780536 777055.6221786365 777055.6221786365 -3990019.861761626 0 0 0 0 0 109447579.3861062 867647.3214374263 867647.3214374263 -3818647.662741365 0 0 0 0 0 109278631.7509989 923039.3439294433 923039.3439294433 -3705490.967769738 0 0 0 0 0 109211486.7333459 868862.7668423055 868862.7668423055 -3832013.816841041 0 0 0 0 0 108927310.2727184 852750.3036522774 852750.3036522774 -3690175.20842331 0 0 0 0 0 109018015.2921133 926152.9872648105 926152.9872648105 -3557294.639417212 0 0 0 0 0 117075971.7477485 -7784850.885746334 -7784850.885746334 -13099160.35984731 0 0 0 0 0 -2527177.507490532 11217750.13412583 11217750.13412583 -38755272.98701306 0 0 0 0 0 10124364.15134813 -5575119.875361858 -5575119.875361858 -20167633.35853386 0 0 0 0 0 -2181702.886692093 7634383.305491989 7634383.305491989 -27505467.8782701 0 0 0 0 0 27758751.36416627 -18490672.3509114 -18490672.3509114 -16689729.45146381 0 0 0 0 0 17711851.81223064 -10563718.69469381 -10563718.69469381 -19544423.89788051 0 0 0 0 0 38828068.38444138 -25564940.31852381 -25564940.31852381 -13961648.30258502 0 0 0 0 0 27793494.50493703 -18388349.54143986 -18388349.54143986 -17402614.7022765 0 0 0 0 0 46324520.23637275 -28381430.35120497 -28381430.35120497 -13573250.38496114 0 0 0 0 0 53884929.88365046 -30392754.09539463 -30392754.09539463 -13481330.62551247 0 0 0 0 0 61029947.89985037 -31683253.95039575 -31683253.95039575 -13721535.83805704 0 0 0 0 0 67850858.53107987 -32396261.16212497 -32396261.16212497 -14178431.04915676 0 0 0 0 0 74250867.72930297 -32580085.7118122 -32580085.7118122 -14708960.87485968 0 0 0 0 0 80162503.2958595 -32312723.55434042 -32312723.55434042 -15273477.56223537 0 0 0 0 0 85601490.13416268 -31685887.81668319 -31685887.81668319 -15800230.91693611 0 0 0 0 0 90537010.65236914 -30758214.97116333 -30758214.97116333 -16260256.59822038 0 0 0 0 0 94992680.52387464 -29710102.1020625 -29710102.1020625 -16962859.24462902 0 0 0 0 0 95111192.24492781 -29318158.71975033 -29318158.71975033 -17648863.97913986 0 0 0 0 0 98834595.56630187 -28009667.00799261 -28009667.00799261 -17814572.00489024 0 0 0 0 0 102162956.1481964 -26607274.32613618 -26607274.32613618 -17899576.31487856 0 0 0 0 0 105115119.4083423 -25141776.31122049 -25141776.31122049 -17899801.77081056 0 0 0 0 0 106986300.8904816 -23478193.7813008 -23478193.7813008 -18282119.84848376 0 0 0 0 0 108158765.5850355 -24296982.23122303 -24296982.23122303 -17986596.4191451 0 0 0 0 0 109141273.6299746 -22019701.9909299 -22019701.9909299 -18091888.61568302 0 0 0 0 0 111020451.0917827 -20576382.14659014 -20576382.14659014 -17842364.70410934 0 0 0 0 0 112651351.2714812 -19155662.03299769 -19155662.03299769 -17547869.12386535 0 0 0 0 0 114056098.5570509 -17758902.66767537 -17758902.66767537 -17197284.35616425 0 0 0 0 0 115261243.8021088 -16413279.98622397 -16413279.98622397 -16811996.32019468 0 0 0 0 0 116277545.6951293 -15116209.44614824 -15116209.44614824 -16384086.74549614 0 0 0 0 0 117653600.6835942 -14739684.13804254 -14739684.13804254 -16401755.61712314 0 0 0 0 0 116111160.8332979 -14046647.69769026 -14046647.69769026 -16168915.20665628 0 0 0 0 0 116803675.0087011 -12900936.09851336 -12900936.09851336 -15708603.35318866 0 0 0 0 0 117378212.2773967 -11805560.19724167 -11805560.19724167 -15218376.67645783 0 0 0 0 0 117825422.2406442 -10773981.00443591 -10773981.00443591 -14733972.97743307 0 0 0 0 0 118177462.6791494 -9793032.251986602 -9793032.251986602 -14239907.6250526 0 0 0 0 0 118442529.6881193 -8862352.110672127 -8862352.110672127 -13736142.11713008 0 0 0 0 0 119034315.6634951 -8725951.617242636 -8725951.617242636 -13853299.32895215 0 0 0 0 0 117756742.9308525 -8291977.144928891 -8291977.144928891 -13432638.87748055 0 0 0 0 0 117892124.753367 -7487114.247806261 -7487114.247806261 -12944010.24481674 0 0 0 0 0 117523820.9466968 -7679057.736238795 -7679057.736238795 -13174957.61114781 0 0 0 0 0 117555554.8636967 -6960593.303823649 -6960593.303823649 -12727083.82217862 0 0 0 0 0 116820493.7306198 -6565657.642128138 -6565657.642128138 -12371326.4137117 0 0 0 0 0 116483300.7108914 -6640336.005095745 -6640336.005095745 -12293739.2123769 0 0 0 0 0 116792677.5948962 -5937939.058040665 -5937939.058040665 -11943553.40620661 0 0 0 0 0 116732226.4784326 -5346187.775205873 -5346187.775205873 -11519817.59620024 0 0 0 0 0 116641705.3020854 -4789519.31958745 -4789519.31958745 -11102955.03211836 0 0 0 0 0 116522728.3895947 -4267002.785810507 -4267002.785810507 -10693646.11009535 0 0 0 0 0 115803671.5608274 -4065900.789407674 -4065900.789407674 -10403398.33229559 0 0 0 0 0 115679029.3816772 -4065631.858815803 -4065631.858815803 -10266906.41852044 0 0 0 0 0 115664359.4903945 -3610137.761620546 -3610137.761620546 -10021284.78326322 0 0 0 0 0 115507614.5251276 -3182861.889682248 -3182861.889682248 -9647602.382982856 0 0 0 0 0 115335368.5079884 -2782948.207485034 -2782948.207485034 -9283824.849130437 0 0 0 0 0 115150931.6181371 -2408163.548175142 -2408163.548175142 -8927535.828449493 0 0 0 0 0 114955697.3506559 -2057489.770318224 -2057489.770318224 -8581252.689763818 0 0 0 0 0 114334274.7309642 -1950960.477334409 -1950960.477334409 -8194027.662093007 0 0 0 0 0 114125820.6731572 -1693459.542522143 -1693459.542522143 -8052488.575375959 0 0 0 0 0 114160392.3387896 -1635185.422177519 -1635185.422177519 -7864437.477458893 0 0 0 0 0 113927394.098006 -1404890.90696211 -1404890.90696211 -7740455.321912516 0 0 0 0 0 113723631.161156 -1135023.986730613 -1135023.986730613 -7437533.893510968 0 0 0 0 0 113515603.5926176 -882905.5516803659 -882905.5516803659 -7143759.29100412 0 0 0 0 0 113304331.0668346 -647579.3123951022 -647579.3123951022 -6859153.576745532 0 0 0 0 0 112765076.3566745 -670317.2836601735 -670317.2836601735 -6719864.547088552 0 0 0 0 0 112847670.6070971 -597313.2680986817 -597313.2680986817 -6526830.06832075 0 0 0 0 0 112561865.9411397 -462374.4332077279 -462374.4332077279 -6457595.520240222 0 0 0 0 0 112361083.4431769 -273111.4344038551 -273111.4344038551 -6209689.663824434 0 0 0 0 0 112153969.2136363 -98171.00790128451 -98171.00790128451 -5965868.633315176 0 0 0 0 0 111948250.2445694 65047.70275766367 65047.70275766367 -5732739.793740998 0 0 0 0 0 111748550.039385 220809.9665921082 220809.9665921082 -5502058.747165534 0 0 0 0 0 111224254.0487393 375551.1506039652 375551.1506039652 -5013403.384272623 0 0 0 0 0 111545696.0188382 366094.4708674083 366094.4708674083 -5281977.368218126 0 0 0 0 0 111108866.7488918 294410.4404158932 294410.4404158932 -5203970.545260416 0 0 0 0 0 110920651.785803 424746.4240023988 424746.4240023988 -5000590.014924054 0 0 0 0 0 110732807.508193 545826.8932580573 545826.8932580573 -4803256.839990785 0 0 0 0 0 110546691.5261467 658755.5071742411 658755.5071742411 -4611713.554575737 0 0 0 0 0 110364588.0474959 765125.0620676946 765125.0620676946 -4425429.730771204 0 0 0 0 0 110184713.4127187 864068.1508671477 864068.1508671477 -4244868.331803961 0 0 0 0 0 109945844.3098238 860793.7191772996 860793.7191772996 -4020837.499570015 0 0 0 0 0 109825239.9155862 780186.4211109855 780186.4211109855 -4202004.577470846 0 0 0 0 0 109652202.8185561 865013.0495527658 865013.0495527658 -4039146.544103218 0 0 0 0 0 109441685.6198314 936256.7140498958 936256.7140498958 -3881556.04329113 0 0 0 0 0 109260680.2587766 984604.8048300821 984604.8048300821 -3777298.633350243 0 0 0 0 0 109105628.6183602 975745.7385179619 975745.7385179619 -3629784.755368985 0 0 0 0 0 109115526.8402741 982029.0804438924 982029.0804438924 -3636905.909984649 0 0 0 0 0 108879103.4415681 974705.0683563887 974705.0683563887 -3615503.591845633 0 0 0 0 0 118322848.2424871 -7398879.559446047 -7398879.559446047 -13069758.23850481 0 0 0 0 0 6669806.575767704 -1680443.827556191 -1680443.827556191 -24814571.97330067 0 0 0 0 0 -1190705.866041615 7762597.649656734 7762597.649656734 -28574561.25926324 0 0 0 0 0 19614767.00819181 -13925134.58315713 -13925134.58315713 -13427448.78031811 0 0 0 0 0 10647022.62434061 -6659500.493853612 -6659500.493853612 -14147574.33825278 0 0 0 0 0 37367883.15864736 -22421455.64274614 -22421455.64274614 -16452556.76826263 0 0 0 0 0 33528374.75402794 -22595511.8655019 -22595511.8655019 -11026281.87133474 0 0 0 0 0 46772684.16356955 -25996194.00951555 -25996194.00951555 -15074684.52842176 0 0 0 0 0 55308913.00222281 -28488815.43116947 -28488815.43116947 -14419570.21466135 0 0 0 0 0 63315484.18295814 -30164494.82346275 -30164494.82346275 -14226447.25778951 0 0 0 0 0 70784250.22625661 -31125441.61302725 -31125441.61302725 -14321412.63823772 0 0 0 0 0 77701548.36685969 -31499583.13864287 -31499583.13864287 -14612784.26257668 0 0 0 0 0 84022018.34409627 -31393519.67422205 -31393519.67422205 -14982372.01042081 0 0 0 0 0 89677018.20001109 -30867317.56048211 -30867317.56048211 -15376369.74028701 0 0 0 0 0 94735865.78026754 -30029574.2430034 -30029574.2430034 -15761348.97908795 0 0 0 0 0 94994908.47006875 -29617801.12746517 -29617801.12746517 -16640658.80849496 0 0 0 0 0 99154153.92189515 -28601254.11015354 -28601254.11015354 -17167701.22424323 0 0 0 0 0 102838260.2275647 -27339279.72354802 -27339279.72354802 -17316707.04115583 0 0 0 0 0 106073708.3341509 -25965828.10913431 -25965828.10913431 -17400403.83674782 0 0 0 0 0 108894238.4085642 -24523507.75061114 -24523507.75061114 -17413449.69779184 0 0 0 0 0 110469887.3038929 -22871061.56315505 -22871061.56315505 -17877040.0916853 0 0 0 0 0 107697815.458236 -23634107.69269991 -23634107.69269991 -17817659.63305353 0 0 0 0 0 112463917.3543445 -21432219.97984136 -21432219.97984136 -17710873.20085743 0 0 0 0 0 114175613.5187109 -20002866.27602979 -20002866.27602979 -17489482.12675829 0 0 0 0 0 115640155.6513741 -18589822.11360536 -18589822.11360536 -17209559.72580528 0 0 0 0 0 116865979.7242709 -17219609.64097978 -17219609.64097978 -16895499.82343515 0 0 0 0 0 117885281.5570896 -15882383.25446388 -15882383.25446388 -16539152.20601692 0 0 0 0 0 118716530.1143201 -14605560.07133655 -14605560.07133655 -16156278.86566213 0 0 0 0 0 117116887.1071755 -13880669.49531116 -13880669.49531116 -15939120.35867201 0 0 0 0 0 118323650.7764728 -13553970.13969901 -13553970.13969901 -15980815.55079182 0 0 0 0 0 118867147.2954403 -12416081.33025581 -12416081.33025581 -15534422.67158316 0 0 0 0 0 119279273.3926587 -11342154.90742565 -11342154.90742565 -15089194.17294465 0 0 0 0 0 119589544.0839746 -10319140.24185289 -10319140.24185289 -14619032.81870673 0 0 0 0 0 119811903.3524192 -9350400.110049946 -9350400.110049946 -14139125.57790207 0 0 0 0 0 119946829.1136908 -8438610.878128929 -8438610.878128929 -13658449.82374185 0 0 0 0 0 118625123.1024781 -7987888.832756906 -7987888.832756906 -13232329.10487654 0 0 0 0 0 119122662.8068679 -7886813.678748666 -7886813.678748666 -13381779.52762863 0 0 0 0 0 119148439.4852023 -7098068.919360648 -7098068.919360648 -12909419.61194759 0 0 0 0 0 117174981.6578826 -7042579.28159413 -7042579.28159413 -12629900.74347943 0 0 0 0 0 117225504.5553369 -6341576.372616166 -6341576.372616166 -12160462.00409601 0 0 0 0 0 116512407.0335307 -5990809.083150413 -5990809.083150413 -11843763.1824284 0 0 0 0 0 117541078.36516 -6284510.687305665 -6284510.687305665 -12282751.58865183 0 0 0 0 0 116500767.4091442 -5380548.946260592 -5380548.946260592 -11401134.68788619 0 0 0 0 0 116453792.209463 -4807522.017725267 -4807522.017725267 -10967639.81124191 0 0 0 0 0 116376898.7836362 -4268607.635353983 -4268607.635353983 -10541189.68254794 0 0 0 0 0 116273602.0064695 -3763195.904210396 -3763195.904210396 -10123210.19673155 0 0 0 0 0 115574612.9500463 -3595920.601392335 -3595920.601392335 -9868747.272709968 0 0 0 0 0 116378978.5091784 -3777699.608549748 -3777699.608549748 -10293920.94685513 0 0 0 0 0 115448805.6249882 -3156356.033819733 -3156356.033819733 -9481168.454969179 0 0 0 0 0 115304811.8386171 -2744984.002589125 -2744984.002589125 -9103966.502585648 0 0 0 0 0 115145266.2542342 -2360700.766058804 -2360700.766058804 -8737512.466233162 0 0 0 0 0 114971932.9199201 -2001358.717414254 -2001358.717414254 -8381480.627036227 0 0 0 0 0 114787686.9782242 -1665885.098616763 -1665885.098616763 -8036001.682771381 0 0 0 0 0 114751781.03269 -1729773.612780028 -1729773.612780028 -8244446.888839907 0 0 0 0 0 113978039.7823245 -1340215.702810667 -1340215.702810667 -7545009.648046514 0 0 0 0 0 114540367.4908325 -1423600.597281071 -1423600.597281071 -7917389.384150614 0 0 0 0 0 113788592.9663179 -1064688.226597908 -1064688.226597908 -7235696.995148842 0 0 0 0 0 113593363.9359302 -807521.3337480922 -807521.3337480922 -6936249.441566465 0 0 0 0 0 113393443.761528 -567743.1871076929 -567743.1871076929 -6646687.016405297 0 0 0 0 0 113190110.9453959 -344300.051379681 -344300.051379681 -6366745.547720506 0 0 0 0 0 112656921.6118103 -384674.7094040167 -384674.7094040167 -6260157.263592936 0 0 0 0 0 113090874.4193563 -428100.3872102786 -428100.3872102786 -6583548.897195376 0 0 0 0 0 112467710.3125892 -188043.8830300815 -188043.8830300815 -5998486.854075993 0 0 0 0 0 112263162.8147867 -12644.31715451605 -12644.31715451605 -5755153.50071301 0 0 0 0 0 112064201.73178 153292.1853877951 153292.1853877951 -5523371.806336677 0 0 0 0 0 111861887.2989022 305529.2590525598 305529.2590525598 -5298489.241196015 0 0 0 0 0 111662534.5116247 451765.089225528 451765.089225528 -5076876.38204682 0 0 0 0 0 111344441.1976404 501812.6830307884 501812.6830307884 -5072351.742164848 0 0 0 0 0 111466984.8547923 590159.7268975683 590159.7268975683 -4861737.599828295 0 0 0 0 0 111039030.9937545 508062.8987708177 508062.8987708177 -4806752.400538943 0 0 0 0 0 110854543.9951188 630701.8509334984 630701.8509334984 -4607392.209158959 0 0 0 0 0 110671721.5529246 744719.6611882958 744719.6611882958 -4415821.356012417 0 0 0 0 0 110490723.6231231 850865.4254455903 850865.4254455903 -4230068.456229464 0 0 0 0 0 110312191.7069307 950157.6710300042 950157.6710300042 -4049915.357698324 0 0 0 0 0 110135535.6266889 1042589.764082483 1042589.764082483 -3876355.626735528 0 0 0 0 0 110008062.196368 956557.2499425085 956557.2499425085 -4071076.497621599 0 0 0 0 0 109779218.3251445 949503.081211114 949503.081211114 -3849643.469510378 0 0 0 0 0 109610490.9726777 1041299.539168629 1041299.539168629 -3683309.749471528 0 0 0 0 0 109492120.3444448 1112729.09871655 1112729.09871655 -3573866.566703517 0 0 0 0 0 109302687.8630155 1122584.151242717 1122584.151242717 -3496232.695551224 0 0 0 0 0 109066002.3726067 1090242.818200396 1090242.818200396 -3384029.569937822 0 0 0 0 0 117967210.2963364 -6731932.766731232 -6731932.766731232 -12459834.04683925 0 0 0 0 0 591928.7754824347 2846480.501600157 2846480.501600157 -16908221.55958038 0 0 0 0 0 22081782.91627853 -13873271.87214394 -13873271.87214394 -13915105.07543205 0 0 0 0 0 10861537.26219023 -5630345.550324149 -5630345.550324149 -15800597.33541279 0 0 0 0 0 41862078.09405915 -26288834.96020356 -26288834.96020356 -10520959.12509894 0 0 0 0 0 31547136.91436208 -19246091.62793434 -19246091.62793434 -13670099.15252197 0 0 0 0 0 50062159.45150565 -28987619.42317699 -28987619.42317699 -10590063.80057852 0 0 0 0 0 57861424.21882997 -30867555.72987967 -30867555.72987967 -11053175.54600668 0 0 0 0 0 65268076.13247139 -32014988.92986571 -32014988.92986571 -11729104.09798674 0 0 0 0 0 72261203.59766965 -32518495.64470426 -32518495.64470426 -12501051.75516023 0 0 0 0 0 78716557.26041777 -32442887.49204318 -32442887.49204318 -13297802.37904296 0 0 0 0 0 84637633.06352416 -31932962.77728342 -31932962.77728342 -14047876.56129983 0 0 0 0 0 89990037.92844504 -31084390.98153155 -31084390.98153155 -14710722.43854136 0 0 0 0 0 94801750.68625183 -29967466.07773883 -29967466.07773883 -15269050.28870952 0 0 0 0 0 99220126.34780757 -28936379.32423335 -28936379.32423335 -16093719.02798529 0 0 0 0 0 98982284.26241444 -28301948.46510043 -28301948.46510043 -16921559.13466682 0 0 0 0 0 102530847.6621485 -26873426.67990823 -26873426.67990823 -17105430.46822545 0 0 0 0 0 105661244.6122238 -25363347.37083467 -25363347.37083467 -17190755.93560469 0 0 0 0 0 108402054.8593156 -23810166.80331075 -23810166.80331075 -17185657.63939703 0 0 0 0 0 109955641.4663394 -22124066.94578133 -22124066.94578133 -17668429.66640864 0 0 0 0 0 111330262.2554358 -23044710.57442484 -23044710.57442484 -17364810.42521609 0 0 0 0 0 111917239.0157392 -20626136.50461653 -20626136.50461653 -17454556.73874391 0 0 0 0 0 113612417.2718973 -19150596.14521353 -19150596.14521353 -17177605.73363177 0 0 0 0 0 115061926.8109281 -17710774.10588785 -17710774.10588785 -16849386.45262361 0 0 0 0 0 116286040.5316248 -16317174.73963532 -16317174.73963532 -16478208.02939037 0 0 0 0 0 117318080.670227 -14973640.88330211 -14973640.88330211 -16058938.60956937 0 0 0 0 0 118165966.7539675 -13691863.64129058 -13691863.64129058 -15613919.92229444 0 0 0 0 0 119384892.1610839 -13379312.03508813 -13379312.03508813 -15737235.53785481 0 0 0 0 0 117803647.0324865 -12697886.1665853 -12697886.1665853 -15469460.06281326 0 0 0 0 0 118357662.5499483 -11571944.59711511 -11571944.59711511 -14986619.61532224 0 0 0 0 0 118795206.5737436 -10509652.01718663 -10509652.01718663 -14492084.79583145 0 0 0 0 0 119125097.4729826 -9506584.491383819 -9506584.491383819 -13990929.0814922 0 0 0 0 0 119361570.7696985 -8558377.073751414 -8558377.073751414 -13484902.09586915 0 0 0 0 0 119518670.8469505 -7665947.354823471 -7665947.354823471 -12974170.66830345 0 0 0 0 0 120003236.2984878 -7582571.65253317 -7582571.65253317 -13177016.01221612 0 0 0 0 0 118735300.8085512 -7168558.469560715 -7168558.469560715 -12733489.35334329 0 0 0 0 0 118781682.7363994 -6401043.862300871 -6401043.862300871 -12240671.9606834 0 0 0 0 0 118326685.5561569 -6668122.214478815 -6668122.214478815 -12606327.72077313 0 0 0 0 0 118282828.7516271 -5983812.256606342 -5983812.256606342 -12152215.21853975 0 0 0 0 0 117486833.2182822 -5648920.484547206 -5648920.484547206 -11843262.28549057 0 0 0 0 0 117227540.6825928 -5684943.149436622 -5684943.149436622 -11700155.64539912 0 0 0 0 0 117396627.2552574 -5052445.624646815 -5052445.624646815 -11409520.5243472 0 0 0 0 0 117278456.5845403 -4491806.153254759 -4491806.153254759 -10981391.64120946 0 0 0 0 0 117135398.1137429 -3965743.180177354 -3965743.180177354 -10561529.28380738 0 0 0 0 0 116967400.0596101 -3473796.970081391 -3473796.970081391 -10151191.90921838 0 0 0 0 0 116215244.8306756 -3320159.981634025 -3320159.981634025 -9902783.366269799 0 0 0 0 0 116146660.7072334 -3291096.398595292 -3291096.398595292 -9715922.3943091 0 0 0 0 0 116034830.8724428 -2892284.247523315 -2892284.247523315 -9520458.631998423 0 0 0 0 0 115840035.274688 -2492489.729052058 -2492489.729052058 -9147903.823944617 0 0 0 0 0 115633236.3237543 -2118944.821991566 -2118944.821991566 -8785393.551782291 0 0 0 0 0 115416243.8724546 -1770180.046110245 -1770180.046110245 -8432438.500469875 0 0 0 0 0 115191223.498593 -1444840.771374124 -1444840.771374124 -8089639.442788901 0 0 0 0 0 114594095.6473328 -1352792.667489948 -1352792.667489948 -7701505.240406589 0 0 0 0 0 114323209.8643786 -1137842.733865454 -1137842.733865454 -7600014.129207404 0 0 0 0 0 114392716.9628696 -1060863.528459616 -1060863.528459616 -7377359.841932294 0 0 0 0 0 114101627.8831534 -871310.3387875947 -871310.3387875947 -7292183.492955614 0 0 0 0 0 113876341.621443 -622811.4762572412 -622811.4762572412 -6994017.626937842 0 0 0 0 0 113648650.7644292 -391299.4496970351 -391299.4496970351 -6705312.411591828 0 0 0 0 0 113419372.1266799 -175919.4877497882 -175919.4877497882 -6426193.135423622 0 0 0 0 0 112875885.8915633 -223645.6088897905 -223645.6088897905 -6317141.275107087 0 0 0 0 0 112983990.5006722 -136322.3846194229 -136322.3846194229 -6096320.162674588 0 0 0 0 0 112650520.565876 -38300.25016884329 -38300.25016884329 -6066155.846660594 0 0 0 0 0 112434519.1652049 132897.2707882347 132897.2707882347 -5824176.560923634 0 0 0 0 0 112218155.9302221 288733.6840018885 288733.6840018885 -5592070.435379901 0 0 0 0 0 112002283.3814195 438719.1532693734 438719.1532693734 -5358246.425323566 0 0 0 0 0 111790650.8450163 580546.7082316888 580546.7082316888 -5134751.727810478 0 0 0 0 0 111277737.5126087 717978.5485255393 717978.5485255393 -4652885.657306356 0 0 0 0 0 111580114.9251477 713482.5222606314 713482.5222606314 -4918859.714159404 0 0 0 0 0 111146109.2082973 626389.8291740629 626389.8291740629 -4864311.388062236 0 0 0 0 0 110948242.4839425 743363.313536544 743363.313536544 -4664924.79666206 0 0 0 0 0 110753102.0564643 852533.6354306684 852533.6354306684 -4471852.001205404 0 0 0 0 0 110560539.9966331 954752.8346910711 954752.8346910711 -4284381.667126985 0 0 0 0 0 110371227.1251767 1049528.561774967 1049528.561774967 -4103341.089901527 0 0 0 0 0 110185105.0305275 1136893.955752689 1136893.955752689 -3928626.215999656 0 0 0 0 0 109959993.9199924 1130441.220583346 1130441.220583346 -3712728.868759211 0 0 0 0 0 109826664.8448209 1043947.180991007 1043947.180991007 -3902878.959522684 0 0 0 0 0 109679499.3888877 1134885.910334795 1134885.910334795 -3724930.967701877 0 0 0 0 0 109295301.0458868 1130965.50854543 1130965.50854543 -3575652.495662659 0 0 0 0 0 109174578.9043578 1138538.912095349 1138538.912095349 -3499750.346353858 0 0 0 0 0 108987035.9645934 1147130.499799827 1147130.499799827 -3461983.601353182 0 0 0 0 0 119119951.8536205 -6357509.09023733 -6357509.09023733 -12440551.80154124 0 0 0 0 0 223618.3532725978 4140053.985229825 4140053.985229825 -19380897.92054043 0 0 0 0 0 13653048.59967963 -10192015.43323689 -10192015.43323689 -7156370.473804235 0 0 0 0 0 24924907.39622173 -18046431.67623302 -18046431.67623302 -6555241.733926562 0 0 0 0 0 2753245.448287541 -648619.2807077833 -648619.2807077833 -8511829.17265247 0 0 0 0 0 41784710.8819204 -24009948.47230574 -24009948.47230574 -12197153.33635783 0 0 0 0 0 35846550.13618268 -23478614.18089084 -23478614.18089084 -6483886.290357879 0 0 0 0 0 51026654.51764029 -27136632.56603276 -27136632.56603276 -11627558.86610735 0 0 0 0 0 59833534.40006369 -29368395.61370918 -29368395.61370918 -11605721.32307735 0 0 0 0 0 68065639.78845786 -30778968.28172471 -30778968.28172471 -11889906.52396755 0 0 0 0 0 75694171.77264693 -31482732.64711854 -31482732.64711854 -12366626.04368216 0 0 0 0 0 82650993.57668251 -31593736.1344326 -31593736.1344326 -12938495.52211818 0 0 0 0 0 88848289.56663953 -31190457.18375184 -31190457.18375184 -13551924.98056441 0 0 0 0 0 94339211.29338163 -30399313.67755383 -30399313.67755383 -14131179.08231833 0 0 0 0 0 99219384.18409589 -29335672.76348896 -29335672.76348896 -14640338.36223977 0 0 0 0 0 99088803.57060817 -28639596.58973535 -28639596.58973535 -15703300.58382685 0 0 0 0 0 103168264.1484162 -27664835.51167706 -27664835.51167706 -16355747.69817862 0 0 0 0 0 106625384.7071186 -26264364.59167027 -26264364.59167027 -16540509.57555377 0 0 0 0 0 109620916.9534651 -24777923.86333591 -24777923.86333591 -16643721.93294458 0 0 0 0 0 112200762.4151995 -23237599.27577077 -23237599.27577077 -16656818.81308528 0 0 0 0 0 113416070.6350158 -21551780.20924921 -21551780.20924921 -17245158.8521828 0 0 0 0 0 110789462.8816298 -22238612.8408183 -22238612.8408183 -17082985.68015857 0 0 0 0 0 115196746.9539246 -20063396.91419522 -20063396.91419522 -17059193.53427485 0 0 0 0 0 116701652.7412561 -18598415.0416568 -18598415.0416568 -16815804.82248553 0 0 0 0 0 117959862.2097587 -17172865.8359528 -17172865.8359528 -16521365.85116729 0 0 0 0 0 119001910.1368647 -15788431.13556081 -15788431.13556081 -16175244.00475688 0 0 0 0 0 119835186.0613507 -14459041.49608238 -14459041.49608238 -15803474.45966616 0 0 0 0 0 120494761.3081153 -13193756.71474231 -13193756.71474231 -15396736.92085895 0 0 0 0 0 118849239.7022016 -12472953.07396797 -12472953.07396797 -15148459.40117383 0 0 0 0 0 119907686.8825957 -12212167.74980966 -12212167.74980966 -15296516.44961321 0 0 0 0 0 120304495.9713814 -11106677.03572492 -11106677.03572492 -14839371.60221876 0 0 0 0 0 120587576.2906461 -10057544.58927613 -10057544.58927613 -14370038.22652761 0 0 0 0 0 120774967.9562697 -9069614.829695072 -9069614.829695072 -13888453.20554438 0 0 0 0 0 120882587.0733027 -8136826.046382711 -8136826.046382711 -13399762.66217758 0 0 0 0 0 120910742.9110378 -7261955.998172057 -7261955.998172057 -12910198.27822744 0 0 0 0 0 119602895.989869 -6830200.299873777 -6830200.299873777 -12465320.19537213 0 0 0 0 0 119996813.9190957 -6779549.026945473 -6779549.026945473 -12696784.30842305 0 0 0 0 0 119936300.753447 -6027695.616168521 -6027695.616168521 -12218475.22385955 0 0 0 0 0 117988270.051387 -6022641.610831814 -6022641.610831814 -11982235.0373655 0 0 0 0 0 117963345.3321675 -5358409.044300295 -5358409.044300295 -11512057.02635192 0 0 0 0 0 117189235.8018266 -5068705.233089518 -5068705.233089518 -11247144.5888227 0 0 0 0 0 118198523.2279708 -5341380.693401195 -5341380.693401195 -11701876.73952495 0 0 0 0 0 117116540.5801532 -4491239.106711484 -4491239.106711484 -10803186.98781915 0 0 0 0 0 117012101.6551117 -3950748.638414141 -3950748.638414141 -10369584.96897931 0 0 0 0 0 116880898.3953577 -3444735.976839352 -3444735.976839352 -9944809.25599597 0 0 0 0 0 116727545.2704079 -2971945.414068768 -2971945.414068768 -9530128.44339323 0 0 0 0 0 115997707.6900079 -2850866.901746918 -2850866.901746918 -9319793.698356545 0 0 0 0 0 116778342.4756331 -3014988.964174354 -3014988.964174354 -9751421.125147687 0 0 0 0 0 115830759.4978552 -2440133.106187847 -2440133.106187847 -8935196.458898064 0 0 0 0 0 115648584.6635908 -2057065.087436027 -2057065.087436027 -8562460.005323868 0 0 0 0 0 115453773.9567004 -1699911.782821795 -1699911.782821795 -8201091.94322776 0 0 0 0 0 115248075.6778945 -1367192.364892388 -1367192.364892388 -7850628.656642633 0 0 0 0 0 115033867.4599439 -1057578.098575628 -1057578.098575628 -7511158.240365406 0 0 0 0 0 114960074.5283457 -1141866.767079878 -1141866.767079878 -7757205.713682185 0 0 0 0 0 114185056.8520326 -788902.2683927396 -788902.2683927396 -7063628.423335769 0 0 0 0 0 114723630.1908493 -859459.2866867488 -859459.2866867488 -7434974.047454195 0 0 0 0 0 113972148.2896477 -535698.7507088815 -535698.7507088815 -6760691.015017147 0 0 0 0 0 113755173.0846695 -300176.6932352398 -300176.6932352398 -6468098.864164785 0 0 0 0 0 113535205.4807487 -81311.33680944821 -81311.33680944821 -6185609.549316207 0 0 0 0 0 113313126.2797445 121831.5843999675 121831.5843999675 -5913014.837465142 0 0 0 0 0 112776446.14426 56776.09620663695 56776.09620663695 -5834730.504559393 0 0 0 0 0 113189285.1981557 24298.56924063216 24298.56924063216 -6156245.220872135 0 0 0 0 0 112574513.0146351 234943.6725530925 234943.6725530925 -5582479.014907935 0 0 0 0 0 112358066.5171497 392320.4187162301 392320.4187162301 -5346660.623228757 0 0 0 0 0 112134078.2326821 534299.4194428319 534299.4194428319 -5129833.319721075 0 0 0 0 0 111927781.926111 677776.8431126482 677776.8431126482 -4907119.940513091 0 0 0 0 0 111719758.0960814 811578.7888735591 811578.7888735591 -4690388.60420714 0 0 0 0 0 111370860.9878606 835202.8460250328 835202.8460250328 -4712877.338466976 0 0 0 0 0 111514507.9091036 935248.8011659844 935248.8011659844 -4481523.198839458 0 0 0 0 0 111082704.5978284 836055.1268886504 836055.1268886504 -4453002.131035754 0 0 0 0 0 110889564.4196067 945837.948044815 945837.948044815 -4259912.414063104 0 0 0 0 0 110697245.7838652 1047244.451930816 1047244.451930816 -4074350.223133354 0 0 0 0 0 110509895.2257077 1142574.360108 1142574.360108 -3893612.050248594 0 0 0 0 0 110324236.2811658 1230150.601878163 1230150.601878163 -3718585.800040903 0 0 0 0 0 110141843.8410131 1310618.942540593 1310618.942540593 -3549695.150065592 0 0 0 0 0 110005750.4977568 1217832.428905006 1217832.428905006 -3761205.351085476 0 0 0 0 0 109785120.9579804 1210496.539152773 1210496.539152773 -3547182.207874262 0 0 0 0 0 109544889.3623979 1274157.297134791 1274157.297134791 -3400677.503464232 0 0 0 0 0 109447438.1942308 1287977.012574964 1287977.012574964 -3260607.048494764 0 0 0 0 0 109587801.5755659 1293790.042245871 1293790.042245871 -3417774.715372438 0 0 0 0 0 109266140.9437416 1305307.143289396 1305307.143289396 -3182307.816413933 0 0 0 0 0 118774694.9611674 -5682725.606256006 -5682725.606256006 -11753621.88190049 0 0 0 0 0 15478607.37038132 -9704014.058194082 -9704014.058194082 -7781896.405572725 0 0 0 0 0 26215345.47655895 -16907333.00436377 -16907333.00436377 -7896720.764793316 0 0 0 0 0 3504400.676450431 -184596.5715923946 -184596.5715923946 -9380825.848151267 0 0 0 0 0 45448756.62094671 -27351147.10172223 -27351147.10172223 -6760119.823999489 0 0 0 0 0 36326988.69331514 -21872431.23133897 -21872431.23133897 -7863983.851395673 0 0 0 0 0 54031012.47928457 -29899980.8550705 -29899980.8550705 -7464390.249357664 0 0 0 0 0 62164207.4678478 -31541573.57387692 -31541573.57387692 -8478176.06972702 0 0 0 0 0 69801336.02318296 -32408110.47570007 -32408110.47570007 -9619608.084113752 0 0 0 0 0 76888126.74451227 -32575626.33508223 -32575626.33508223 -10734397.53671019 0 0 0 0 0 83392386.07359798 -32231810.56579234 -32231810.56579234 -11772500.39847577 0 0 0 0 0 89259196.15307476 -31481403.66149227 -31481403.66149227 -12696153.63396506 0 0 0 0 0 94483934.34109989 -30390956.90676066 -30390956.90676066 -13472466.31897056 0 0 0 0 0 99116566.69344531 -29033688.04733716 -29033688.04733716 -14123746.40260911 0 0 0 0 0 103465306.3726781 -28055373.38358307 -28055373.38358307 -15061718.59799074 0 0 0 0 0 102882668.2004923 -27181199.3658824 -27181199.3658824 -16028537.14327028 0 0 0 0 0 106219036.196436 -25624343.81153626 -25624343.81153626 -16231281.42873099 0 0 0 0 0 109124841.7317648 -24012424.18215417 -24012424.18215417 -16319171.58623966 0 0 0 0 0 111639022.3040266 -22382048.81108132 -22382048.81108132 -16306518.89144932 0 0 0 0 0 112841804.6710714 -20683634.25979104 -20683634.25979104 -16915578.66963974 0 0 0 0 0 114398410.4278132 -21689709.93524746 -21689709.93524746 -16604142.89363057 0 0 0 0 0 114604653.9322857 -19151679.26399646 -19151679.26399646 -16674109.74266158 0 0 0 0 0 116102707.8041872 -17660645.06216009 -17660645.06216009 -16371873.71220933 0 0 0 0 0 117355332.2133612 -16216173.53678993 -16216173.53678993 -16020688.13704602 0 0 0 0 0 118404330.5261173 -14826776.43996577 -14826776.43996577 -15630985.82005784 0 0 0 0 0 119265863.4157311 -13489915.16493168 -13489915.16493168 -15180821.6530454 0 0 0 0 0 119941650.4225598 -12233564.11272987 -12233564.11272987 -14725168.7760145 0 0 0 0 0 121002302.4614637 -11990209.4229704 -11990209.4229704 -14961601.4807511 0 0 0 0 0 119390686.9909406 -11316733.79660977 -11316733.79660977 -14660835.83500563 0 0 0 0 0 119801727.0852265 -10226468.88660748 -10226468.88660748 -14171092.37658961 0 0 0 0 0 120108585.1225274 -9198378.865525512 -9198378.865525512 -13666671.35655031 0 0 0 0 0 120318353.4553178 -8232911.819627423 -8232911.819627423 -13159501.67633326 0 0 0 0 0 120440904.3947686 -7324750.826669935 -7324750.826669935 -12647403.57426893 0 0 0 0 0 120492831.3987861 -6474970.163224202 -6474970.163224202 -12135916.12715362 0 0 0 0 0 120870010.9425891 -6443471.483304115 -6443471.483304115 -12423333.01919619 0 0 0 0 0 119620235.9892666 -6050578.111270827 -6050578.111270827 -11964086.09124007 0 0 0 0 0 119581350.1917119 -5323337.006572196 -5323337.006572196 -11471078.47793026 0 0 0 0 0 119044698.0800911 -5663705.564637173 -5663705.564637173 -11974471.40981201 0 0 0 0 0 118929739.9595811 -5014776.661655669 -5014776.661655669 -11515619.39303635 0 0 0 0 0 118080053.2101539 -4739295.98817755 -4739295.98817755 -11258344.9471661 0 0 0 0 0 117897058.6263007 -4736793.711186234 -4736793.711186234 -11050408.76994412 0 0 0 0 0 117930835.6555071 -4175674.330511061 -4175674.330511061 -10822465.82850076 0 0 0 0 0 117757726.6624165 -3648339.628891928 -3648339.628891928 -10394016.45721238 0 0 0 0 0 117563388.4639654 -3155683.294545567 -3155683.294545567 -9975386.286484601 0 0 0 0 0 117348942.1415403 -2695788.432631833 -2695788.432631833 -9566860.465931077 0 0 0 0 0 116572065.8243745 -2586784.245661903 -2586784.245661903 -9361490.721701404 0 0 0 0 0 116555019.4452402 -2530996.623364354 -2530996.623364354 -9127210.995802602 0 0 0 0 0 116352689.3717881 -2187608.647893215 -2187608.647893215 -8982026.1485139 0 0 0 0 0 116122610.2663927 -1816008.568166406 -1816008.568166406 -8613018.413694737 0 0 0 0 0 115883524.4673205 -1469864.438296879 -1469864.438296879 -8254745.154333095 0 0 0 0 0 115636398.0787632 -1147325.195408058 -1147325.195408058 -7907109.252678652 0 0 0 0 0 115383763.5197543 -848029.5563884653 -848029.5563884653 -7570450.031227655 0 0 0 0 0 114812129.0096169 -769874.0968691384 -769874.0968691384 -7184268.173676337 0 0 0 0 0 114483136.9335261 -596621.7124547575 -596621.7124547575 -7122959.866581025 0 0 0 0 0 114585546.1976321 -501836.8109954239 -501836.8109954239 -6867042.752513509 0 0 0 0 0 114240035.7292824 -352425.1228979642 -352425.1228979642 -6821103.170959064 0 0 0 0 0 113995079.3106327 -125473.4885822661 -125473.4885822661 -6529351.154633785 0 0 0 0 0 113749275.8115513 85153.85790665295 85153.85790665295 -6247504.506760157 0 0 0 0 0 113503435.8738339 280676.8884433929 280676.8884433929 -5975109.683033733 0 0 0 0 0 112958684.8958522 210405.7846172578 210405.7846172578 -5895490.903503209 0 0 0 0 0 113090227.2765591 310635.2142292167 310635.2142292167 -5650192.308021461 0 0 0 0 0 112722481.0856728 377531.8307679479 377531.8307679479 -5654277.668478936 0 0 0 0 0 112484242.8387864 524067.9462773294 524067.9462773294 -5426604.074242625 0 0 0 0 0 112263406.920862 668395.2595939673 668395.2595939673 -5193323.503080993 0 0 0 0 0 112037926.9638644 804646.6735394408 804646.6735394408 -4968137.707447086 0 0 0 0 0 111815158.2277043 932168.0111073027 932168.0111073027 -4749860.877650074 0 0 0 0 0 111310522.6145961 1048160.723180272 1048160.723180272 -4281935.821918075 0 0 0 0 0 111595260.7851009 1049598.672415123 1049598.672415123 -4541760.994032956 0 0 0 0 0 111163449.436535 947341.0750911866 947341.0750911866 -4511485.51186507 0 0 0 0 0 110957836.6954106 1051441.939620032 1051441.939620032 -4318285.37491444 0 0 0 0 0 110756736.1708941 1149473.833679581 1149473.833679581 -4129757.655447705 0 0 0 0 0 110557944.7299491 1240147.991751476 1240147.991751476 -3948531.137799802 0 0 0 0 0 110362489.0668968 1323769.730082117 1323769.730082117 -3773096.172326858 0 0 0 0 0 110173727.4670014 1400955.441113745 1400955.441113745 -3603490.575238839 0 0 0 0 0 109958596.386625 1389846.025163235 1389846.025163235 -3404818.601316674 0 0 0 0 0 109812431.7776392 1298357.586290961 1298357.586290961 -3600386.523870172 0 0 0 0 0 109673803.4310593 1387924.45462405 1387924.45462405 -3411588.249471399 0 0 0 0 0 109323054.0252929 1339293.189384652 1339293.189384652 -3332248.926383567 0 0 0 0 0 109386711.059691 1382423.950817872 1382423.950817872 -3230599.562064653 0 0 0 0 0 109101083.9841532 1353756.078859167 1353756.078859167 -3257002.828711576 0 0 0 0 0 119827901.8370916 -5325323.130944652 -5325323.130944652 -11746215.96406658 0 0 0 0 0 5959923.758393503 -5253884.973735887 -5253884.973735887 -364438.9598924704 0 0 0 0 0 17474069.29426385 -13982379.48831496 -13982379.48831496 -834489.080986466 0 0 0 0 0 28887169.72201894 -20650775.37438762 -20650775.37438762 -1423722.584278744 0 0 0 0 0 45958900.32035362 -25558746.43717527 -25558746.43717527 -7828768.650063144 0 0 0 0 0 39956761.62846804 -25499323.69961979 -25499323.69961979 -1647996.116085698 0 0 0 0 0 55616948.12370329 -28465261.55827415 -28465261.55827415 -8060838.530250343 0 0 0 0 0 64764735.32023041 -30391748.13402059 -30391748.13402059 -8634371.289699977 0 0 0 0 0 73298978.90953945 -31511439.68066972 -31511439.68066972 -9383749.068088965 0 0 0 0 0 80918766.9364583 -31840404.22107112 -31840404.22107112 -10260774.37414496 0 0 0 0 0 87757182.09940897 -31594031.48726769 -31594031.48726769 -11163561.09843051 0 0 0 0 0 93791724.42079726 -30873530.25157782 -30873530.25157782 -11987752.69367393 0 0 0 0 0 99113497.64390023 -29823305.11706537 -29823305.11706537 -12743576.57120988 0 0 0 0 0 103734075.513864 -28550002.1379982 -28550002.1379982 -13379864.96313489 0 0 0 0 0 103185405.1360544 -27547440.00026432 -27547440.00026432 -14637232.20454663 0 0 0 0 0 107176487.3634907 -26620776.35200395 -26620776.35200395 -15383438.28177847 0 0 0 0 0 110376405.2037067 -25081759.85769314 -25081759.85769314 -15606498.57898601 0 0 0 0 0 113103075.3336689 -23482647.57888788 -23482647.57888788 -15728327.13610275 0 0 0 0 0 115416481.1509607 -21864361.14866974 -21864361.14866974 -15755485.17822293 0 0 0 0 0 116256413.0544242 -20140206.95758755 -20140206.95758755 -16468806.77878432 0 0 0 0 0 113797849.8322663 -20759759.45540904 -20759759.45540904 -16199825.38084157 0 0 0 0 0 117811366.6738885 -18618427.36784824 -18618427.36784824 -16268996.77809596 0 0 0 0 0 119094939.3550278 -17135047.84573024 -17135047.84573024 -16008767.36887433 0 0 0 0 0 120157724.6915541 -15700150.8319293 -15700150.8319293 -15692994.13717732 0 0 0 0 0 121018985.676589 -14313256.98128403 -14313256.98128403 -15322496.39894214 0 0 0 0 0 121662895.8243429 -13005343.62077341 -13005343.62077341 -14941766.26917529 0 0 0 0 0 122144929.4784289 -11759821.85204455 -11759821.85204455 -14520426.83081001 0 0 0 0 0 120467705.2312451 -11043331.61468883 -11043331.61468883 -14247191.11094779 0 0 0 0 0 121367972.9920431 -10854219.24299209 -10854219.24299209 -14511251.58078351 0 0 0 0 0 121624535.8967948 -9781357.128166365 -9781357.128166365 -14039236.87738232 0 0 0 0 0 121778227.3858666 -8769017.870540937 -8769017.870540937 -13559409.54857739 0 0 0 0 0 121846401.2430748 -7817868.334250768 -7817868.334250768 -13069822.28260768 0 0 0 0 0 121842533.7572269 -6926436.131237922 -6926436.131237922 -12577177.37244863 0 0 0 0 0 121768952.4877433 -6091431.305653096 -6091431.305653096 -12083498.56424708 0 0 0 0 0 120481931.519294 -5681423.580418092 -5681423.580418092 -11626797.99586715 0 0 0 0 0 120773939.8616108 -5680511.525698242 -5680511.525698242 -11939996.65109419 0 0 0 0 0 120630867.5751913 -4969157.061911645 -4969157.061911645 -11460969.05107369 0 0 0 0 0 118719088.1780219 -5011675.807592642 -5011675.807592642 -11274800.59229603 0 0 0 0 0 118621842.4585357 -4385934.238744175 -4385934.238744175 -10807302.10392074 0 0 0 0 0 117795317.5519363 -4155664.630259016 -4155664.630259016 -10597813.30376008 0 0 0 0 0 118780017.8190975 -4407621.661542023 -4407621.661542023 -11063097.81608769 0 0 0 0 0 117663707.6637298 -3613262.650182787 -3613262.650182787 -10156081.16074587 0 0 0 0 0 117505164.171792 -3107288.323012584 -3107288.323012584 -9725464.990108786 0 0 0 0 0 117323415.3132434 -2635260.663401892 -2635260.663401892 -9305960.92211833 0 0 0 0 0 117123436.2348841 -2195553.368240187 -2195553.368240187 -8897816.421478532 0 0 0 0 0 116365812.6616133 -2120087.288394217 -2120087.288394217 -8734864.371239519 0 0 0 0 0 117119572.6385528 -2266648.331966333 -2266648.331966333 -9168782.751368178 0 0 0 0 0 116160577.8389855 -1738789.058460098 -1738789.058460098 -8355330.395476202 0 0 0 0 0 115942649.1346281 -1384780.906153466 -1384780.906153466 -7989462.111897992 0 0 0 0 0 115715050.6485711 -1055323.159668354 -1055323.159668354 -7636165.598213454 0 0 0 0 0 115479309.9929913 -749597.4496896348 -749597.4496896348 -7293124.970741495 0 0 0 0 0 115236927.3510732 -466564.428380136 -466564.428380136 -6962713.35746229 0 0 0 0 0 115128022.5273371 -570046.020308879 -570046.020308879 -7244052.299208037 0 0 0 0 0 114354730.6247937 -252905.7950553947 -252905.7950553947 -6560231.75312059 0 0 0 0 0 114868466.6002173 -311733.9287573133 -311733.9287573133 -6927949.420947078 0 0 0 0 0 114120072.8189815 -22311.2787397957 -22311.2787397957 -6265560.661380069 0 0 0 0 0 113883139.7586886 191411.3962509317 191411.3962509317 -5981346.820501823 0 0 0 0 0 113644861.3589672 389449.3308202084 389449.3308202084 -5707530.461280417 0 0 0 0 0 113406128.0075979 572596.007684736 572596.007684736 -5443244.393843425 0 0 0 0 0 112867621.6586522 484363.8381001439 484363.8381001439 -5396813.253454847 0 0 0 0 0 113258853.0807263 461805.6227347634 461805.6227347634 -5712245.683254882 0 0 0 0 0 112648921.9872545 641335.1212182662 641335.1212182662 -5154701.007475766 0 0 0 0 0 112419885.2375485 779004.7254991663 779004.7254991663 -4933944.398261052 0 0 0 0 0 112189313.8776278 911668.3142370986 911668.3142370986 -4717867.875804182 0 0 0 0 0 111969018.2078049 1039223.074300579 1039223.074300579 -4502382.582961656 0 0 0 0 0 111752439.0902073 1157925.749924748 1157925.749924748 -4292827.962317479 0 0 0 0 0 111377698.7154644 1156783.438921047 1156783.438921047 -4342184.997856458 0 0 0 0 0 111536951.4109171 1266025.527862767 1266025.527862767 -4093643.057384479 0 0 0 0 0 111106791.7319663 1152782.011037924 1152782.011037924 -4089067.204301732 0 0 0 0 0 110905182.5463548 1249391.225603986 1249391.225603986 -3903845.000133025 0 0 0 0 0 110707107.9958783 1339924.75242064 1339924.75242064 -3724067.913251883 0 0 0 0 0 110512041.0622282 1423139.305668277 1423139.305668277 -3550681.042023961 0 0 0 0 0 110320566.8033864 1498918.198961321 1498918.198961321 -3383597.566391846 0 0 0 0 0 110135278.2070566 1571914.276556183 1571914.276556183 -3212221.689392843 0 0 0 0 0 109979555.3887186 1461905.598167269 1461905.598167269 -3448783.46405322 0 0 0 0 0 109774380.406923 1457330.988307685 1457330.988307685 -3246660.491460459 0 0 0 0 0 109582359.8592364 1519013.050882237 1519013.050882237 -3122643.462965162 0 0 0 0 0 109363671.8183772 1507760.601106238 1507760.601106238 -3009862.006230421 0 0 0 0 0 109591132.8994164 1520945.940802812 1520945.940802812 -3156129.793650943 0 0 0 0 0 119495121.8723373 -4645678.124825696 -4645678.124825696 -10986358.85351942 0 0 0 0 0 7264480.421873992 -5536936.265430624 -5536936.265430624 91644.32824774519 0 0 0 0 0 20629128.14244787 -14467913.59189582 -14467913.59189582 12815.28947239911 0 0 0 0 0 30801750.65284786 -20153059.1595086 -20153059.1595086 -1821180.368023291 0 0 0 0 0 49442336.56186879 -28789966.79301857 -28789966.79301857 -2773241.539438417 0 0 0 0 0 40011424.53214546 -23904306.72017723 -23904306.72017723 -2771401.949260647 0 0 0 0 0 58398716.82247641 -31048532.64715757 -31048532.64715757 -4249241.229779611 0 0 0 0 0 66832478.96395303 -32319551.9254646 -32319551.9254646 -5874638.191612854 0 0 0 0 0 74668717.7259839 -32789023.93573361 -32789023.93573361 -7422638.791950813 0 0 0 0 0 81830713.01946622 -32633123.44629724 -32633123.44629724 -8853740.399619374 0 0 0 0 0 88271150.14076599 -31968333.22462965 -31968333.22462965 -10130213.83110837 0 0 0 0 0 94038268.36818212 -30967115.94173246 -30967115.94173246 -11207836.96238237 0 0 0 0 0 99058845.5446097 -29520921.16716686 -29520921.16716686 -12073429.24989731 0 0 0 0 0 103453203.4904471 -28009435.6105352 -28009435.6105352 -12882042.92148983 0 0 0 0 0 107707970.2180518 -27062990.4615327 -27062990.4615327 -13893017.49082215 0 0 0 0 0 106756801.9353191 -25939578.10780426 -25939578.10780426 -14998367.91834266 0 0 0 0 0 109854255.0939467 -24260555.04978905 -24260555.04978905 -15212764.31390378 0 0 0 0 0 112513480.0907885 -22562224.59351877 -22562224.59351877 -15306213.74104461 0 0 0 0 0 114780182.6065269 -20868149.11907806 -20868149.11907806 -15289454.50015132 0 0 0 0 0 115633708.1011124 -19165126.16418392 -19165126.16418392 -16012025.65988071 0 0 0 0 0 117361047.9122489 -20249403.82900265 -20249403.82900265 -15695005.46121913 0 0 0 0 0 117179576.5705344 -17613198.4413735 -17613198.4413735 -15754156.39570998 0 0 0 0 0 118459826.9423898 -16123259.92540841 -16123259.92540841 -15438082.28161188 0 0 0 0 0 119517254.1643548 -14686064.19452307 -14686064.19452307 -15069953.0432464 0 0 0 0 0 120383395.8518327 -13302036.84501874 -13302036.84501874 -14659630.38014276 0 0 0 0 0 121076379.0748753 -11986355.55266552 -11986355.55266552 -14197029.56266153 0 0 0 0 0 121586676.9750455 -10757276.92768648 -10757276.92768648 -13726851.89192436 0 0 0 0 0 122490923.1976876 -10587586.90578977 -10587586.90578977 -14075848.28172083 0 0 0 0 0 120859635.7575279 -9920169.53523187 -9920169.53523187 -13748145.16841564 0 0 0 0 0 121125150.5880932 -8875530.541727168 -8875530.541727168 -13262762.76544149 0 0 0 0 0 121305198.6912684 -7888688.956446207 -7888688.956446207 -12753637.54266732 0 0 0 0 0 121397642.6772943 -6965442.407558415 -6965442.407558415 -12244691.14769902 0 0 0 0 0 121412119.0485909 -6101803.988212387 -6101803.988212387 -11733501.43743593 0 0 0 0 0 121364938.824575 -5295572.803478562 -5295572.803478562 -11224121.38989303 0 0 0 0 0 121634839.7887656 -5316456.285148583 -5316456.285148583 -11597343.84248745 0 0 0 0 0 120410525.3230768 -4944976.42330129 -4944976.42330129 -11128424.53405776 0 0 0 0 0 120289655.2850085 -4260989.984672232 -4260989.984672232 -10640409.80183529 0 0 0 0 0 119677983.3964164 -4670152.02445394 -4670152.02445394 -11280349.21887797 0 0 0 0 0 119496166.2271435 -4058254.188474706 -4058254.188474706 -10820556.9853567 0 0 0 0 0 118600456.3324087 -3840788.032008598 -3840788.032008598 -10619497.12757181 0 0 0 0 0 118491055.3822702 -3801263.570893136 -3801263.570893136 -10347697.62855811 0 0 0 0 0 118395669.9941216 -3312285.250276475 -3312285.250276475 -10185129.55046351 0 0 0 0 0 118170319.1012676 -2819982.866123691 -2819982.866123691 -9760094.681482377 0 0 0 0 0 117929354.8723909 -2360852.366937967 -2360852.366937967 -9345279.567932462 0 0 0 0 0 117672229.8533078 -1934066.99984234 -1934066.99984234 -8942076.779138127 0 0 0 0 0 116874752.0474824 -1868780.529027611 -1868780.529027611 -8782948.417164326 0 0 0 0 0 116906761.6312902 -1787069.200142157 -1787069.200142157 -8501375.029664185 0 0 0 0 0 116618886.0513436 -1499339.840581693 -1499339.840581693 -8408631.353419276 0 0 0 0 0 116356069.654927 -1156232.442336041 -1156232.442336041 -8045649.812001782 0 0 0 0 0 116088789.5771604 -838202.0880638851 -838202.0880638851 -7694252.175874821 0 0 0 0 0 115813295.3296575 -542792.0541526596 -542792.0541526596 -7354366.873253652 0 0 0 0 0 115534091.6051383 -271262.1643886053 -271262.1643886053 -7026970.583057605 0 0 0 0 0 114988335.771276 -204728.758903892 -204728.758903892 -6644648.187283747 0 0 0 0 0 114606312.6750425 -72073.06137800067 -72073.06137800067 -6622892.939566114 0 0 0 0 0 114738507.8915858 39154.53280906522 39154.53280906522 -6335636.852480141 0 0 0 0 0 114343575.0421961 149901.4213139733 149901.4213139733 -6329067.716154657 0 0 0 0 0 114080764.6077538 355336.0436138958 355336.0436138958 -6045425.875949413 0 0 0 0 0 113819017.537161 545432.3778692356 545432.3778692356 -5771720.657128423 0 0 0 0 0 113558811.5326041 721460.4824100581 721460.4824100581 -5507606.704916398 0 0 0 0 0 113013674.9416327 628331.6505053062 628331.6505053062 -5461194.000514789 0 0 0 0 0 113168070.4497282 741295.4268900092 741295.4268900092 -5191655.979515121 0 0 0 0 0 112762949.4427062 772137.4567282859 772137.4567282859 -5232820.604554031 0 0 0 0 0 112517905.7125927 905670.8634864783 905670.8634864783 -5007725.551551914 0 0 0 0 0 112283750.3426263 1034352.560229705 1034352.560229705 -4782018.11157688 0 0 0 0 0 112050644.0949883 1157082.240036312 1157082.240036312 -4562955.064688179 0 0 0 0 0 111817908.540339 1269419.363660028 1269419.363660028 -4354366.172868143 0 0 0 0 0 111322540.6008677 1364678.082423487 1364678.082423487 -3902603.56381682 0 0 0 0 0 111590273.3775906 1371517.418611693 1371517.418611693 -4155427.099148135 0 0 0 0 0 111162523.1579842 1256070.702728933 1256070.702728933 -4148082.662325102 0 0 0 0 0 110951345.8534496 1348723.677746448 1348723.677746448 -3960863.15414759 0 0 0 0 0 110743506.4886816 1434367.257265 1434367.257265 -3779818.076398126 0 0 0 0 0 110538523.670595 1513253.206668626 1513253.206668626 -3605615.628590691 0 0 0 0 0 110335593.8925292 1584309.618735387 1584309.618735387 -3438063.680325907 0 0 0 0 0 110108256.5287464 1638049.608791972 1638049.608791972 -3275784.874916704 0 0 0 0 0 109927614.4090776 1621433.004380681 1621433.004380681 -3118794.857237773 0 0 0 0 0 109781713.8068426 1532601.631035874 1532601.631035874 -3299309.238809321 0 0 0 0 0 109606888.1988979 1580544.004308563 1580544.004308563 -3151002.132971726 0 0 0 0 0 109201384.8217818 1539289.935286197 1539289.935286197 -3065455.751411805 0 0 0 0 0 109361231.9901004 1570570.814302359 1570570.814302359 -3053867.344786599 0 0 0 0 0 120447392.4293894 -4306853.659147608 -4306853.659147608 -10989030.21426462 0 0 0 0 0 10496868.90346087 -10972710.54408983 -10972710.54408983 8472587.637236202 0 0 0 0 0 20883699.20491809 -17819903.12313457 -17819903.12313457 3967550.68570195 0 0 0 0 0 34201257.3391064 -23753365.29522685 -23753365.29522685 4723568.562127679 0 0 0 0 0 50441115.02508801 -27440590.69611087 -27440590.69611087 -3413445.006898104 0 0 0 0 0 44040704.02431794 -27688398.8521681 -27688398.8521681 3387868.8464126 0 0 0 0 0 60696855.07081939 -30031182.00209735 -30031182.00209735 -4383811.337219231 0 0 0 0 0 70253156.48746222 -31579063.53130736 -31579063.53130736 -5545151.409523238 0 0 0 0 0 78813077.91082987 -32208102.29036716 -32208102.29036716 -6827416.026638852 0 0 0 0 0 86371957.73423944 -32146700.11369918 -32146700.11369918 -8095237.081161638 0 0 0 0 0 93029194.01513352 -31521324.77383972 -31521324.77383972 -9270625.59012983 0 0 0 0 0 98884417.52797876 -30436888.71630667 -30436888.71630667 -10268093.60873627 0 0 0 0 0 103960539.0285603 -29211673.09817468 -29211673.09817468 -11225800.34872871 0 0 0 0 0 108275078.3087052 -27627801.15954432 -27627801.15954432 -11974105.41753232 0 0 0 0 0 107293198.7100263 -26327954.72318259 -26327954.72318259 -13423071.38312003 0 0 0 0 0 111136561.58872 -25465940.42877552 -25465940.42877552 -14273531.45392994 0 0 0 0 0 114027747.1115214 -23794709.48702401 -23794709.48702401 -14531097.29660373 0 0 0 0 0 116472354.9795033 -22099070.33235936 -22099070.33235936 -14674534.7745389 0 0 0 0 0 118510989.1402945 -20407470.32301338 -20407470.32301338 -14710538.05188202 0 0 0 0 0 118971489.6005697 -18662032.47730271 -18662032.47730271 -15554350.55072006 0 0 0 0 0 116698587.7866622 -19201672.16572452 -19201672.16572452 -15174165.77033917 0 0 0 0 0 120287834.8421442 -17120663.13436313 -17120663.13436313 -15347448.08698358 0 0 0 0 0 121346158.5425479 -15631593.81860347 -15631593.81860347 -15070604.78044119 0 0 0 0 0 122203313.003235 -14200324.1169711 -14200324.1169711 -14737343.6019316 0 0 0 0 0 122874490.7642809 -12824774.66550545 -12824774.66550545 -14353687.45640585 0 0 0 0 0 123344692.287196 -11535036.36720627 -11535036.36720627 -13959384.37916393 0 0 0 0 0 123653644.2832255 -10321608.45270888 -10321608.45270888 -13533778.84907864 0 0 0 0 0 121955742.7882582 -9604521.63669356 -9604521.63669356 -13244269.25690286 0 0 0 0 0 122698330.2075599 -9490510.865286818 -9490510.865286818 -13626067.14625964 0 0 0 0 0 122817744.3806151 -8454602.507637063 -8454602.507637063 -13143207.93887939 0 0 0 0 0 122846427.4439872 -7484143.433604307 -7484143.433604307 -12658941.41926229 0 0 0 0 0 122800903.0236844 -6575230.965933325 -6575230.965933325 -12167276.93840903 0 0 0 0 0 122692376.1117916 -5727302.42096635 -5727302.42096635 -11674175.65695577 0 0 0 0 0 122520965.9471343 -4939377.932616803 -4939377.932616803 -11185237.76602302 0 0 0 0 0 121260482.9463132 -4549281.367067138 -4549281.367067138 -10722193.91581786 0 0 0 0 0 121453674.7349103 -4596899.498556547 -4596899.498556547 -11115861.76349536 0 0 0 0 0 121232762.6668944 -3928575.541846444 -3928575.541846444 -10640757.69413022 0 0 0 0 0 119367391.0038647 -4014427.983239373 -4014427.983239373 -10511024.27142691 0 0 0 0 0 119202758.5268057 -3428284.319833258 -3428284.319833258 -10048410.24393182 0 0 0 0 0 118329257.6683936 -3257186.534505957 -3257186.534505957 -9899582.303079439 0 0 0 0 0 119284493.0656898 -3488568.259125236 -3488568.259125236 -10370548.01534814 0 0 0 0 0 118142036.9145299 -2751059.231424731 -2751059.231424731 -9463345.363460209 0 0 0 0 0 117932373.9991293 -2280937.393585562 -2280937.393585562 -9039776.409069281 0 0 0 0 0 117703029.442785 -1844390.087627504 -1844390.087627504 -8628582.798124295 0 0 0 0 0 117459281.6773736 -1438873.148669389 -1438873.148669389 -8230636.932723718 0 0 0 0 0 116678565.1216005 -1407302.702517128 -1407302.702517128 -8116911.103569288 0 0 0 0 0 117403220.1537739 -1537130.065729183 -1537130.065729183 -8549389.405171281 0 0 0 0 0 116438866.2883272 -1055328.946846609 -1055328.946846609 -7745193.914840892 0 0 0 0 0 116187045.9560136 -731659.0102865425 -731659.0102865425 -7388868.135048922 0 0 0 0 0 115927335.8588076 -431574.1088057537 -431574.1088057537 -7048002.339283271 0 0 0 0 0 115663846.8556658 -153432.5547679159 -153432.5547679159 -6713661.189933124 0 0 0 0 0 115395143.5956439 102835.895482885 102835.895482885 -6393012.577707801 0 0 0 0 0 115253992.9368502 -18120.81969262983 -18120.81969262983 -6706931.865738962 0 0 0 0 0 114487569.0936128 265538.8688663214 265538.8688663214 -6037585.449504706 0 0 0 0 0 114973548.9175312 218262.5588194392 218262.5588194392 -6398370.080360941 0 0 0 0 0 114233123.8337342 473671.9418734053 473671.9418734053 -5752643.707267734 0 0 0 0 0 113978153.4768608 665846.0551081613 665846.0551081613 -5478265.418475499 0 0 0 0 0 113723085.5262084 842987.8378320513 842987.8378320513 -5215487.325458501 0 0 0 0 0 113469837.4285715 1005787.203968061 1005787.203968061 -4961962.962019335 0 0 0 0 0 112932321.200384 894751.6786172707 894751.6786172707 -4948149.300338807 0 0 0 0 0 113298288.7997613 880036.2551773904 880036.2551773904 -5257257.68199126 0 0 0 0 0 112692823.9704667 1028690.1352499 1028690.1352499 -4724180.861168568 0 0 0 0 0 112457853.0190045 1155110.985152127 1155110.985152127 -4506350.089136348 0 0 0 0 0 112218325.2696512 1273246.708093343 1273246.708093343 -4295350.077540303 0 0 0 0 0 111988464.5633819 1386246.862111098 1386246.862111098 -4086990.459595402 0 0 0 0 0 111763829.8863292 1489623.80865287 1489623.80865287 -3887563.433186557 0 0 0 0 0 111365856.9625576 1465524.480886494 1465524.480886494 -3962612.030567282 0 0 0 0 0 111538276.1839056 1582437.382855701 1582437.382855701 -3698077.861080829 0 0 0 0 0 111111190.7084967 1456335.872479322 1456335.872479322 -3717927.76992871 0 0 0 0 0 110903759.3905406 1541439.661106038 1541439.661106038 -3539302.213348042 0 0 0 0 0 110699275.7418738 1619839.224544769 1619839.224544769 -3367430.065559086 0 0 0 0 0 110498057.0608866 1691206.11365712 1691206.11365712 -3200540.872385873 0 0 0 0 0 110294689.8727663 1761573.184415556 1761573.184415556 -3036946.659285704 0 0 0 0 0 110141318.5229693 1811498.520873663 1811498.520873663 -2928040.417416529 0 0 0 0 0 109972859.0882854 1693244.668148356 1693244.668148356 -3151994.859210401 0 0 0 0 0 109767647.9176708 1686231.53355415 1686231.53355415 -2930889.910317334 0 0 0 0 0 109650965.6282688 1730389.891942919 1730389.891942919 -2809123.065420268 0 0 0 0 0 109486468.7155577 1709243.564627364 1709243.564627364 -2796024.612748165 0 0 0 0 0 120127999.7311455 -3625858.376822196 -3625858.376822196 -10162304.20568667 0 0 0 0 0 11219683.71241116 -11464352.38328687 -11464352.38328687 9075536.178018583 0 0 0 0 0 28805708.0451 -21561483.01885251 -21561483.01885251 9897895.26360797 0 0 0 0 0 30120411.64556623 -21117179.78461933 -21117179.78461933 2489263.846061268 0 0 0 0 0 53810485.67443173 -30564421.77580565 -30564421.77580565 1188678.655856116 0 0 0 0 0 43532108.14230423 -26032882.53917225 -26032882.53917225 2230261.308007157 0 0 0 0 0 63168267.17837804 -32343699.81766214 -32343699.81766214 -1090606.506777199 0 0 0 0 0 72002001.67033526 -33168368.6874584 -33168368.6874584 -3199155.838347257 0 0 0 0 0 79904379.01956177 -33172145.68954866 -33172145.68954866 -5169190.874930446 0 0 0 0 0 86979926.12539509 -32605549.58624299 -32605549.58624299 -6922104.381743146 0 0 0 0 0 93355107.96454909 -31687670.27840706 -31687670.27840706 -8380759.46581862 0 0 0 0 0 98881660.14198697 -30214425.60894089 -30214425.60894089 -9576820.365248473 0 0 0 0 0 103656778.7932677 -28581703.56707587 -28581703.56707587 -10650702.63576547 0 0 0 0 0 107825311.043312 -26863468.67811473 -26863468.67811473 -11504113.29501376 0 0 0 0 0 111932844.3594197 -25953799.36703622 -25953799.36703622 -12588166.210823 0 0 0 0 0 110594306.0769536 -24567082.64173985 -24567082.64173985 -13814232.19545692 0 0 0 0 0 113401859.9065509 -22801816.92303021 -22801816.92303021 -14061768.10680737 0 0 0 0 0 115791755.1412401 -21028079.32903063 -21028079.32903063 -14160989.78920669 0 0 0 0 0 117800368.6863443 -19279740.08482857 -19279740.08482857 -14139390.04639675 0 0 0 0 0 118301667.4362974 -17584381.43445731 -17584381.43445731 -14973373.82695183 0 0 0 0 0 120185149.3745308 -18743357.74200171 -18743357.74200171 -14651650.05241649 0 0 0 0 0 119620498.0373947 -16024923.00553593 -16024923.00553593 -14709172.07289865 0 0 0 0 0 120697512.4145341 -14528699.78019784 -14528699.78019784 -14371607.17694313 0 0 0 0 0 121546770.0078431 -13105058.18293812 -13105058.18293812 -13994772.28654575 0 0 0 0 0 122206403.2022847 -11758177.16693425 -11758177.16693425 -13582762.54817647 0 0 0 0 0 122725575.4132429 -10477945.75089882 -10477945.75089882 -13118371.52097373 0 0 0 0 0 123086995.5471893 -9281799.257826649 -9281799.257826649 -12634615.57428238 0 0 0 0 0 123837369.504389 -9183057.950170714 -9183057.950170714 -13087919.15117178 0 0 0 0 0 122200353.6207788 -8525286.839906866 -8525286.839906866 -12744971.98794286 0 0 0 0 0 122326763.2569701 -7527924.231145343 -7527924.231145343 -12263432.70437114 0 0 0 0 0 122383457.3215816 -6586996.785544695 -6586996.785544695 -11758797.55481172 0 0 0 0 0 122360991.3205796 -5711780.177934486 -5711780.177934486 -11254241.65759633 0 0 0 0 0 122270891.1216976 -4896939.825636302 -4896939.825636302 -10749922.54358661 0 0 0 0 0 122128365.3016162 -4139875.821304811 -4139875.821304811 -10250269.45388002 0 0 0 0 0 122297288.741883 -4209500.108208386 -4209500.108208386 -10703467.74851724 0 0 0 0 0 121104598.3236736 -3858989.215009619 -3858989.215009619 -10232116.13798287 0 0 0 0 0 120906489.7323303 -3220305.330644649 -3220305.330644649 -9753479.231659692 0 0 0 0 0 120228695.1350903 -3691820.440628514 -3691820.440628514 -10526580.13083945 0 0 0 0 0 119982854.9381953 -3119974.848782178 -3119974.848782178 -10071490.48680157 0 0 0 0 0 119048113.4226583 -2958904.464419112 -2958904.464419112 -9930469.220835265 0 0 0 0 0 119009666.6353702 -2883293.671167713 -2883293.671167713 -9596087.005672492 0 0 0 0 0 118791341.4113951 -2466885.042704043 -2466885.042704043 -9501173.773743762 0 0 0 0 0 118517837.2479072 -2010249.036548772 -2010249.036548772 -9082573.592184931 0 0 0 0 0 118231735.2343892 -1587236.296444238 -1587236.296444238 -8675908.977979532 0 0 0 0 0 117935790.9771528 -1194078.766464344 -1194078.766464344 -8281108.015501945 0 0 0 0 0 117125063.9912659 -1169028.705122158 -1169028.705122158 -8169481.945881283 0 0 0 0 0 117202771.3779662 -1063156.917310133 -1063156.917310133 -7844390.538815549 0 0 0 0 0 116838241.7533146 -830273.3419663756 -830273.3419663756 -7803982.069970289 0 0 0 0 0 116542517.9009196 -519010.7681504799 -519010.7681504799 -7450034.975739066 0 0 0 0 0 116249260.1394706 -230417.2722758843 -230417.2722758843 -7107938.091311691 0 0 0 0 0 115944719.7628838 36708.0242704265 36708.0242704265 -6778300.231239227 0 0 0 0 0 115642893.4950608 285752.9521819251 285752.9521819251 -6456158.112840889 0 0 0 0 0 115126700.5097815 342635.3144826149 342635.3144826149 -6083139.329907661 0 0 0 0 0 114693133.2030208 434872.9193018941 434872.9193018941 -6103443.155326677 0 0 0 0 0 114857502.2227446 563940.7455539359 563940.7455539359 -5782028.493686591 0 0 0 0 0 114413492.496806 634077.857893632 634077.857893632 -5818482.188362437 0 0 0 0 0 114134853.5392227 818333.6749648514 818333.6749648514 -5544334.866223929 0 0 0 0 0 113860051.0889865 987814.5533418269 987814.5533418269 -5281153.618119419 0 0 0 0 0 113579501.0098457 1137430.748662537 1137430.748662537 -5033040.846429456 0 0 0 0 0 113036222.3311578 1021527.065604538 1021527.065604538 -5020344.523126666 0 0 0 0 0 113215153.4969674 1150226.119996162 1150226.119996162 -4723966.028162819 0 0 0 0 0 112781426.0786089 1152356.194461446 1152356.194461446 -4795366.033350899 0 0 0 0 0 112526835.8441864 1271739.289030556 1271739.289030556 -4577097.300505387 0 0 0 0 0 112284369.4066551 1387851.691104225 1387851.691104225 -4357493.053069673 0 0 0 0 0 112042149.6656629 1495316.207190335 1495316.207190335 -4148437.051045823 0 0 0 0 0 111803128.9545599 1592021.043338249 1592021.043338249 -3950413.726324006 0 0 0 0 0 111315836.1598742 1667867.117502509 1667867.117502509 -3515702.265656596 0 0 0 0 0 111566729.6265674 1679546.814487949 1679546.814487949 -3759797.93069417 0 0 0 0 0 111144486.4322985 1552499.664203001 1552499.664203001 -3775917.789679454 0 0 0 0 0 110927546.0271406 1632882.760706733 1632882.760706733 -3595935.378964775 0 0 0 0 0 110714708.7211297 1706790.194049127 1706790.194049127 -3422922.397736687 0 0 0 0 0 110505406.2732986 1775317.629269998 1775317.629269998 -3255986.260486126 0 0 0 0 0 110319844.5989736 1842555.074935578 1842555.074935578 -3088894.277922323 0 0 0 0 0 109939350.189339 1830826.372746906 1830826.372746906 -2931922.225731411 0 0 0 0 0 109842977.0580602 1808765.758890932 1808765.758890932 -2834581.003326928 0 0 0 0 0 109749594.3100344 1744650.545290814 1744650.545290814 -2985096.678752938 0 0 0 0 0 109512287.9256448 1768742.815339501 1768742.815339501 -2871134.893186453 0 0 0 0 0 109303486.764253 1738637.124262284 1738637.124262284 -2834250.03662121 0 0 0 0 0 120978197.3625417 -3308955.983224962 -3308955.983224962 -10174442.20693011 0 0 0 0 0 16618736.36564641 -17725136.61035718 -17725136.61035718 17446994.03436511 0 0 0 0 0 19659105.21692367 -18024516.78120399 -18024516.78120399 8170344.559697799 0 0 0 0 0 37990080.27562457 -26606437.98820033 -26606437.98820033 11741166.63065864 0 0 0 0 0 55578877.54524996 -29603795.56912557 -29603795.56912557 966258.347471538 0 0 0 0 0 48180105.48204403 -30078664.57884655 -30078664.57884655 8459184.00513123 0 0 0 0 0 66605106.83495033 -31823965.43034112 -31823965.43034112 -624926.4969368078 0 0 0 0 0 76185133.59726869 -32799647.1115858 -32799647.1115858 -2435584.766188886 0 0 0 0 0 84639675.53830707 -32916533.76625068 -32916533.76625068 -4206785.150213077 0 0 0 0 0 92024709.47346874 -32393693.37186123 -32393693.37186123 -5858921.631166669 0 0 0 0 0 98467676.06779771 -31288386.44612231 -31288386.44612231 -7236022.916402943 0 0 0 0 0 104105883.964008 -30044658.82742357 -30044658.82742357 -8471433.825489827 0 0 0 0 0 108786079.6395094 -28420131.09755719 -28420131.09755719 -9612381.087840786 0 0 0 0 0 112767064.556865 -26552634.79881158 -26552634.79881158 -10453898.58731737 0 0 0 0 0 111388661.9821537 -24949897.30604257 -24949897.30604257 -12052785.9164084 0 0 0 0 0 114987138.3194193 -24202715.24153258 -24202715.24153258 -13037332.50771269 0 0 0 0 0 117570069.2892178 -22415380.79728912 -22415380.79728912 -13329633.10195826 0 0 0 0 0 119713792.4311817 -20634918.56852766 -20634918.56852766 -13490660.64315943 0 0 0 0 0 121453363.1582176 -18881304.80885857 -18881304.80885857 -13536546.03616564 0 0 0 0 0 121534223.0771924 -17130899.61592015 -17130899.61592015 -14510097.8999972 0 0 0 0 0 119465471.6003673 -17583502.55316575 -17583502.55316575 -14016385.82492561 0 0 0 0 0 122622192.3356638 -15571991.07951075 -15571991.07951075 -14286881.66424058 0 0 0 0 0 123449086.6170898 -14083943.14686871 -14083943.14686871 -14008878.27494739 0 0 0 0 0 124081703.5835304 -12669544.0812792 -12669544.0812792 -13676859.1797796 0 0 0 0 0 124560226.4472593 -11324731.48105649 -11324731.48105649 -13285357.64360728 0 0 0 0 0 124860280.6564154 -10057257.09307447 -10057257.09307447 -12874011.22727057 0 0 0 0 0 125006409.5491847 -8882215.125883482 -8882215.125883482 -12447767.45318246 0 0 0 0 0 123304050.5233698 -8171784.296865915 -8171784.296865915 -12149669.16768576 0 0 0 0 0 123896215.3729616 -8129257.055777769 -8129257.055777769 -12641804.56423813 0 0 0 0 0 123882957.1453735 -7134985.799156643 -7134985.799156643 -12157882.66662449 0 0 0 0 0 123789797.4854572 -6211968.328155804 -6211968.328155804 -11676311.72018192 0 0 0 0 0 123634165.9359416 -5351550.010486742 -5351550.010486742 -11188873.16401826 0 0 0 0 0 123425548.4810829 -4551480.166661641 -4551480.166661641 -10701567.03456791 0 0 0 0 0 123164946.8262329 -3810385.462181026 -3810385.462181026 -10220229.51033514 0 0 0 0 0 121938275.0882019 -3441095.511692188 -3441095.511692188 -9757554.039202346 0 0 0 0 0 122036202.0997791 -3535360.913862092 -3535360.913862092 -10229045.34528889 0 0 0 0 0 121742383.1706703 -2912264.968719843 -2912264.968719843 -9762912.851944311 0 0 0 0 0 119931364.6860293 -3037319.604475874 -3037319.604475874 -9695389.63631767 0 0 0 0 0 119703917.4158335 -2492457.655722545 -2492457.655722545 -9241708.905988539 0 0 0 0 0 118791120.2587656 -2377811.582674094 -2377811.582674094 -9156168.209133785 0 0 0 0 0 119713037.885043 -2589566.576718849 -2589566.576718849 -9627600.655872874 0 0 0 0 0 118551396.6179595 -1909514.410311675 -1909514.410311675 -8729127.608427718 0 0 0 0 0 118294483.4817542 -1476011.125717123 -1476011.125717123 -8315014.253565217 0 0 0 0 0 118022057.3372583 -1075362.900170325 -1075362.900170325 -7916139.872230229 0 0 0 0 0 117736987.8485282 -705404.8199044074 -705404.8199044074 -7530592.341908363 0 0 0 0 0 116935884.5740073 -717179.0198009913 -717179.0198009913 -7471640.657171647 0 0 0 0 0 117628925.0284115 -831196.8959915157 -831196.8959915157 -7899147.878346372 0 0 0 0 0 116659416.9869384 -398452.129264328 -398452.129264328 -7113779.57238272 0 0 0 0 0 116377964.9057269 -105694.4113850694 -105694.4113850694 -6769587.998854235 0 0 0 0 0 116087300.2250183 164607.0695528663 164607.0695528663 -6443809.706131407 0 0 0 0 0 115801053.6069606 418737.6674811811 418737.6674811811 -6116879.538947725 0 0 0 0 0 115515250.3240652 654578.0305491426 654578.0305491426 -5801509.956738133 0 0 0 0 0 115343495.6430598 517051.9595862768 517051.9595862768 -6146187.127120933 0 0 0 0 0 114584677.196286 765093.6053864141 765093.6053864141 -5496942.546249336 0 0 0 0 0 115042126.5025762 728326.1895120088 728326.1895120088 -5848787.248065459 0 0 0 0 0 114312358.908892 950729.5818498313 950729.5818498313 -5224316.060620433 0 0 0 0 0 114041360.415477 1121007.127453866 1121007.127453866 -4962827.265738835 0 0 0 0 0 113769850.9499156 1275925.668100153 1275925.668100153 -4711441.022911121 0 0 0 0 0 113500243.6541627 1413660.383872352 1413660.383872352 -4474577.636039151 0 0 0 0 0 112964000.9274267 1281675.936411281 1281675.936411281 -4497778.791135115 0 0 0 0 0 113305237.0414622 1274527.998332116 1274527.998332116 -4793294.073534665 0 0 0 0 0 112713727.0577043 1402409.036856378 1402409.036856378 -4279079.476646933 0 0 0 0 0 112468146.4366531 1513733.760061375 1513733.760061375 -4069259.190115953 0 0 0 0 0 112224568.587944 1620158.792160156 1620158.792160156 -3862767.120387763 0 0 0 0 0 111986738.2452533 1717083.698980836 1717083.698980836 -3664736.746391212 0 0 0 0 0 111751723.2429474 1804706.205419952 1804706.205419952 -3476730.610057015 0 0 0 0 0 111335653.4583222 1760549.616564455 1760549.616564455 -3574762.573615094 0 0 0 0 0 111520089.6845707 1884550.375438426 1884550.375438426 -3295720.762109262 0 0 0 0 0 111098595.4404453 1747284.303598305 1747284.303598305 -3338788.865657632 0 0 0 0 0 110885102.0941083 1820119.911915683 1820119.911915683 -3169134.463221739 0 0 0 0 0 110674883.2445427 1886827.308034085 1886827.308034085 -3008228.084161744 0 0 0 0 0 110469829.303691 1945807.369754172 1945807.369754172 -2853629.914543008 0 0 0 0 0 110194532.0642273 1994604.111577137 1994604.111577137 -2714779.286039251 0 0 0 0 0 110197417.9011404 1997768.255032438 1997768.255032438 -2764522.964586957 0 0 0 0 0 110077579.8395734 1951555.554152781 1951555.554152781 -2747257.758538451 0 0 0 0 0 109755507.6417022 1915688.406272913 1915688.406272913 -2606465.040112912 0 0 0 0 0 109587612.5251159 1910522.585994142 1910522.585994142 -2551384.631856944 0 0 0 0 0 120673910.933317 -2629988.624321137 -2629988.624321137 -9286494.436735809 0 0 0 0 0 18466787.43704357 -17584092.06150972 -17584092.06150972 17812173.32920159 0 0 0 0 0 31175206.53101506 -24518594.26913992 -24518594.26913992 19297378.56663851 0 0 0 0 0 32455702.82301002 -23919052.42501096 -23919052.42501096 9664519.735580428 0 0 0 0 0 58687136.32422849 -32469996.20125873 -32469996.20125873 5042636.783505976 0 0 0 0 0 48760936.37440806 -29162442.98041155 -29162442.98041155 7951603.121508024 0 0 0 0 0 68593046.74162257 -33694879.13287481 -33694879.13287481 2070960.830506895 0 0 0 0 0 77479583.62420458 -33969489.39595961 -33969489.39595961 -571429.0744837326 0 0 0 0 0 85364794.71465226 -33503614.58874204 -33503614.58874204 -2939018.631943409 0 0 0 0 0 92415071.92231916 -32621999.37083568 -32621999.37083568 -4888720.189479682 0 0 0 0 0 98490985.74617195 -31110527.75781843 -31110527.75781843 -6552364.95082127 0 0 0 0 0 103744052.6283111 -29404394.44854682 -29404394.44854682 -7992025.270356659 0 0 0 0 0 108273299.3701949 -27556677.26632211 -27556677.26632211 -9124745.778284186 0 0 0 0 0 112128033.3973781 -25588587.0828628 -25588587.0828628 -9990248.622238329 0 0 0 0 0 116034685.4318521 -24751067.75446584 -24751067.75446584 -11197011.44145401 0 0 0 0 0 114321234.693853 -23125193.84944763 -23125193.84944763 -12530661.17616517 0 0 0 0 0 116835089.3337411 -21261352.6391227 -21261352.6391227 -12788325.98033106 0 0 0 0 0 118943581.5592673 -19417395.24868405 -19417395.24868405 -12886902.61953435 0 0 0 0 0 120674658.9250708 -17631214.29980046 -17631214.29980046 -12863298.3164399 0 0 0 0 0 120823699.2219957 -15948829.98382948 -15948829.98382948 -13808936.54708197 0 0 0 0 0 122847084.1359018 -17181456.17078641 -17181456.17078641 -13480209.64506535 0 0 0 0 0 121918060.9416902 -14392649.0053946 -14392649.0053946 -13535823.46742718 0 0 0 0 0 122797220.9562599 -12901541.95830595 -12901541.95830595 -13177295.85634381 0 0 0 0 0 123424168.9949545 -11521124.8693632 -11521124.8693632 -12808515.08426702 0 0 0 0 0 123890675.8951776 -10205736.9985981 -10205736.9985981 -12393907.20805635 0 0 0 0 0 124233866.4994725 -8964718.410243256 -8964718.410243256 -11929364.38782884 0 0 0 0 0 124437408.6328667 -7814181.84785965 -7814181.84785965 -11452293.78193269 0 0 0 0 0 125036682.4592713 -7788880.459275802 -7788880.459275802 -12005141.01774795 0 0 0 0 0 123408148.5866596 -7143799.634339247 -7143799.634339247 -11658054.36074464 0 0 0 0 0 123407444.7410892 -6190296.635537699 -6190296.635537699 -11176768.70845388 0 0 0 0 0 123339740.2449106 -5304703.952650635 -5304703.952650635 -10687670.90026263 0 0 0 0 0 123208900.8901926 -4481283.972232946 -4481283.972232946 -10193954.22504604 0 0 0 0 0 123020820.9665993 -3717059.065300206 -3717059.065300206 -9701586.055731794 0 0 0 0 0 122786032.7234998 -3012105.878074299 -3012105.878074299 -9216533.920743378 0 0 0 0 0 122858033.660563 -3128859.724302969 -3128859.724302969 -9748160.688519375 0 0 0 0 0 121702820.003653 -2798747.07838634 -2798747.07838634 -9280495.020818608 0 0 0 0 0 121432072.0574425 -2207408.999888165 -2207408.999888165 -8816113.696553806 0 0 0 0 0 120695091.9068829 -2735802.857443016 -2735802.857443016 -9719026.480995925 0 0 0 0 0 120390148.6804711 -2205242.163630674 -2205242.163630674 -9272788.052116739 0 0 0 0 0 119423748.407053 -2098172.083705134 -2098172.083705134 -9194870.800684962 0 0 0 0 0 119452932.8372203 -1988045.026522257 -1988045.026522257 -8800090.69257175 0 0 0 0 0 119118749.4873772 -1643654.302439484 -1643654.302439484 -8774089.083394092 0 0 0 0 0 118800822.1852639 -1223611.446575608 -1223611.446575608 -8365451.232235319 0 0 0 0 0 118476334.6741568 -835964.4019688882 -835964.4019688882 -7969844.059579761 0 0 0 0 0 118143782.4970222 -478326.4673716848 -478326.4673716848 -7587246.231480412 0 0 0 0 0 117316371.5882276 -497109.6185869653 -497109.6185869653 -7531037.459284531 0 0 0 0 0 117444718.6680862 -364673.054019863 -364673.054019863 -7157477.801939225 0 0 0 0 0 116995635.1516178 -192083.4692937688 -192083.4692937688 -7178306.247494793 0 0 0 0 0 116670737.02055 88763.60073843364 88763.60073843364 -6836595.628618374 0 0 0 0 0 116361359.8939819 351339.3602661692 351339.3602661692 -6503519.627467535 0 0 0 0 0 116035912.2430085 596989.0339536301 596989.0339536301 -6176406.857536246 0 0 0 0 0 115709901.6623758 822329.6820968314 822329.6820968314 -5865636.515117359 0 0 0 0 0 115224797.8690909 869186.7192901499 869186.7192901499 -5501315.388147385 0 0 0 0 0 114746395.8346994 922462.4424059207 922462.4424059207 -5565130.792718098 0 0 0 0 0 114939255.9748671 1066886.4193291 1066886.4193291 -5215185.778320083 0 0 0 0 0 114454840.8351324 1099875.97703271 1099875.97703271 -5291505.276906773 0 0 0 0 0 114160118.3985003 1259555.286873246 1259555.286873246 -5030887.650017231 0 0 0 0 0 113866836.1821286 1403093.150366205 1403093.150366205 -4782026.102339346 0 0 0 0 0 113572079.4208731 1532768.864651569 1532768.864651569 -4546101.630448103 0 0 0 0 0 113037336.8112312 1400237.523858999 1400237.523858999 -4567182.545171218 0 0 0 0 0 113233944.0439658 1538765.497023189 1538765.497023189 -4250272.699556556 0 0 0 0 0 112775138.8745356 1516300.699985914 1516300.699985914 -4348016.485322789 0 0 0 0 0 112516862.0578666 1625125.572646893 1625125.572646893 -4134307.490329256 0 0 0 0 0 112262763.9353436 1725297.069877314 1725297.069877314 -3925398.718969253 0 0 0 0 0 112012351.7069343 1816405.020508963 1816405.020508963 -3727480.394357386 0 0 0 0 0 111766228.6719543 1897844.729841466 1897844.729841466 -3538845.879085412 0 0 0 0 0 111291867.5874192 1957541.134813234 1957541.134813234 -3121044.780677394 0 0 0 0 0 111524789.9769537 1972707.061452124 1972707.061452124 -3356076.710405034 0 0 0 0 0 111108942.6179447 1835211.437271086 1835211.437271086 -3396092.807956736 0 0 0 0 0 110886293.8680947 1902764.428606747 1902764.428606747 -3225060.000824879 0 0 0 0 0 110667536.1179177 1963130.002031992 1963130.002031992 -3061878.987949244 0 0 0 0 0 110444207.7302402 2013858.663232287 2013858.663232287 -2909609.079658669 0 0 0 0 0 110209082.7500944 2061001.592780509 2061001.592780509 -2758682.208444458 0 0 0 0 0 109969042.5947328 2026871.348926295 2026871.348926295 -2696593.316822391 0 0 0 0 0 109777208.5163511 1982242.042744731 1982242.042744731 -2658884.389251829 0 0 0 0 0 109603018.1179599 1948097.483559826 1948097.483559826 -2663086.26865835 0 0 0 0 0 109399530.6626248 1935078.07358104 1935078.07358104 -2588377.828824701 0 0 0 0 0 121421599.1432934 -2337087.846961793 -2337087.846961793 -9306802.038903892 0 0 0 0 0 18415015.19596683 -20343303.04754636 -20343303.04754636 19665648.55639102 0 0 0 0 0 40826549.22633097 -29472453.342682 -29472453.342682 18275825.45381748 0 0 0 0 0 61943096.1249122 -32265595.74162697 -32265595.74162697 5661593.072970045 0 0 0 0 0 52885842.60431752 -32837036.54385205 -32837036.54385205 13119670.28384321 0 0 0 0 0 72984728.47744146 -33678853.84887607 -33678853.84887607 3114617.613709542 0 0 0 0 0 82486891.67008582 -34028022.7932433 -34028022.7932433 668531.0355922497 0 0 0 0 0 90743128.50643754 -33572766.7908462 -33572766.7908462 -1605300.131317691 0 0 0 0 0 97882984.90610085 -32468684.14901386 -32468684.14901386 -3519818.929591024 0 0 0 0 0 104124710.0360844 -31166269.05161275 -31166269.05161275 -5173931.799128756 0 0 0 0 0 109260385.6064081 -29419913.20352807 -29419913.20352807 -6683272.73512059 0 0 0 0 0 113566819.8075875 -27470874.56017523 -27470874.56017523 -7911963.663754994 0 0 0 0 0 117126738.1998193 -25469905.66962489 -25469905.66962489 -8877890.145470245 0 0 0 0 0 115326241.1035838 -23555415.94607115 -23555415.94607115 -10630632.83454051 0 0 0 0 0 118723576.4473164 -22843760.58741249 -22843760.58741249 -11690528.9162963 0 0 0 0 0 120974311.5493676 -20953899.79719461 -20953899.79719461 -12008267.00081497 0 0 0 0 0 122786608.4501424 -19096751.57616898 -19096751.57616898 -12185591.83527455 0 0 0 0 0 124223915.6866075 -17298897.17091687 -17298897.17091687 -12240273.31791578 0 0 0 0 0 123940622.8768603 -15547476.80091915 -15547476.80091915 -13335969.17585174 0 0 0 0 0 122073275.4642926 -15916431.27254412 -15916431.27254412 -12736450.49487637 0 0 0 0 0 124798475.9636817 -13975624.29368823 -13975624.29368823 -13096264.1682878 0 0 0 0 0 125387340.4856108 -12519225.89751455 -12519225.89751455 -12832077.02968021 0 0 0 0 0 125800234.337494 -11139006.2851478 -11139006.2851478 -12495037.96276899 0 0 0 0 0 126087548.3491731 -9813264.34057362 -9813264.34057362 -12104743.7105615 0 0 0 0 0 126213824.0187712 -8588737.597799014 -8588737.597799014 -11694859.26624507 0 0 0 0 0 126199119.3148737 -7456160.203913788 -7456160.203913788 -11274477.75845246 0 0 0 0 0 124506666.1456246 -6756813.333705799 -6756813.333705799 -10975247.04854577 0 0 0 0 0 124961393.8041723 -6777740.750660727 -6777740.750660727 -11560040.26845359 0 0 0 0 0 124820900.7268587 -5834689.005347566 -5834689.005347566 -11091438.97755131 0 0 0 0 0 124611950.3359362 -4961136.586923795 -4961136.586923795 -10615987.86440843 0 0 0 0 0 124351584.1903223 -4152215.01226459 -4152215.01226459 -10137775.78468765 0 0 0 0 0 124048188.9726032 -3403716.80519408 -3403716.80519408 -9663498.307294363 0 0 0 0 0 123703328.428581 -2712438.240979926 -2712438.240979926 -9193064.907645075 0 0 0 0 0 122516393.0481443 -2362713.114688972 -2362713.114688972 -8738882.380936671 0 0 0 0 0 122522249.2001676 -2502307.161715091 -2502307.161715091 -9285876.439017497 0 0 0 0 0 122161060.4674649 -1926065.785546517 -1926065.785546517 -8832877.548985947 0 0 0 0 0 120412581.8832343 -2085211.596095843 -2085211.596095843 -8832209.788450593 0 0 0 0 0 120126722.9502626 -1582749.197047645 -1582749.197047645 -8391414.104257107 0 0 0 0 0 119181450.7049335 -1522176.479059996 -1522176.479059996 -8371744.203331905 0 0 0 0 0 120066687.8094217 -1715070.336615198 -1715070.336615198 -8838768.515346471 0 0 0 0 0 118893252.7407426 -1092326.42918501 -1092326.42918501 -7957407.969348457 0 0 0 0 0 118592139.7557844 -697185.0918238527 -697185.0918238527 -7556431.972564708 0 0 0 0 0 118278054.4677557 -334245.2825610887 -334245.2825610887 -7174648.296574527 0 0 0 0 0 117954673.057327 -115.396643468413 -115.396643468413 -6805449.127860492 0 0 0 0 0 117145245.746227 -49682.53564426072 -49682.53564426072 -6799031.401175578 0 0 0 0 0 117801823.020096 -149946.7925540167 -149946.7925540167 -7217782.354514869 0 0 0 0 0 116835991.8142335 235880.1511389828 235880.1511389828 -6457174.402019014 0 0 0 0 0 116526753.7594811 496346.703681261 496346.703681261 -6130367.208206783 0 0 0 0 0 116199928.0098074 736480.1673351985 736480.1673351985 -5819091.183701592 0 0 0 0 0 115899554.5512213 972300.9430394074 972300.9430394074 -5492788.158504764 0 0 0 0 0 115596630.7811008 1183910.503347253 1183910.503347253 -5191002.034755597 0 0 0 0 0 115395134.9464285 1031554.973129976 1031554.973129976 -5565291.41734043 0 0 0 0 0 114648102.9999875 1243748.463983422 1243748.463983422 -4942982.493651865 0 0 0 0 0 115078198.4847688 1217331.816604873 1217331.816604873 -5285170.522721347 0 0 0 0 0 114355426.2305233 1403739.920199065 1403739.920199065 -4687662.737788267 0 0 0 0 0 114068259.0466659 1549967.37781042 1549967.37781042 -4440678.789460471 0 0 0 0 0 113781132.5847344 1682311.807431511 1682311.807431511 -4205115.670668876 0 0 0 0 0 113504018.3459469 1800462.567760529 1800462.567760529 -3980433.028853556 0 0 0 0 0 112972056.383237 1653737.10175482 1653737.10175482 -4033460.09035772 0 0 0 0 0 113295236.4579867 1654160.572482655 1654160.572482655 -4318917.970743798 0 0 0 0 0 112711424.4193966 1759359.471253867 1759359.471253867 -3824023.705671384 0 0 0 0 0 112458907.0311449 1859083.244300156 1859083.244300156 -3619943.221893758 0 0 0 0 0 112209696.1989453 1950194.831988893 1950194.831988893 -3424004.48482619 0 0 0 0 0 111964651.0330274 2032155.902076717 2032155.902076717 -3237626.87576399 0 0 0 0 0 111721393.7180634 2104965.776688064 2104965.776688064 -3059402.593600134 0 0 0 0 0 111288651.2992499 2041782.952884602 2041782.952884602 -3179141.240358477 0 0 0 0 0 111483226.8052683 2171756.215960105 2171756.215960105 -2887272.476958772 0 0 0 0 0 111068821.3443544 2024349.474393668 2024349.474393668 -2952467.590855152 0 0 0 0 0 110849795.8547492 2084293.63970669 2084293.63970669 -2790627.203848355 0 0 0 0 0 110634228.0413492 2137907.974790263 2137907.974790263 -2635590.721895546 0 0 0 0 0 110415160.421113 2195222.373888198 2195222.373888198 -2489198.848141943 0 0 0 0 0 110299691.1528583 2206510.472119944 2206510.472119944 -2437220.603886374 0 0 0 0 0 110102815.4748069 2182112.511769856 2182112.511769856 -2402570.799205561 0 0 0 0 0 109921257.2785974 2136260.266658714 2136260.266658714 -2369670.437618784 0 0 0 0 0 109719076.1655656 2118252.387416519 2118252.387416519 -2293830.011942227 0 0 0 0 0 121133387.6221395 -1663176.960346814 -1663176.960346814 -8364526.003749609 0 0 0 0 0 25775373.59171657 -24214330.20137169 -24214330.20137169 25670943.53147013 0 0 0 0 0 40604526.44154868 -29423569.00702651 -29423569.00702651 18192740.23242199 0 0 0 0 0 64425945.53739865 -34558336.8380404 -34558336.8380404 8810929.994545994 0 0 0 0 0 56546075.67039938 -33595303.82561874 -33595303.82561874 14517098.93230624 0 0 0 0 0 74498252.03423178 -35092681.90918921 -35092681.90918921 5133324.902350265 0 0 0 0 0 83353908.68825135 -34790925.43562371 -34790925.43562371 1987673.376175047 0 0 0 0 0 91189904.34656601 -33876338.65321978 -33876338.65321978 -628750.707823448 0 0 0 0 0 97911257.81231928 -32318335.94790542 -32318335.94790542 -2903091.251205769 0 0 0 0 0 103706022.6951963 -30493355.33546156 -30493355.33546156 -4816013.583226343 0 0 0 0 0 108646770.537654 -28486132.11358009 -28486132.11358009 -6345319.738532954 0 0 0 0 0 112827230.0954608 -26369529.86568034 -26369529.86568034 -7540981.341309789 0 0 0 0 0 116274052.1855205 -24191372.00749879 -24191372.00749879 -8457699.916258819 0 0 0 0 0 119999305.8564807 -23455211.01069514 -23455211.01069514 -9670839.314746913 0 0 0 0 0 117944037.7526739 -21590450.16154714 -21590450.16154714 -11116472.05638268 0 0 0 0 0 120146164.494158 -19630012.61761871 -19630012.61761871 -11382012.88782321 0 0 0 0 0 121937551.1230519 -17747759.29708047 -17747759.29708047 -11495045.77973972 0 0 0 0 0 123386653.8138608 -15940392.22625647 -15940392.22625647 -11467627.7372149 0 0 0 0 0 123185453.3927328 -14281525.3948844 -14281525.3948844 -12524086.84952856 0 0 0 0 0 125333769.5654914 -15572449.41807071 -15572449.41807071 -12187947.989699 0 0 0 0 0 124044814.9859179 -12732324.89739141 -12732324.89739141 -12240986.6354057 0 0 0 0 0 124692936.7561367 -11277253.28100656 -11277253.28100656 -11904246.10575546 0 0 0 0 0 125138192.231491 -9931495.942776775 -9931495.942776775 -11531779.5811202 0 0 0 0 0 125422844.646495 -8657468.881343143 -8657468.881343143 -11101627.14000739 0 0 0 0 0 125596083.7086941 -7462999.991235719 -7462999.991235719 -10646440.2710469 0 0 0 0 0 125637576.5755167 -6370022.86174992 -6370022.86174992 -10187245.60213614 0 0 0 0 0 126089056.821447 -6409653.311464089 -6409653.311464089 -10835777.73462814 0 0 0 0 0 124480031.6397863 -5781989.050473282 -5781989.050473282 -10493145.07929928 0 0 0 0 0 124353481.7617148 -4883613.187652963 -4883613.187652963 -10021864.00108255 0 0 0 0 0 124171238.8648941 -4051249.301646999 -4051249.301646999 -9548730.121957259 0 0 0 0 0 123939166.5026712 -3281890.71651231 -3281890.71651231 -9071532.834475644 0 0 0 0 0 123656881.6847437 -2572249.634880002 -2572249.634880002 -8598508.867216351 0 0 0 0 0 123338820.0209739 -1918966.641628375 -1918966.641628375 -8130507.203984523 0 0 0 0 0 123318418.7093778 -2081839.458348471 -2081839.458348471 -8737842.11230867 0 0 0 0 0 122205370.0906501 -1770849.367042468 -1770849.367042468 -8279891.454979263 0 0 0 0 0 121867168.4163276 -1228049.763392814 -1228049.763392814 -7834197.884360727 0 0 0 0 0 121079061.8572756 -1807007.21258553 -1807007.21258553 -8862288.651422443 0 0 0 0 0 120719654.6284801 -1318792.829392393 -1318792.829392393 -8428998.93821393 0 0 0 0 0 119728539.9568581 -1262962.265913765 -1262962.265913765 -8416964.318023937 0 0 0 0 0 119821818.8310875 -1119931.433273545 -1119931.433273545 -7964256.639413873 0 0 0 0 0 119379729.4178541 -846515.2624626467 -846515.2624626467 -8008003.750497517 0 0 0 0 0 119020247.9747874 -464444.8767098627 -464444.8767098627 -7613479.215104133 0 0 0 0 0 118663499.7094251 -113973.2702867283 -113973.2702867283 -7234464.528353919 0 0 0 0 0 118294812.0743154 206384.8787123134 206384.8787123134 -6865536.241232419 0 0 0 0 0 117458473.9246457 148794.0809433855 148794.0809433855 -6866607.640934677 0 0 0 0 0 117630935.6643356 307369.5523814583 307369.5523814583 -6446894.165871182 0 0 0 0 0 117108170.9442293 422883.9464255014 422883.9464255014 -6526235.7157602 0 0 0 0 0 116756691.2359674 671981.8117528664 671981.8117528664 -6203189.72683742 0 0 0 0 0 116432604.9277929 915628.8761975616 915628.8761975616 -5871398.255362182 0 0 0 0 0 116090452.8636042 1140882.568060228 1140882.568060228 -5552372.938850432 0 0 0 0 0 115750012.8741258 1343296.833838538 1343296.833838538 -5254740.831370337 0 0 0 0 0 115290487.3151429 1375511.610919386 1375511.610919386 -4901953.716814766 0 0 0 0 0 114761960.3338541 1384988.33703692 1384988.33703692 -5014394.237462779 0 0 0 0 0 114982602.782239 1545211.066195628 1545211.066195628 -4633402.982445 0 0 0 0 0 114455750.9122242 1536435.920497029 1536435.920497029 -4758729.437823182 0 0 0 0 0 114151720.7089438 1674740.582874896 1674740.582874896 -4511123.396119137 0 0 0 0 0 113848712.2519802 1799314.222074064 1799314.222074064 -4275099.10260162 0 0 0 0 0 113547872.9818792 1912699.061915437 1912699.061915437 -4050880.746825449 0 0 0 0 0 113020515.1333748 1764633.583673475 1764633.583673475 -4100878.75073283 0 0 0 0 0 113225957.3404555 1908077.114846735 1908077.114846735 -3766778.888448094 0 0 0 0 0 112747956.4586278 1866301.089355007 1866301.089355007 -3888867.410803647 0 0 0 0 0 112481907.0416833 1960251.64622328 1960251.64622328 -3683334.901855457 0 0 0 0 0 112221077.4441838 2044982.201961438 2044982.201961438 -3487311.259133601 0 0 0 0 0 111963265.6191806 2120320.25008715 2120320.25008715 -3300231.262048748 0 0 0 0 0 111711714.8995238 2189457.826080703 2189457.826080703 -3119982.714841987 0 0 0 0 0 111250392.4494476 2232918.419622053 2232918.419622053 -2720976.366754865 0 0 0 0 0 111466056.7291951 2252342.537047235 2252342.537047235 -2946196.35138133 0 0 0 0 0 111056825.0445716 2104116.355693683 2104116.355693683 -3009558.935756437 0 0 0 0 0 110829214.5920856 2159724.845818216 2159724.845818216 -2846827.449061442 0 0 0 0 0 110606230.178978 2208945.764229738 2208945.764229738 -2690575.785176246 0 0 0 0 0 110402842.3608554 2258537.433765099 2258537.433765099 -2537637.436343293 0 0 0 0 0 110052334.6470409 2227579.621957461 2227579.621957461 -2375495.823460832 0 0 0 0 0 109889545.6521304 2185183.078264476 2185183.078264476 -2399603.080683588 0 0 0 0 0 109672290.8265703 2156960.814654323 2156960.814654323 -2395169.695145673 0 0 0 0 0 109489048.0530539 2144012.748446047 2144012.748446047 -2328265.73626208 0 0 0 0 0 121779396.3310037 -1396469.428742182 -1396469.428742182 -8391183.554086346 0 0 0 0 0 27713944.71162292 -28662946.22980285 -28662946.22980285 28426182.72330521 0 0 0 0 0 45082552.42932678 -33492457.33228123 -33492457.33228123 22575337.29201305 0 0 0 0 0 69124740.73968911 -35226732.11651251 -35226732.11651251 10383327.30535223 0 0 0 0 0 58897830.29163115 -35985354.22286775 -35985354.22286775 16844622.12552822 0 0 0 0 0 79836609.97149102 -35639200.60281724 -35639200.60281724 6782837.768564444 0 0 0 0 0 89107807.16069235 -35226681.2060432 -35226681.2060432 3676375.953513348 0 0 0 0 0 97141572.09260204 -34108202.65899628 -34108202.65899628 1050059.254991419 0 0 0 0 0 104068159.1437722 -32676268.78929093 -32676268.78929093 -1188623.619799569 0 0 0 0 0 109711888.3448392 -30763662.92742355 -30763662.92742355 -3200624.988828497 0 0 0 0 0 114395540.8830305 -28652568.08429614 -28652568.08429614 -4854602.251392675 0 0 0 0 0 118244164.9908759 -26458931.80514154 -26458931.80514154 -6186094.93270206 0 0 0 0 0 121353384.8687212 -24232035.97779587 -24232035.97779587 -7235568.482142004 0 0 0 0 0 119137491.6590521 -22052817.1257042 -22052817.1257042 -9122305.872839337 0 0 0 0 0 122323544.1792489 -21396408.24963601 -21396408.24963601 -10214573.4218122 0 0 0 0 0 124207333.7002238 -19424788.3342158 -19424788.3342158 -10571016.53924117 0 0 0 0 0 125677466.3167377 -17498529.89138602 -17498529.89138602 -10769627.41359728 0 0 0 0 0 126808228.5818458 -15656944.66767897 -15656944.66767897 -10826225.79051091 0 0 0 0 0 126165778.9941069 -13930141.65219685 -13930141.65219685 -12043551.05250116 0 0 0 0 0 124526698.5320594 -14212877.71351702 -14212877.71351702 -11330714.91188367 0 0 0 0 0 126755177.6162187 -12391032.34586034 -12391032.34586034 -11826051.19920713 0 0 0 0 0 127132666.7680888 -10939628.49101071 -10939628.49101071 -11557575.34609544 0 0 0 0 0 127353632.9332933 -9577910.452117871 -9577910.452117871 -11213256.8052065 0 0 0 0 0 127446189.8657401 -8308905.845405757 -8308905.845405757 -10825813.87277448 0 0 0 0 0 127398141.3808247 -7132171.53596172 -7132171.53596172 -10430842.80532087 0 0 0 0 0 127236985.7399772 -6054445.389345597 -6054445.389345597 -10018176.51802669 0 0 0 0 0 125566382.5583499 -5367352.135401188 -5367352.135401188 -9722220.662068153 0 0 0 0 0 125883874.4301672 -5453417.355526729 -5453417.355526729 -10399756.36159281 0 0 0 0 0 125626357.8370793 -4565818.111955506 -4565818.111955506 -9947115.421136066 0 0 0 0 0 125308156.8862279 -3745429.852222498 -3745429.852222498 -9486227.889003396 0 0 0 0 0 124946215.6887196 -2989692.940852019 -2989692.940852019 -9024766.663314341 0 0 0 0 0 124557955.7362205 -2292498.993015307 -2292498.993015307 -8566423.781588206 0 0 0 0 0 124133294.0480132 -1654456.519454633 -1654456.519454633 -8115263.281478008 0 0 0 0 0 122992257.0814312 -1323163.318173718 -1323163.318173718 -7675380.094177467 0 0 0 0 0 122913700.1563074 -1504302.259087475 -1504302.259087475 -8291511.311891947 0 0 0 0 0 122490713.6159602 -975602.7821384892 -975602.7821384892 -7856293.995656397 0 0 0 0 0 120811939.9003352 -1163212.355880646 -1163212.355880646 -7926585.180877997 0 0 0 0 0 120471891.4966978 -704179.1394088785 -704179.1394088785 -7502894.499065932 0 0 0 0 0 119501372.4325366 -694477.6080998022 -694477.6080998022 -7550957.421847818 0 0 0 0 0 120346960.6742034 -869762.1742985153 -869762.1742985153 -8008593.061614281 0 0 0 0 0 119168584.5898179 -304241.3901047788 -304241.3901047788 -7152944.008197599 0 0 0 0 0 118829493.0464026 51557.71084521942 51557.71084521942 -6770864.868717177 0 0 0 0 0 118470926.6421374 374527.58404566 374527.58404566 -6410424.389199037 0 0 0 0 0 118114653.3249986 673770.3612461707 673770.3612461707 -6058183.692277218 0 0 0 0 0 117293754.8633431 584525.9458457766 584525.9458457766 -6106971.703414267 0 0 0 0 0 117917363.6389634 498433.2197189705 498433.2197189705 -6514075.980299448 0 0 0 0 0 116960079.5225998 838818.1061123587 838818.1061123587 -5780131.871157999 0 0 0 0 0 116628268.9587247 1073182.107668148 1073182.107668148 -5472414.148130238 0 0 0 0 0 116281897.3283329 1293752.482213285 1293752.482213285 -5156852.571287171 0 0 0 0 0 115962968.0389753 1505068.342244751 1505068.342244751 -4849955.562309754 0 0 0 0 0 115639949.1977628 1690597.947836558 1690597.947836558 -4563123.65786953 0 0 0 0 0 115410655.9851084 1520846.957390822 1520846.957390822 -4972935.745907395 0 0 0 0 0 114681771.5594691 1699445.568055125 1699445.568055125 -4378780.69223545 0 0 0 0 0 115083092.5603301 1683328.641921671 1683328.641921671 -4703276.858213844 0 0 0 0 0 114370928.9051853 1832911.389527486 1832911.389527486 -4141670.632845104 0 0 0 0 0 114066198.5828286 1956035.447835393 1956035.447835393 -3910715.398314217 0 0 0 0 0 113766230.9943549 2066314.018424664 2066314.018424664 -3688813.557535001 0 0 0 0 0 113483465.4056399 2170362.045944524 2170362.045944524 -3475277.161985078 0 0 0 0 0 112954690.8794949 2009068.816913154 2009068.816913154 -3559024.50203933 0 0 0 0 0 113259481.415984 2015567.886354088 2015567.886354088 -3834070.280692768 0 0 0 0 0 112691194.8325163 2103234.47456654 2103234.47456654 -3356625.418002527 0 0 0 0 0 112430717.7655175 2187279.014324421 2187279.014324421 -3163102.025733199 0 0 0 0 0 112173396.6943015 2262299.560929736 2262299.560929736 -2979571.666767475 0 0 0 0 0 111920387.996193 2329596.742331496 2329596.742331496 -2804165.785778458 0 0 0 0 0 111672681.123894 2390530.780348917 2390530.780348917 -2635316.624639824 0 0 0 0 0 111225524.4521922 2308924.967553275 2308924.967553275 -2778570.598181588 0 0 0 0 0 111430132.7802279 2445176.625250411 2445176.625250411 -2473069.304476046 0 0 0 0 0 111022058.3842644 2287581.681379163 2287581.681379163 -2561125.572031489 0 0 0 0 0 110797901.3238742 2336029.869817991 2336029.869817991 -2406593.777486857 0 0 0 0 0 110577808.1375782 2379151.381523445 2379151.381523445 -2257643.034019721 0 0 0 0 0 110324306.3881436 2419931.18734003 2419931.18734003 -2126488.749970374 0 0 0 0 0 110196847.095811 2355692.021151736 2355692.021151736 -2136832.970566042 0 0 0 0 0 110236528.1755999 2362403.855091577 2362403.855091577 -2276653.073567953 0 0 0 0 0 109989051.4538633 2346112.396099076 2346112.396099076 -2093487.843914363 0 0 0 0 0 109778069.5588821 2318633.85529271 2318633.85529271 -2047726.718323917 0 0 0 0 0 121507548.2543499 -730819.4582247776 -730819.4582247776 -7401937.666560507 0 0 0 0 0 33226079.1796787 -31375846.87347516 -31375846.87347516 32025100.26522397 0 0 0 0 0 49498495.08221694 -35288216.05580685 -35288216.05580685 24909607.94905363 0 0 0 0 0 70702183.67465025 -36839094.56064728 -36839094.56064728 12038813.00455464 0 0 0 0 0 64404425.98086926 -37395138.65222565 -37395138.65222565 19128987.88932615 0 0 0 0 0 80778329.93371545 -36562599.6832392 -36562599.6832392 7871652.082882631 0 0 0 0 0 89516015.31169282 -35560093.90664166 -35560093.90664166 4362912.22908204 0 0 0 0 0 97098545.8215601 -33963622.09925631 -33963622.09925631 1409285.543880875 0 0 0 0 0 103547857.5775735 -31936097.76723516 -31936097.76723516 -1066885.802643957 0 0 0 0 0 108966379.9835815 -29724281.68322038 -29724281.68322038 -3090487.236440318 0 0 0 0 0 113503759.4003975 -27401842.43069353 -27401842.43069353 -4693606.729235901 0 0 0 0 0 117251061.1406129 -25044921.77079732 -25044921.77079732 -5930853.296144322 0 0 0 0 0 120322649.4292454 -22709620.67937492 -22709620.67937492 -6854379.061529364 0 0 0 0 0 123832012.7845263 -22016503.18328063 -22016503.18328063 -8048763.320938921 0 0 0 0 0 121436565.6271999 -19941315.58862018 -19941315.58862018 -9584536.617622811 0 0 0 0 0 123282547.4804361 -17962248.93023145 -17962248.93023145 -9883517.387950674 0 0 0 0 0 124792993.6149196 -16032249.13589853 -16032249.13589853 -9967285.785310453 0 0 0 0 0 125956609.8661194 -14195952.28162496 -14195952.28162496 -9926821.386032209 0 0 0 0 0 125385680.6420804 -12589864.07156263 -12589864.07156263 -11115898.16812623 0 0 0 0 0 127634231.2364011 -13926043.43591806 -13926043.43591806 -10779364.60687528 0 0 0 0 0 125995814.8953495 -11079161.44354205 -11079161.44354205 -10847815.669542 0 0 0 0 0 126435632.9516585 -9666727.241732802 -9666727.241732802 -10503957.73329327 0 0 0 0 0 126705667.4395635 -8341026.408928021 -8341026.408928021 -10128202.2125961 0 0 0 0 0 126824828.010177 -7104840.232930683 -7104840.232930683 -9701544.771632878 0 0 0 0 0 126804811.7229111 -5984223.13636107 -5984223.13636107 -9279461.164689606 0 0 0 0 0 126689240.0655303 -4955849.9463217 -4955849.9463217 -8844595.077942615 0 0 0 0 0 126984655.6985606 -5067577.172076946 -5067577.172076946 -9595823.380451819 0 0 0 0 0 125410168.9118445 -4452968.229666933 -4452968.229666933 -9262673.057094386 0 0 0 0 0 125168088.1470151 -3609858.052875533 -3609858.052875533 -8806449.612763746 0 0 0 0 0 124881023.9592412 -2833087.472268797 -2833087.472268797 -8350655.552180669 0 0 0 0 0 124554482.0094951 -2119947.13330535 -2119947.13330535 -7895802.107557258 0 0 0 0 0 124184394.73944 -1466537.961118018 -1466537.961118018 -7444270.90734071 0 0 0 0 0 123788385.081077 -868385.8144099258 -868385.8144099258 -7001075.296744581 0 0 0 0 0 123679723.0627716 -1073924.673391487 -1073924.673391487 -7679043.197063857 0 0 0 0 0 122613506.0465971 -781336.9720326191 -781336.9720326191 -7237354.342114436 0 0 0 0 0 122213507.4628448 -287502.4241716307 -287502.4241716307 -6814146.283454538 0 0 0 0 0 121381986.3568876 -910614.4890309117 -910614.4890309117 -7961895.525341278 0 0 0 0 0 120972968.7973493 -465386.6841561648 -465386.6841561648 -7545256.317414712 0 0 0 0 0 119964068.8870933 -457496.5233104084 -457496.5233104084 -7601387.525232777 0 0 0 0 0 120117551.2516359 -283457.1959951191 -283457.1959951191 -7093814.240997226 0 0 0 0 0 119576087.9106216 -79787.36171886613 -79787.36171886613 -7208281.720889646 0 0 0 0 0 119176890.747145 259787.8452188129 259787.8452188129 -6836210.19608505 0 0 0 0 0 118785247.9784161 570938.7381414748 570938.7381414748 -6473394.778122936 0 0 0 0 0 118388317.6260936 858242.6490031267 858242.6490031267 -6121427.373296048 0 0 0 0 0 117545292.9634428 766384.8268315681 766384.8268315681 -6175445.505018083 0 0 0 0 0 117760718.441522 947770.8379634829 947770.8379634829 -5717005.377971199 0 0 0 0 0 117174405.7019116 1011579.217976237 1011579.217976237 -5852818.730029407 0 0 0 0 0 116810009.3414451 1237046.58329537 1237046.58329537 -5539017.58142932 0 0 0 0 0 116456027.5818995 1461577.446595188 1461577.446595188 -5207893.188161295 0 0 0 0 0 116099100.3516681 1658211.576303371 1658211.576303371 -4916138.542433005 0 0 0 0 0 115743396.0330852 1830587.027344728 1830587.027344728 -4633042.792588925 0 0 0 0 0 115316546.7381622 1853575.882804545 1853575.882804545 -4296095.28063578 0 0 0 0 0 114759984.9244405 1825998.436321991 1825998.436321991 -4455448.645229608 0 0 0 0 0 114994792.5449269 1996139.801367936 1996139.801367936 -4045418.701896672 0 0 0 0 0 114433375.2397386 1951692.82533003 1951692.82533003 -4213300.452379781 0 0 0 0 0 114114562.1062845 2067830.444642605 2067830.444642605 -3980645.692477358 0 0 0 0 0 113804828.4968172 2175994.529997516 2175994.529997516 -3756960.049577789 0 0 0 0 0 113498547.7847227 2272645.2449621 2272645.2449621 -3542846.994119725 0 0 0 0 0 112976671.8657979 2111592.305722735 2111592.305722735 -3623439.92973714 0 0 0 0 0 113201202.9511019 2265737.807332775 2265737.807332775 -3270321.93497582 0 0 0 0 0 112698306.4601711 2199549.157619998 2199549.157619998 -3420368.234787145 0 0 0 0 0 112426000.218015 2277837.153062618 2277837.153062618 -3226871.051573637 0 0 0 0 0 112158392.2178698 2346842.873493329 2346842.873493329 -3042127.53302515 0 0 0 0 0 111896301.7185185 2409212.037171108 2409212.037171108 -2865048.639762991 0 0 0 0 0 111640695.8557468 2465591.152961742 2465591.152961742 -2694327.864188939 0 0 0 0 0 111192496.5292243 2493945.30769615 2493945.30769615 -2317565.000819171 0 0 0 0 0 111391104.9176671 2515959.165519749 2515959.165519749 -2530598.145196176 0 0 0 0 0 110990076.0344167 2359662.164221567 2359662.164221567 -2617767.224128858 0 0 0 0 0 110760094.5424435 2405382.797028528 2405382.797028528 -2462769.754983773 0 0 0 0 0 110538493.3284844 2448274.520105042 2448274.520105042 -2310907.331065761 0 0 0 0 0 110344002.3108041 2496812.66572884 2496812.66572884 -2154722.588316039 0 0 0 0 0 109929718.8635246 2366229.478834576 2366229.478834576 -2196769.765990024 0 0 0 0 0 110161420.1708664 2498283.504922821 2498283.504922821 -1951831.092771171 0 0 0 0 0 109756121.3258472 2358625.757854275 2358625.757854275 -2110827.460185844 0 0 0 0 0 109565455.8107863 2338999.599796512 2338999.599796512 -2074803.431113843 0 0 0 0 0 122053488.4728845 -492277.8948292873 -492277.8948292873 -7433250.107513649 0 0 0 0 0 35618363.58724852 -35113724.36093146 -35113724.36093146 33860726.05975094 0 0 0 0 0 52383537.4444473 -38269533.54223522 -38269533.54223522 26844193.77745828 0 0 0 0 0 76686933.84930901 -37965596.7478471 -37965596.7478471 14235107.89781637 0 0 0 0 0 66142227.66370796 -39323528.61986756 -39323528.61986756 20386288.81175987 0 0 0 0 0 87205933.78295901 -37525092.65681412 -37525092.65681412 10064460.77019993 0 0 0 0 0 96166310.80495644 -36338382.97460335 -36338382.97460335 6503968.753669522 0 0 0 0 0 103809426.8438415 -34609418.90789285 -34609418.90789285 3497456.729393469 0 0 0 0 0 110180265.3601806 -32548268.14724814 -32548268.14724814 932024.3627283538 0 0 0 0 0 115277893.464182 -30191259.81107571 -30191259.81107571 -1264017.842717134 0 0 0 0 0 119431523.3363096 -27746165.49186496 -27746165.49186496 -3042672.650842334 0 0 0 0 0 122773137.6302315 -25282109.06786043 -25282109.06786043 -4450455.619053394 0 0 0 0 0 125419770.4492576 -22851848.15858571 -22851848.15858571 -5540304.067408275 0 0 0 0 0 122816628.773761 -20440623.29115185 -20440623.29115185 -7512796.18921335 0 0 0 0 0 125733548.0872597 -19890941.57080079 -19890941.57080079 -8660877.882527858 0 0 0 0 0 127249859.8466375 -17802346.89841828 -17802346.89841828 -9023790.612610416 0 0 0 0 0 128407241.7799735 -15836288.61989884 -15836288.61989884 -9213291.157371324 0 0 0 0 0 129212992.6937135 -13993444.00978364 -13993444.00978364 -9287077.817283429 0 0 0 0 0 128186803.7701642 -12305418.20976432 -12305418.20976432 -10651732.28250405 0 0 0 0 0 126811314.4210447 -12486456.93106681 -12486456.93106681 -9802946.876295999 0 0 0 0 0 128542754.1955263 -10777267.16659172 -10777267.16659172 -10432996.36561447 0 0 0 0 0 128715110.9645951 -9354558.651392803 -9354558.651392803 -10156080.70884513 0 0 0 0 0 128760325.3714956 -8027332.205861817 -8027332.205861817 -9813742.962453585 0 0 0 0 0 128647385.8023002 -6822937.272126657 -6822937.272126657 -9456522.926299023 0 0 0 0 0 128427571.3089409 -5708781.975586221 -5708781.975586221 -9078127.007648531 0 0 0 0 0 128121654.5209131 -4687891.598559518 -4687891.598559518 -8683227.535796743 0 0 0 0 0 126485391.2773321 -4014375.454557925 -4014375.454557925 -8402837.873393685 0 0 0 0 0 126662578.7483422 -4162336.080949045 -4162336.080949045 -9170603.52241757 0 0 0 0 0 126291958.6636201 -3335460.736156967 -3335460.736156967 -8736304.991741206 0 0 0 0 0 125874161.9355686 -2568151.330698961 -2568151.330698961 -8295784.136096644 0 0 0 0 0 125427310.8385377 -1865335.060639622 -1865335.060639622 -7855358.491163572 0 0 0 0 0 124958471.0660702 -1223803.751249505 -1223803.751249505 -7418219.053266264 0 0 0 0 0 124461995.7491614 -639210.8821439372 -639210.8821439372 -6991161.530304366 0 0 0 0 0 123371383.3498804 -325470.2612431513 -325470.2612431513 -6570911.826246078 0 0 0 0 0 123212531.3383393 -546255.9520607693 -546255.9520607693 -7253544.058965014 0 0 0 0 0 122733947.8042455 -65760.43323209067 -65760.43323209067 -6839983.052333763 0 0 0 0 0 121131033.2855098 -276175.8898915558 -276175.8898915558 -6984025.541826375 0 0 0 0 0 120741311.2069614 138917.9508839051 138917.9508839051 -6581276.357626 0 0 0 0 0 119752916.6782447 100862.8632335435 100862.8632335435 -6699565.641500448 0 0 0 0 0 120555708.7321614 -57907.49064205588 -57907.49064205588 -7142205.537704413 0 0 0 0 0 119379528.144856 449667.3434868001 449667.3434868001 -6322188.068172767 0 0 0 0 0 119002071.5204072 765766.6481679884 765766.6481679884 -5966234.801137404 0 0 0 0 0 118607343.1426977 1050377.717261828 1050377.717261828 -5625772.938474179 0 0 0 0 0 118217655.0287388 1313660.02315375 1313660.02315375 -5292604.689547639 0 0 0 0 0 117401981.7263384 1194810.202474075 1194810.202474075 -5392798.007934951 0 0 0 0 0 117988345.1630441 1121620.885227928 1121620.885227928 -5783430.089434458 0 0 0 0 0 117042963.2896156 1419505.492858893 1419505.492858893 -5081231.856575109 0 0 0 0 0 116687412.9222004 1633772.018615832 1633772.018615832 -4781261.752240581 0 0 0 0 0 116348440.0786953 1843856.021501251 1843856.021501251 -4466039.637198031 0 0 0 0 0 115995787.8060393 2015828.148734935 2015828.148734935 -4189902.956729701 0 0 0 0 0 115649678.605194 2169133.292708556 2169133.292708556 -3928101.668138915 0 0 0 0 0 115394650.5101973 1984884.581915473 1984884.581915473 -4367427.590372614 0 0 0 0 0 114667254.1967482 2120369.663515938 2120369.663515938 -3816039.385040015 0 0 0 0 0 115051969.2770159 2117337.284093417 2117337.284093417 -4121178.748125924 0 0 0 0 0 114350921.6965896 2236429.053391833 2236429.053391833 -3591137.429529491 0 0 0 0 0 114039079.6759442 2340659.192505141 2340659.192505141 -3371959.206641148 0 0 0 0 0 113735581.519735 2437039.834527288 2437039.834527288 -3161746.531065458 0 0 0 0 0 113442458.0801532 2525988.535698367 2525988.535698367 -2958976.012540711 0 0 0 0 0 112922524.2823456 2352544.004308291 2352544.004308291 -3071355.524185407 0 0 0 0 0 113202488.8859435 2361563.190813322 2361563.190813322 -3335137.125869539 0 0 0 0 0 112649404.9748276 2429375.740866668 2429375.740866668 -2881878.671153291 0 0 0 0 0 112381446.2799297 2497629.288432319 2497629.288432319 -2702507.588969262 0 0 0 0 0 112117363.9793933 2557958.371186705 2557958.371186705 -2530675.140533674 0 0 0 0 0 111859092.4185837 2611791.25880996 2611791.25880996 -2365640.337888984 0 0 0 0 0 111606794.7661982 2659858.431134972 2659858.431134972 -2207583.320255986 0 0 0 0 0 111147266.8374956 2560565.575128987 2560565.575128987 -2373677.584256476 0 0 0 0 0 111360162.4334071 2702163.293333941 2702163.293333941 -2056546.932283333 0 0 0 0 0 110959771.0952628 2537327.670543426 2537327.670543426 -2168653.865722789 0 0 0 0 0 110732093.2032489 2576013.350338639 2576013.350338639 -2026498.268195312 0 0 0 0 0 110505736.9291985 2611776.898044182 2611776.898044182 -1888309.6966009 0 0 0 0 0 110286727.2763418 2638813.282732348 2638813.282732348 -1747186.339778679 0 0 0 0 0 110054290.3186094 2543339.702850647 2543339.702850647 -1816071.268863913 0 0 0 0 0 110125850.8959065 2531922.206033329 2531922.206033329 -1974409.457728986 0 0 0 0 0 109860434.2264328 2515858.652802067 2515858.652802067 -1788392.596335303 0 0 0 0 0 121798220.1894446 162418.3884688164 162418.3884688164 -6404484.448831882 0 0 0 0 0 42553066.92179739 -38382429.21556401 -38382429.21556401 38125334.22991975 0 0 0 0 0 58860339.9993351 -40690445.73995924 -40690445.73995924 30013032.36317496 0 0 0 0 0 77639099.01992041 -39049554.77357087 -39049554.77357087 14895650.02980296 0 0 0 0 0 73160587.26126981 -41320611.5153715 -41320611.5153715 23424797.84180329 0 0 0 0 0 87543658.45634083 -37891263.59142571 -37891263.59142571 10331550.70310801 0 0 0 0 0 96001009.51832457 -36119487.30665588 -36119487.30665588 6489242.984135654 0 0 0 0 0 103198847.029671 -33891383.03005596 -33891383.03005596 3291820.920032684 0 0 0 0 0 109246931.5203319 -31373502.20776129 -31373502.20776129 690617.9943703325 0 0 0 0 0 114205368.7237206 -28788056.83051157 -28788056.83051157 -1393545.921547337 0 0 0 0 0 118270763.6660635 -26175981.83137931 -26175981.83137931 -3026236.468610066 0 0 0 0 0 121564102.8909534 -23605662.18318233 -23605662.18318233 -4275209.099446808 0 0 0 0 0 124207035.4163458 -21117224.59007234 -21117224.59007234 -5196227.045968645 0 0 0 0 0 127461869.831077 -20506000.21123914 -20506000.21123914 -6366954.764844561 0 0 0 0 0 124763191.0676602 -18250305.86840054 -18250305.86840054 -7967585.123908112 0 0 0 0 0 126254110.9972697 -16220573.47833203 -16220573.47833203 -8259165.121127926 0 0 0 0 0 127450716.5789131 -14265121.87729285 -14265121.87729285 -8336672.647738799 0 0 0 0 0 128314577.376917 -12436277.41922809 -12436277.41922809 -8303092.182548473 0 0 0 0 0 127410336.0749282 -10892310.02223624 -10892310.02223624 -9600130.739808973 0 0 0 0 0 129739347.0777663 -12266957.48100349 -12266957.48100349 -9254391.507964067 0 0 0 0 0 127793408.2489457 -9421343.801594002 -9421343.801594002 -9337065.163561184 0 0 0 0 0 128025300.3381539 -8034161.819929846 -8034161.819929846 -8999919.747052314 0 0 0 0 0 128084993.1734572 -6769466.55450906 -6769466.55450906 -8638520.854597606 0 0 0 0 0 128020193.3562113 -5609332.341922443 -5609332.341922443 -8251233.010153945 0 0 0 0 0 127844497.9012911 -4550218.71423027 -4550218.71423027 -7850164.898709279 0 0 0 0 0 127585801.8366622 -3584301.311057408 -3584301.311057408 -7438313.509026348 0 0 0 0 0 127738760.152509 -3760977.902003691 -3760977.902003691 -8282724.525663955 0 0 0 0 0 126205896.6231482 -3154254.45965845 -3154254.45965845 -7964656.48721508 0 0 0 0 0 125854203.856583 -2374448.936238328 -2374448.936238328 -7535821.401119467 0 0 0 0 0 125468120.1521277 -1659997.127555242 -1659997.127555242 -7103010.55462336 0 0 0 0 0 125052099.8537374 -1005303.373995515 -1005303.373995515 -6673407.636955544 0 0 0 0 0 124604276.1287044 -407697.1410188039 -407697.1410188039 -6248298.143864567 0 0 0 0 0 124136832.5527838 134967.8963996918 134967.8963996918 -5833276.041254099 0 0 0 0 0 123945055.3951546 -110796.7984740139 -110796.7984740139 -6578328.570693153 0 0 0 0 0 122929888.6061431 164929.8119138324 164929.8119138324 -6159041.300313764 0 0 0 0 0 122473350.5508337 609642.9182028291 609642.9182028291 -5761393.292959222 0 0 0 0 0 121606077.5179176 -51159.35821073264 -51159.35821073264 -7023102.469175832 0 0 0 0 0 121152208.1229758 350669.2596704483 350669.2596704483 -6626816.495303391 0 0 0 0 0 120131045.7907777 312966.2058190065 312966.2058190065 -6754576.600157611 0 0 0 0 0 120342270.882491 517091.5220989102 517091.5220989102 -6193600.429656006 0 0 0 0 0 119701784.7540989 646330.5886931539 646330.5886931539 -6385446.654935246 0 0 0 0 0 119272225.523037 947233.7108483508 947233.7108483508 -6034893.77509471 0 0 0 0 0 118846935.282013 1224097.779938428 1224097.779938428 -5691783.33570583 0 0 0 0 0 118430172.7386523 1483388.853646902 1483388.853646902 -5354145.919813083 0 0 0 0 0 117591748.4092834 1359331.662565721 1359331.662565721 -5462868.493883951 0 0 0 0 0 117839143.9106244 1556777.8213525 1556777.8213525 -4966713.802251283 0 0 0 0 0 117205612.5556642 1580544.251301834 1580544.251301834 -5150022.450737714 0 0 0 0 0 116836041.6052458 1794358.501819049 1794358.501819049 -4832095.180379937 0 0 0 0 0 116444122.0971775 1979364.541852117 1979364.541852117 -4533305.67200568 0 0 0 0 0 116071975.2864874 2144196.52946926 2144196.52946926 -4258446.715528793 0 0 0 0 0 115701240.3974718 2289591.671484228 2289591.671484228 -3998521.50856924 0 0 0 0 0 115310426.5723648 2302451.002048586 2302451.002048586 -3678756.665265265 0 0 0 0 0 114712768.1130549 2232410.847572211 2232410.847572211 -3889861.8010513 0 0 0 0 0 114975006.8705253 2420302.849529899 2420302.849529899 -3460113.212431176 0 0 0 0 0 114378615.335951 2340980.485182596 2340980.485182596 -3660481.783348609 0 0 0 0 0 114051414.4559525 2441711.714640715 2441711.714640715 -3439752.759733014 0 0 0 0 0 113735396.7031466 2533463.265380601 2533463.265380601 -3227338.084786818 0 0 0 0 0 113425147.1483764 2615655.227189844 2615655.227189844 -3024050.633784477 0 0 0 0 0 112911972.7326794 2442542.608956373 2442542.608956373 -3135014.978108529 0 0 0 0 0 113150615.5022478 2605217.430666461 2605217.430666461 -2764151.46691189 0 0 0 0 0 112628010.1442254 2513926.362118764 2513926.362118764 -2945435.600946377 0 0 0 0 0 112349553.4427922 2575979.481879576 2575979.481879576 -2764668.11157856 0 0 0 0 0 112077348.199713 2631692.517061422 2631692.517061422 -2591097.227659692 0 0 0 0 0 111812042.9568177 2681491.59112545 2681491.59112545 -2424476.28558909 0 0 0 0 0 111553193.9784752 2725160.978203308 2725160.978203308 -2264912.940218077 0 0 0 0 0 111119047.172328 2739163.998203359 2739163.998203359 -1912273.208985812 0 0 0 0 0 111300778.4080588 2763227.045202521 2763227.045202521 -2112306.594387728 0 0 0 0 0 110909231.9547345 2600002.729563081 2600002.729563081 -2223335.538467038 0 0 0 0 0 110677049.6175444 2634594.402548786 2634594.402548786 -2079471.100853862 0 0 0 0 0 110455751.1249835 2667457.093736193 2667457.093736193 -1938142.377799434 0 0 0 0 0 110266884.9657872 2704909.963408211 2704909.963408211 -1784932.52490418 0 0 0 0 0 109851508.6471863 2554252.6273606 2554252.6273606 -1857693.341492778 0 0 0 0 0 110067114.8015872 2683649.188899531 2683649.188899531 -1599906.219996416 0 0 0 0 0 109632483.3709254 2532564.003928573 2532564.003928573 -1814597.362110005 0 0 0 0 0 122246236.8942085 371273.5308129787 371273.5308129787 -6438657.607369951 0 0 0 0 0 44388865.78558309 -41573817.08545102 -41573817.08545102 38439298.0589128 0 0 0 0 0 60543966.79460439 -42924448.4308647 -42924448.4308647 30325516.0476086 0 0 0 0 0 85142999.54009245 -40776897.92643315 -40776897.92643315 17864406.47685171 0 0 0 0 0 73876801.6566257 -42451975.53896825 -42451975.53896825 23079751.11786003 0 0 0 0 0 95113938.72950792 -39293812.97734075 -39293812.97734075 13086466.30348106 0 0 0 0 0 103625169.3057773 -37275416.19445401 -37275416.19445401 9106103.780355969 0 0 0 0 0 110647857.665802 -34894266.31385686 -34894266.31385686 5763445.742556683 0 0 0 0 0 116247912.8825041 -32197286.90313835 -32197286.90313835 2925154.571413584 0 0 0 0 0 120749096.5455673 -29430970.59100107 -29430970.59100107 609620.0230248179 0 0 0 0 0 124322643.1605571 -26671855.76422686 -26671855.76422686 -1244887.900102863 0 0 0 0 0 127118072.5589141 -23967711.30822493 -23967711.30822493 -2700979.127353891 0 0 0 0 0 129253690.8999216 -21370838.49765094 -21370838.49765094 -3817786.625129656 0 0 0 0 0 126275874.817744 -18740718.92571777 -18740718.92571777 -5851605.959740737 0 0 0 0 0 128956024.9024348 -18292193.8213481 -18292193.8213481 -6996139.255655599 0 0 0 0 0 130091995.496792 -16137462.98263118 -16137462.98263118 -7371543.85202942 0 0 0 0 0 130900266.8307392 -14150484.70610594 -14150484.70610594 -7570579.187165619 0 0 0 0 0 131385146.2630659 -12316084.02575935 -12316084.02575935 -7659679.009327726 0 0 0 0 0 130031388.4633904 -10668033.5276934 -10668033.5276934 -9137399.216166019 0 0 0 0 0 128882117.3547987 -10754440.83582859 -10754440.83582859 -8191045.915361311 0 0 0 0 0 130162338.7029642 -9164280.553952476 -9164280.553952476 -8917517.075451842 0 0 0 0 0 130121660.8666455 -7793243.882841548 -7793243.882841548 -8658096.120935142 0 0 0 0 0 129949289.5943506 -6530720.52577363 -6530720.52577363 -8347788.478950913 0 0 0 0 0 129664488.5170666 -5377949.800245683 -5377949.800245683 -8014535.5287926 0 0 0 0 0 129292866.4292005 -4324946.44388933 -4324946.44388933 -7657156.016852956 0 0 0 0 0 128852774.3081298 -3365312.082246948 -3365312.082246948 -7284217.198792493 0 0 0 0 0 127257060.8231457 -2704054.594166081 -2704054.594166081 -7024905.7312282 0 0 0 0 0 127301467.8391179 -2914267.063561319 -2914267.063561319 -7879268.223258256 0 0 0 0 0 126829471.7117378 -2140336.798910067 -2140336.798910067 -7468991.382919625 0 0 0 0 0 126323083.4108111 -1432622.189326375 -1432622.189326375 -7052737.504151042 0 0 0 0 0 125797261.300564 -789204.2483718451 -789204.2483718451 -6637158.426798619 0 0 0 0 0 125253967.8531943 -203666.5356672893 -203666.5356672893 -6226730.308824513 0 0 0 0 0 124693882.1159378 327493.6408211515 327493.6408211515 -5826314.809319536 0 0 0 0 0 123656632.9079809 624982.5492276124 624982.5492276124 -5433111.577415785 0 0 0 0 0 123421559.4461446 366783.9176045848 366783.9176045848 -6178361.07142555 0 0 0 0 0 122893107.0163068 799760.9516878277 799760.9516878277 -5788877.812640453 0 0 0 0 0 121371748.3647113 571459.0738725855 571459.0738725855 -6010011.191359377 0 0 0 0 0 120937188.0931818 942487.3753865134 942487.3753865134 -5630602.420074149 0 0 0 0 0 119938285.7955934 859293.7020874218 859293.7020874218 -5820192.579881358 0 0 0 0 0 120693419.1808913 715380.9071760492 715380.9071760492 -6245486.268924594 0 0 0 0 0 119527951.5240696 1166403.639080104 1166403.639080104 -5468495.757359586 0 0 0 0 0 119113205.8695143 1443714.089914084 1443714.089914084 -5137436.791839377 0 0 0 0 0 118694328.316962 1696418.280089544 1696418.280089544 -4816175.015590085 0 0 0 0 0 118281836.1937028 1929989.247696529 1929989.247696529 -4500064.935828302 0 0 0 0 0 117460103.0620716 1775855.48722378 1775855.48722378 -4662501.487452212 0 0 0 0 0 118009139.9980543 1715243.896078891 1715243.896078891 -5035644.980752907 0 0 0 0 0 117083349.4886838 1982994.79413328 1982994.79413328 -4363503.666265154 0 0 0 0 0 116706392.6157949 2174602.418881807 2174602.418881807 -4063782.620235497 0 0 0 0 0 116347959.6634489 2344785.92493775 2344785.92493775 -3781796.242265381 0 0 0 0 0 115980208.0218645 2489501.727715435 2489501.727715435 -3526372.725806194 0 0 0 0 0 115623926.1013618 2618943.486389483 2618943.486389483 -3284826.916974901 0 0 0 0 0 115333146.7693892 2415399.030512257 2415399.030512257 -3755784.355799683 0 0 0 0 0 114635496.7056988 2523145.98223182 2523145.98223182 -3242272.943133264 0 0 0 0 0 114982627.995033 2518831.96958933 2518831.96958933 -3534071.150325703 0 0 0 0 0 114306058.7689267 2619250.13153773 2619250.13153773 -3028322.255028509 0 0 0 0 0 113991924.9803305 2710228.10792159 2710228.10792159 -2821390.848434501 0 0 0 0 0 113680876.4964953 2790969.79396964 2790969.79396964 -2622834.230501388 0 0 0 0 0 113375798.6463251 2861741.521139205 2861741.521139205 -2433947.422245274 0 0 0 0 0 112864990.8502903 2674742.488237896 2674742.488237896 -2579235.547322518 0 0 0 0 0 113122198.2798317 2688923.727608474 2688923.727608474 -2827821.347199808 0 0 0 0 0 112585670.3696126 2735715.223108006 2735715.223108006 -2404677.596229458 0 0 0 0 0 112310735.5314138 2788847.230790062 2788847.230790062 -2237639.122511534 0 0 0 0 0 112042120.9753693 2835765.931094424 2835765.931094424 -2077243.919991485 0 0 0 0 0 111780264.3041635 2876962.856038992 2876962.856038992 -1923825.259982749 0 0 0 0 0 111524489.4516546 2912397.271467159 2912397.271467159 -1777696.614785308 0 0 0 0 0 111054728.4346426 2796247.489722376 2796247.489722376 -1966446.967987117 0 0 0 0 0 111274751.9718265 2942622.444717146 2942622.444717146 -1638528.973136393 0 0 0 0 0 110883581.6947305 2771261.53287701 2771261.53287701 -1774500.312487257 0 0 0 0 0 110653648.0595702 2798874.568470354 2798874.568470354 -1643605.33927092 0 0 0 0 0 110434851.3297845 2820418.326553614 2820418.326553614 -1520659.488801376 0 0 0 0 0 110195204.0784066 2832865.037659083 2832865.037659083 -1419800.365253811 0 0 0 0 0 109927535.5507658 2720147.180070214 2720147.180070214 -1496340.727936471 0 0 0 0 0 110097707.7078549 2761973.461861979 2761973.461861979 -1609636.393807864 0 0 0 0 0 122008678.3566952 1012850.801422795 1012850.801422795 -5378225.342107518 0 0 0 0 0 52823539.85927086 -45444555.15938781 -45444555.15938781 43212462.6584189 0 0 0 0 0 69023336.31578024 -45989395.39856388 -45989395.39856388 34407058.11261128 0 0 0 0 0 85139214.06496547 -41009423.44490135 -41009423.44490135 17171414.3275326 0 0 0 0 0 82867479.71100894 -45140277.00731187 -45140277.00731187 27087085.72734273 0 0 0 0 0 94747538.90685399 -39022426.97650257 -39022426.97650257 12369257.5186845 0 0 0 0 0 102821159.086007 -36423855.10130828 -36423855.10130828 8321497.144783949 0 0 0 0 0 109493751.9962747 -33548896.61492817 -33548896.61492817 5024115.834006425 0 0 0 0 0 114944205.9925829 -30611716.92926725 -30611716.92926725 2367650.825784788 0 0 0 0 0 119365709.843652 -27672718.19533671 -27672718.19533671 270716.980613981 0 0 0 0 0 122911256.1314516 -24799553.60472791 -24799553.60472791 -1354381.281640844 0 0 0 0 0 125714105.9432586 -22043548.48406561 -22043548.48406561 -2582967.540921029 0 0 0 0 0 127888713.4804438 -19433805.43356426 -19433805.43356426 -3481691.92418114 0 0 0 0 0 130820724.4904146 -18916922.46678613 -18916922.46678613 -4659328.425561513 0 0 0 0 0 127861333.6815413 -16521585.41507151 -16521585.41507151 -6286267.183086661 0 0 0 0 0 129036597.5044728 -14430107.38584767 -14430107.38584767 -6531869.518256245 0 0 0 0 0 129882595.926024 -12477727.26239613 -12477727.26239613 -6625282.665201287 0 0 0 0 0 130428464.1379129 -10689016.34343185 -10689016.34343185 -6612042.533198056 0 0 0 0 0 129229095.5407505 -9206849.037086025 -9206849.037086025 -8002656.732871968 0 0 0 0 0 131617729.6363367 -10613619.15028272 -10613619.15028272 -7643136.709190718 0 0 0 0 0 129395421.6962621 -7766453.421764983 -7766453.421764983 -7738244.445650483 0 0 0 0 0 129410917.0335203 -6449110.33986303 -6449110.33986303 -7429583.798689759 0 0 0 0 0 129280880.6705386 -5248478.975218672 -5248478.975218672 -7094368.079378726 0 0 0 0 0 129045735.9221272 -4156306.591227637 -4156306.591227637 -6736706.783132042 0 0 0 0 0 128722250.3000584 -3164081.10393783 -3164081.10393783 -6363670.806139547 0 0 0 0 0 128329175.9128523 -2265573.847672257 -2265573.847672257 -5982534.120781384 0 0 0 0 0 128359762.6632739 -2494660.342034207 -2494660.342034207 -6906825.210748021 0 0 0 0 0 126863321.0225719 -1908340.321418833 -1908340.321418833 -6612732.886880393 0 0 0 0 0 126409974.9825371 -1193261.980512569 -1193261.980512569 -6214978.648247167 0 0 0 0 0 125935705.5114479 -537633.1684714856 -537633.1684714856 -5811994.571293505 0 0 0 0 0 125437366.3587272 57866.29299156528 57866.29299156528 -5413227.972201688 0 0 0 0 0 124917539.5376799 597794.0876256338 597794.0876256338 -5020717.282888494 0 0 0 0 0 124386182.3036463 1085345.409373719 1085345.409373719 -4637721.11637363 0 0 0 0 0 124120439.0367882 803029.7731021665 803029.7731021665 -5442703.996029025 0 0 0 0 0 123158040.9480681 1064540.734225788 1064540.734225788 -5049867.112550219 0 0 0 0 0 122651780.2786764 1460799.926942694 1460799.926942694 -4681935.409281258 0 0 0 0 0 121754339.5187598 767711.1812980137 767711.1812980137 -6051658.384588124 0 0 0 0 0 121260949.5784299 1126739.130607639 1126739.130607639 -5678342.196314856 0 0 0 0 0 120229083.8875686 1044358.572298818 1044358.572298818 -5881279.090780374 0 0 0 0 0 120498546.2871448 1278529.705480796 1278529.705480796 -5266672.046058688 0 0 0 0 0 119769421.9592801 1340301.467599318 1340301.467599318 -5535366.354440244 0 0 0 0 0 119314643.0598229 1605071.784628927 1605071.784628927 -5207086.262663077 0 0 0 0 0 118866975.7543403 1851277.282487482 1851277.282487482 -4880095.50428532 0 0 0 0 0 118423449.8495613 2075288.161709284 2075288.161709284 -4565020.484401643 0 0 0 0 0 117601598.5669159 1927521.120821339 1927521.120821339 -4726555.597847353 0 0 0 0 0 117877729.7177752 2139674.799004808 2139674.799004808 -4200164.368174769 0 0 0 0 0 117196706.4995814 2123203.356214201 2123203.356214201 -4423413.897446643 0 0 0 0 0 116802377.040867 2307108.644125802 2307108.644125802 -4120647.922598101 0 0 0 0 0 116395147.0525685 2463141.67508553 2463141.67508553 -3850061.173270427 0 0 0 0 0 116008504.7799419 2600074.848465317 2600074.848465317 -3594696.992963042 0 0 0 0 0 115624765.2848683 2718869.659357921 2718869.659357921 -3355118.999883025 0 0 0 0 0 115281604.0742367 2730479.914186286 2730479.914186286 -3059526.499443442 0 0 0 0 0 114636474.2563945 2619143.397545282 2619143.397545282 -3311792.697673529 0 0 0 0 0 114917478.6410889 2816443.831756525 2816443.831756525 -2862241.358536585 0 0 0 0 0 114298997.9405211 2714246.50609595 2714246.50609595 -3094606.25592498 0 0 0 0 0 113967656.3188386 2798417.057293048 2798417.057293048 -2887137.321621454 0 0 0 0 0 113644276.6735816 2872790.273322807 2872790.273322807 -2687184.10135381 0 0 0 0 0 113329403.7191082 2938246.208795299 2938246.208795299 -2497008.966566854 0 0 0 0 0 112826378.4036046 2752892.816757056 2752892.816757056 -2642402.014153524 0 0 0 0 0 113077714.906285 2923458.98338982 2923458.98338982 -2254416.681746345 0 0 0 0 0 112537147.3987527 2807744.370029442 2807744.370029442 -2466342.540486906 0 0 0 0 0 112254591.039414 2856332.608822587 2856332.608822587 -2297529.055755091 0 0 0 0 0 111979593.0987712 2899262.911150523 2899262.911150523 -2135444.612347018 0 0 0 0 0 111711446.6278052 2936176.986460903 2936176.986460903 -1980614.294761304 0 0 0 0 0 111450275.7104738 2967496.821983304 2967496.821983304 -1832949.85406571 0 0 0 0 0 111031150.9568889 2968110.906873975 2968110.906873975 -1506405.359687594 0 0 0 0 0 111195926.9012954 2993738.073012384 2993738.073012384 -1692113.850018527 0 0 0 0 0 110815130.7474434 2824707.13348564 2824707.13348564 -1827179.136270766 0 0 0 0 0 110583652.8356826 2849216.249926261 2849216.249926261 -1694710.999591009 0 0 0 0 0 110360875.3003268 2866855.995511431 2866855.995511431 -1571906.223049245 0 0 0 0 0 110131138.8594835 2867546.556567917 2867546.556567917 -1460812.793419231 0 0 0 0 0 109704474.2351096 2725068.038898092 2725068.038898092 -1498977.116623196 0 0 0 0 0 109897638.9312625 2832706.420519991 2832706.420519991 -1356220.494430126 0 0 0 0 0 122361206.4234097 1190287.799583749 1190287.799583749 -5414325.331584903 0 0 0 0 0 54305496.95074835 -48016268.033844 -48016268.033844 42136273.36684011 0 0 0 0 0 69670583.54846267 -47334071.20404156 -47334071.20404156 33020822.49223981 0 0 0 0 0 94019645.56378555 -43200294.78433033 -43200294.78433033 20776893.75690411 0 0 0 0 0 82658228.06841181 -45429831.68144546 -45429831.68144546 25372958.76665305 0 0 0 0 0 103460746.653483 -40754262.99804801 -40754262.99804801 15595290.68954877 0 0 0 0 0 111289258.7476132 -37923193.10544201 -37923193.10544201 11360984.24919262 0 0 0 0 0 117408219.873419 -34814751.05775455 -34814751.05775455 7775583.567718276 0 0 0 0 0 122252213.1093725 -31619113.30646279 -31619113.30646279 4799587.653650519 0 0 0 0 0 126072060.2283964 -28471480.95211086 -28471480.95211086 2416854.427424559 0 0 0 0 0 129016275.9349351 -25423678.54686629 -25423678.54686629 527805.4327271876 0 0 0 0 0 131226289.3464977 -22517829.2298625 -22517829.2298625 -943450.7505042605 0 0 0 0 0 132829406.7423142 -19785886.44032751 -19785886.44032751 -2061697.38338734 0 0 0 0 0 129531994.216192 -16991580.22711516 -16991580.22711516 -4110899.783526341 0 0 0 0 0 131938873.2603472 -16600641.48595717 -16600641.48595717 -5259669.235934081 0 0 0 0 0 132696784.5507239 -14446636.46884356 -14446636.46884356 -5635173.050090903 0 0 0 0 0 133131449.1541887 -12466396.02771216 -12466396.02771216 -5860560.230048723 0 0 0 0 0 133306254.7413373 -10640939.19633644 -10640939.19633644 -5959914.561879539 0 0 0 0 0 131669798.4109883 -9034520.336108675 -9034520.336108675 -7527744.235595691 0 0 0 0 0 130734563.6833028 -9043730.021521941 -9043730.021521941 -6505750.723262176 0 0 0 0 0 131563404.0886275 -7588923.733848353 -7588923.733848353 -7331149.656535841 0 0 0 0 0 131313093.8833008 -6273136.538161351 -6273136.538161351 -7094682.837088518 0 0 0 0 0 130953627.9945195 -5073024.393942723 -5073024.393942723 -6813930.771831066 0 0 0 0 0 130508425.1189303 -3981568.18436392 -3981568.18436392 -6505957.500211205 0 0 0 0 0 129995724.7142653 -2992240.600927387 -2992240.600927387 -6176086.736042404 0 0 0 0 0 129431347.9537359 -2098690.134700887 -2098690.134700887 -5834212.088097994 0 0 0 0 0 127876757.9875282 -1457526.778504655 -1457526.778504655 -5600504.458754882 0 0 0 0 0 127814934.3544106 -1712160.511025917 -1712160.511025917 -6532105.389152991 0 0 0 0 0 127251482.5134139 -998334.2903186204 -998334.2903186204 -6150426.146155539 0 0 0 0 0 126656288.5095169 -354880.0320551191 -354880.0320551191 -5764166.815960336 0 0 0 0 0 126053915.6719783 231363.7535301754 231363.7535301754 -5379830.788577781 0 0 0 0 0 125448608.7916689 762186.1926372839 762186.1926372839 -5000596.009970001 0 0 0 0 0 124827578.8103784 1236797.019841526 1236797.019841526 -4632704.261226542 0 0 0 0 0 123846748.3764888 1521732.177480833 1521732.177480833 -4270080.453864282 0 0 0 0 0 123546109.1192699 1231636.966316554 1231636.966316554 -5069194.739135562 0 0 0 0 0 122972683.4054151 1616163.524130247 1616163.524130247 -4710640.317655671 0 0 0 0 0 121536818.0372197 1376404.522620097 1376404.522620097 -5010909.54254301 0 0 0 0 0 121061947.2888642 1704326.328845952 1704326.328845952 -4659001.190982858 0 0 0 0 0 120061287.2437003 1581708.702394814 1581708.702394814 -4919187.878010157 0 0 0 0 0 120768076.0099507 1451274.305514039 1451274.305514039 -5319776.198152749 0 0 0 0 0 119618116.9236864 1850532.433492813 1850532.433492813 -4594324.503041181 0 0 0 0 0 119167314.5391679 2087823.672293549 2087823.672293549 -4290047.34724062 0 0 0 0 0 118728620.272996 2310328.284087685 2310328.284087685 -3986281.783464203 0 0 0 0 0 118295987.1726579 2511603.644086432 2511603.644086432 -3695248.329400984 0 0 0 0 0 117473993.4890169 2333383.019043883 2333383.019043883 -3912574.835838636 0 0 0 0 0 117984656.1642819 2276695.998850017 2276695.998850017 -4266793.720221656 0 0 0 0 0 117077576.3666195 2511864.803595779 2511864.803595779 -3625331.813868104 0 0 0 0 0 116682449.9700015 2673297.701304317 2673297.701304317 -3348718.348973234 0 0 0 0 0 116309446.4042818 2814916.038010314 2814916.038010314 -3090092.282793414 0 0 0 0 0 115930092.9499661 2934499.375292861 2934499.375292861 -2851999.750859923 0 0 0 0 0 115563662.8632628 3039397.175441186 3039397.175441186 -2629759.063462612 0 0 0 0 0 115241747.3172899 2816917.896078804 2816917.896078804 -3138159.791691723 0 0 0 0 0 114573395.6065017 2904301.605354071 2904301.605354071 -2656600.998032433 0 0 0 0 0 114888312.2292544 2907227.30869812 2907227.30869812 -2933771.229229277 0 0 0 0 0 114241366.9789329 2987006.376536286 2987006.376536286 -2454051.457446171 0 0 0 0 0 113915759.5401475 3058685.264673747 3058685.264673747 -2262099.756484577 0 0 0 0 0 113597284.8085185 3121034.438348048 3121034.438348048 -2079636.151692537 0 0 0 0 0 113286009.1886795 3174240.765647078 3174240.765647078 -1906723.727616657 0 0 0 0 0 112786678.8411919 2976705.504877024 2976705.504877024 -2085480.942459167 0 0 0 0 0 113021416.9623749 2994360.152034388 2994360.152034388 -2316786.48198122 0 0 0 0 0 112500548.1595295 3022192.808082886 3022192.808082886 -1924262.661931788 0 0 0 0 0 112221546.3043505 3061731.888214699 3061731.888214699 -1769338.327659517 0 0 0 0 0 111949882.770592 3095874.974358105 3095874.974358105 -1621311.679044659 0 0 0 0 0 111685004.8304513 3124367.43123209 3124367.43123209 -1480492.413032538 0 0 0 0 0 111426614.0403854 3147628.297137875 3147628.297137875 -1346631.830338307 0 0 0 0 0 110947769.738588 3014989.815801965 3014989.815801965 -1558194.6300599 0 0 0 0 0 111174704.5298425 3166166.016895198 3166166.016895198 -1219246.032913457 0 0 0 0 0 110793896.1513495 2988866.423591901 2988866.423591901 -1381687.140237585 0 0 0 0 0 110565660.5220373 3003362.754888941 3003362.754888941 -1265575.938375647 0 0 0 0 0 110348594.1194438 3014525.378844197 3014525.378844197 -1158663.920429381 0 0 0 0 0 110131955.3956096 2994912.660339784 2994912.660339784 -1162956.949160724 0 0 0 0 0 109981939.1746832 2904980.172933029 2904980.172933029 -1225252.155248981 0 0 0 0 0 122140939.9715647 1816153.853177425 1816153.853177425 -4329726.28294535 0 0 0 0 0 64225412.5920098 -52331228.59909175 -52331228.59909175 47338877.57597169 0 0 0 0 0 80045823.00832054 -51038985.2052931 -51038985.2052931 37958835.61172932 0 0 0 0 0 93392192.11516817 -42853308.88292466 -42853308.88292466 19137182.058096 0 0 0 0 0 92947980.0084918 -48508927.08533371 -48508927.08533371 29922911.82307651 0 0 0 0 0 102394500.0801082 -39779387.56819452 -39779387.56819452 14040389.24122654 0 0 0 0 0 109826523.9512336 -36387626.84930663 -36387626.84930663 9913631.214439297 0 0 0 0 0 115773977.8756372 -32973911.06227827 -32973911.06227827 6597402.321184858 0 0 0 0 0 120571368.6788753 -29617124.66499348 -29617124.66499348 3957449.797551088 0 0 0 0 0 124387522.7812406 -26366436.38955468 -26366436.38955468 1897189.454592087 0 0 0 0 0 127369699.5462366 -23271842.93009069 -23271842.93009069 321699.1337836871 0 0 0 0 0 129644875.6624358 -20367260.61759142 -20367260.61759142 -858813.2313231571 0 0 0 0 0 131331770.4416947 -17669170.72248825 -17669170.72248825 -1717655.118873877 0 0 0 0 0 133934838.0188804 -17242453.04740199 -17242453.04740199 -2888139.224737552 0 0 0 0 0 130730160.9402212 -14723364.19423359 -14723364.19423359 -4524128.912495296 0 0 0 0 0 131546198.3913536 -12628132.7051553 -12628132.7051553 -4763562.703235759 0 0 0 0 0 132050900.3647594 -10709153.63181372 -10709153.63181372 -4867967.417628241 0 0 0 0 0 132303630.1822908 -8958408.123820392 -8958408.123820392 -4859892.721720361 0 0 0 0 0 130840923.8743423 -7536876.230517291 -7536876.230517291 -6324539.886580918 0 0 0 0 0 133272723.6872963 -8969246.92926337 -8969246.92926337 -5951739.028377406 0 0 0 0 0 130783389.380832 -6160803.23140248 -6160803.23140248 -6085666.930804959 0 0 0 0 0 130593133.9401977 -4913849.069184196 -4913849.069184196 -5807149.994498258 0 0 0 0 0 130290680.5359188 -3782364.443349962 -3782364.443349962 -5499147.924597429 0 0 0 0 0 129901057.5085961 -2759064.261811137 -2759064.261811137 -5170924.899371701 0 0 0 0 0 129442285.7740439 -1838023.761924436 -1838023.761924436 -4829263.189915891 0 0 0 0 0 128928494.573733 -1008725.325529944 -1008725.325529944 -4486657.542523134 0 0 0 0 0 128830008.8725309 -1293556.357651413 -1293556.357651413 -5484809.661860199 0 0 0 0 0 127382972.5228458 -727815.7152218686 -727815.7152218686 -5224930.266273848 0 0 0 0 0 126838692.4505656 -69684.84131057133 -69684.84131057133 -4856579.067922358 0 0 0 0 0 126286504.9034638 527439.4958810443 527439.4958810443 -4488450.523082637 0 0 0 0 0 125714288.2242174 1062310.777596296 1062310.777596296 -4125878.417767621 0 0 0 0 0 125128141.6109364 1545245.254030444 1545245.254030444 -3768792.094584599 0 0 0 0 0 124540693.6557962 1977456.078261272 1977456.078261272 -3421183.354617033 0 0 0 0 0 124208696.5988608 1664351.073762957 1664351.073762957 -4277663.661634051 0 0 0 0 0 123300575.1226373 1912509.749207668 1912509.749207668 -3918662.020795743 0 0 0 0 0 122748824.4250892 2259515.720397858 2259515.720397858 -3585055.585090072 0 0 0 0 0 121830059.6204373 1542199.036712874 1542199.036712874 -5053319.281926608 0 0 0 0 0 121301853.2114318 1858701.630697799 1858701.630697799 -4706486.108566503 0 0 0 0 0 120273417.6103226 1740697.233852116 1740697.233852116 -4981630.566385252 0 0 0 0 0 120587526.7925091 1998713.97713509 1998713.97713509 -4322128.411005571 0 0 0 0 0 119781326.730079 1995052.85115681 1995052.85115681 -4663256.893089162 0 0 0 0 0 119308103.047988 2229355.588803546 2229355.588803546 -4354117.480170798 0 0 0 0 0 118837383.7518822 2442164.606671201 2442164.606671201 -4050041.890784069 0 0 0 0 0 118374073.1602884 2633494.637869574 2633494.637869574 -3759402.246955942 0 0 0 0 0 117567511.2582718 2463440.961900416 2463440.961900416 -3971784.652783948 0 0 0 0 0 117871964.2996145 2691756.048947166 2691756.048947166 -3417644.251432932 0 0 0 0 0 117146224.8162549 2633290.871150866 2633290.871150866 -3684601.737570044 0 0 0 0 0 116729771.4398438 2784954.013627487 2784954.013627487 -3406908.907511336 0 0 0 0 0 116314853.9055951 2916396.949766536 2916396.949766536 -3157060.674371472 0 0 0 0 0 115918076.1988234 3030923.620016915 3030923.620016915 -2920155.703990987 0 0 0 0 0 115528072.7458229 3127320.746723993 3127320.746723993 -2699986.947092917 0 0 0 0 0 115208498.5975785 3126934.460538573 3126934.460538573 -2434989.61500036 0 0 0 0 0 114540776.5393817 2991552.316255963 2991552.316255963 -2723624.593105362 0 0 0 0 0 114839687.2541085 3198275.651236013 3198275.651236013 -2247754.653895279 0 0 0 0 0 114195759.3683167 3066448.937824438 3066448.937824438 -2518951.58696605 0 0 0 0 0 113858968.1174593 3132124.809928791 3132124.809928791 -2325580.358952789 0 0 0 0 0 113530451.3728472 3188910.035870975 3188910.035870975 -2141844.483169555 0 0 0 0 0 113210940.8802244 3237275.482266316 3237275.482266316 -1967917.855689779 0 0 0 0 0 112720808.5147607 3041672.446429248 3041672.446429248 -2146325.23724618 0 0 0 0 0 112983339.1761461 3219616.852310489 3219616.852310489 -1744128.05974653 0 0 0 0 0 112427810.2470949 3082843.03011734 3082843.03011734 -1983368.157264633 0 0 0 0 0 112142969.824311 3118639.574241062 3118639.574241062 -1826801.349899679 0 0 0 0 0 111865715.3518841 3148591.967702448 3148591.967702448 -1677271.143435067 0 0 0 0 0 111595747.5605015 3173073.843648665 3173073.843648665 -1534976.525112442 0 0 0 0 0 111333242.1534124 3192641.52759128 3192641.52759128 -1399561.372574776 0 0 0 0 0 110929051.7463652 3180173.31816171 3180173.31816171 -1097071.88272968 0 0 0 0 0 111077990.294922 3207773.344630409 3207773.344630409 -1270678.323439395 0 0 0 0 0 110703954.0782885 3030634.148827429 3030634.148827429 -1431739.778775094 0 0 0 0 0 110458319.7415912 3036928.152410886 3036928.152410886 -1314485.178924761 0 0 0 0 0 110209672.7027505 3032785.182955387 3032785.182955387 -1199427.585767034 0 0 0 0 0 109995590.8252963 2991302.199962114 2991302.199962114 -1147889.484506004 0 0 0 0 0 109764936.0102225 2925807.230640249 2925807.230640249 -1182173.536318961 0 0 0 0 0 122402302.4054777 1960912.189417562 1960912.189417562 -4365490.454430578 0 0 0 0 0 64884277.95116961 -53998295.13284071 -53998295.13284071 44717446.10620334 0 0 0 0 0 79799213.4989353 -51560305.64222778 -51560305.64222778 35109159.71862007 0 0 0 0 0 103603069.0275897 -45439888.48407396 -45439888.48407396 23305547.81640254 0 0 0 0 0 91900867.96791419 -48010324.81195608 -48010324.81195608 26950522.49560947 0 0 0 0 0 112184021.051687 -41885665.82384287 -41885665.82384287 17787209.02246617 0 0 0 0 0 118825767.2907716 -38165854.4884579 -38165854.4884579 13274265.51478223 0 0 0 0 0 124012726.5920372 -34421284.95620961 -34421284.95620961 9550523.088885948 0 0 0 0 0 128078439.5180077 -30781429.53957542 -30781429.53957542 6543202.020464027 0 0 0 0 0 131170133.8078218 -27293323.26203252 -27293323.26203252 4148382.645155671 0 0 0 0 0 133441321.6414712 -24002774.44928947 -24002774.44928947 2269270.246118249 0 0 0 0 0 135045568.5667132 -20937260.6614702 -20937260.6614702 819281.9852759404 0 0 0 0 0 136108904.8813026 -18109130.67120492 -18109130.67120492 -276803.2738227193 0 0 0 0 0 132531946.1300285 -15184647.93641749 -15184647.93641749 -2317903.156947075 0 0 0 0 0 134633906.1967043 -14893948.53753252 -14893948.53753252 -3475167.47009342 0 0 0 0 0 134994276.8121087 -12742733.20362142 -12742733.20362142 -3864744.13860307 0 0 0 0 0 135087788.4515359 -10775376.8784099 -10775376.8784099 -4100624.883937981 0 0 0 0 0 134966286.7469175 -8983588.527299168 -8983588.527299168 -4207305.662695655 0 0 0 0 0 133075009.7464487 -7442800.872105968 -7442800.872105968 -5853335.019504898 0 0 0 0 0 132350861.9916485 -7364767.033288577 -7364767.033288577 -4762388.238612569 0 0 0 0 0 132741164.4879839 -6056968.463294359 -6056968.463294359 -5688382.185057686 0 0 0 0 0 132299581.1060512 -4800656.44804636 -4800656.44804636 -5476280.408427816 0 0 0 0 0 131773537.2123125 -3665264.328082282 -3665264.328082282 -5224175.506486414 0 0 0 0 0 131182086.1807058 -2640932.503552998 -2640932.503552998 -4944833.847989515 0 0 0 0 0 130538676.0687367 -1720440.193327293 -1720440.193327293 -4647164.76324793 0 0 0 0 0 129863247.547615 -896688.0380186264 -896688.0380186264 -4341523.770698098 0 0 0 0 0 128369767.5691387 -266303.9090174194 -266303.9090174194 -4142227.570470809 0 0 0 0 0 128192032.9736014 -576381.9097925135 -576381.9097925135 -5143571.276367175 0 0 0 0 0 127539162.4704322 74048.75983643874 74048.75983643874 -4790874.127640291 0 0 0 0 0 126873566.6262198 664581.5053139672 664581.5053139672 -4442005.437842007 0 0 0 0 0 126205901.6047427 1192269.635425799 1192269.635425799 -4093532.989856382 0 0 0 0 0 125542472.3493163 1666507.960889749 1666507.960889749 -3749312.430317644 0 0 0 0 0 124873201.4288142 2091511.425408491 2091511.425408491 -3414712.044258763 0 0 0 0 0 123950921.1662424 2363470.913431964 2363470.913431964 -3087766.964691184 0 0 0 0 0 123588875.2557376 2042534.794558083 2042534.794558083 -3938055.951393653 0 0 0 0 0 122977067.6957415 2379760.258177727 2379760.258177727 -3612132.61064508 0 0 0 0 0 121629124.8275998 2134928.637602073 2134928.637602073 -3992024.959106143 0 0 0 0 0 121118841.7462708 2420112.41999429 2420112.41999429 -3668867.489575493 0 0 0 0 0 120116664.1729837 2260732.056542675 2260732.056542675 -4001174.009766067 0 0 0 0 0 120776314.5540522 2141789.656874254 2141789.656874254 -4374870.48378049 0 0 0 0 0 119644389.1891058 2489864.882870699 2489864.882870699 -3709223.37575557 0 0 0 0 0 119171572.4259963 2697292.186757152 2697292.186757152 -3425129.406758089 0 0 0 0 0 118711707.5106525 2886573.962904451 2886573.962904451 -3146020.513029795 0 0 0 0 0 118259142.3864931 3055404.254763438 3055404.254763438 -2880192.800832862 0 0 0 0 0 117439799.8895515 2852704.638380724 2852704.638380724 -3148495.567123068 0 0 0 0 0 117918889.4772923 2804704.518499054 2804704.518499054 -3482289.156900905 0 0 0 0 0 117026832.7639772 3002918.91575091 3002918.91575091 -2883688.45108487 0 0 0 0 0 116623029.433296 3138033.94310674 3138033.94310674 -2629250.789786876 0 0 0 0 0 116234651.5929318 3254323.624622519 3254323.624622519 -2398033.204454882 0 0 0 0 0 115846136.1586191 3351658.436146689 3351658.436146689 -2184734.908534023 0 0 0 0 0 115464071.6943316 3430525.383759608 3430525.383759608 -1986559.625913984 0 0 0 0 0 115132727.9082625 3197475.823900969 3197475.823900969 -2508717.335402037 0 0 0 0 0 114487175.2210983 3267194.401456076 3267194.401456076 -2058027.384772136 0 0 0 0 0 114774666.8963653 3269073.533135108 3269073.533135108 -2313145.557429736 0 0 0 0 0 114146418.2037692 3329171.460225622 3329171.460225622 -1874645.447826235 0 0 0 0 0 113814392.5706494 3382541.012780017 3382541.012780017 -1700264.797151686 0 0 0 0 0 113491492.3924734 3427835.522844934 3427835.522844934 -1535143.050934013 0 0 0 0 0 113177074.7227009 3465069.756310848 3465069.756310848 -1379473.596017795 0 0 0 0 0 112686537.8560395 3257547.135142578 3257547.135142578 -1589460.025896084 0 0 0 0 0 112899900.6665624 3277101.19617369 3277101.19617369 -1803823.752154682 0 0 0 0 0 112397066.2359393 3289508.482705752 3289508.482705752 -1441067.665564602 0 0 0 0 0 112115629.472881 3316299.908613838 3316299.908613838 -1299359.136359594 0 0 0 0 0 111841321.7222841 3337567.816131418 3337567.816131418 -1164757.362988848 0 0 0 0 0 111574241.1803049 3353802.814306343 3353802.814306343 -1037141.39618287 0 0 0 0 0 111314197.7928892 3365541.571874398 3365541.571874398 -916362.9367273995 0 0 0 0 0 110829782.1848041 3219436.619444319 3219436.619444319 -1147516.356786605 0 0 0 0 0 111060780.8744075 3373393.018938059 3373393.018938059 -802361.9597276812 0 0 0 0 0 110690260.1668553 3189715.124243042 3189715.124243042 -977749.8256742754 0 0 0 0 0 110454444.4538049 3196748.465915565 3196748.465915565 -866168.531404433 0 0 0 0 0 110258630.4602852 3176978.881418855 3176978.881418855 -865286.1014742558 0 0 0 0 0 110027405.1083867 3098460.014465593 3098460.014465593 -857655.6802161346 0 0 0 0 0 122198555.6536004 2569095.518209328 2569095.518209328 -3265793.206520199 0 0 0 0 0 76584873.08993801 -58767470.13735495 -58767470.13735495 50442451.78682262 0 0 0 0 0 91740088.46473642 -55611799.62871519 -55611799.62871519 40587637.84109236 0 0 0 0 0 102024798.4254479 -44173368.78945778 -44173368.78945778 20398799.04956006 0 0 0 0 0 103623356.9287373 -51580749.57648644 -51580749.57648644 32220899.82396239 0 0 0 0 0 110262067.1583439 -40039274.61456375 -40039274.61456375 15367990.40217485 0 0 0 0 0 116763670.4899429 -36004041.8748302 -36004041.8748302 11283215.78281433 0 0 0 0 0 121948981.3794558 -32117736.09326866 -32117736.09326866 8017146.940822547 0 0 0 0 0 126050695.7822851 -28387467.65546668 -28387467.65546668 5464307.029933877 0 0 0 0 0 129216553.7890897 -24867838.19702455 -24867838.19702455 3498574.022778343 0 0 0 0 0 131592022.3639323 -21597346.16842512 -21597346.16842512 2009423.479032981 0 0 0 0 0 133314536.0145152 -18588236.7520364 -18588236.7520364 898808.0026178743 0 0 0 0 0 134504191.6143794 -15841782.3206041 -15841782.3206041 93353.93273127428 0 0 0 0 0 136736165.0574089 -15520245.61547045 -15520245.61547045 -1085090.445569008 0 0 0 0 0 133327317.9270953 -12911268.62226968 -12911268.62226968 -2711679.204890676 0 0 0 0 0 133787984.3775282 -10838403.25633369 -10838403.25633369 -2943663.020570493 0 0 0 0 0 133975686.0758659 -8959889.037234265 -8959889.037234265 -3046469.808204024 0 0 0 0 0 133948261.4315857 -7261754.80337074 -7261754.80337074 -3044648.36054138 0 0 0 0 0 132226236.7264663 -5919432.635991721 -5919432.635991721 -4597612.990425105 0 0 0 0 0 134674086.606591 -7359593.146273627 -7359593.146273627 -4210679.19158012 0 0 0 0 0 131962076.6352887 -4612892.360158981 -4612892.360158981 -4383736.159879841 0 0 0 0 0 131587122.3829355 -3435534.555159202 -3435534.555159202 -4133698.398642284 0 0 0 0 0 131122644.1398642 -2376653.779367584 -2376653.779367584 -3857317.061422453 0 0 0 0 0 130590659.538204 -1427003.729314446 -1427003.729314446 -3563200.548154882 0 0 0 0 0 130009037.5234543 -576771.675624958 -576771.675624958 -3259644.230988658 0 0 0 0 0 129381054.4785439 179013.8329422068 179013.8329422068 -2956376.106291236 0 0 0 0 0 129157010.6279947 -160228.7176422112 -160228.7176422112 -4030575.160601996 0 0 0 0 0 127774315.5282297 398162.4657567488 398162.4657567488 -3808172.14689371 0 0 0 0 0 127152763.931059 993442.7102656831 993442.7102656831 -3470155.879220878 0 0 0 0 0 126522384.2020746 1526221.733685684 1526221.733685684 -3141176.975908563 0 0 0 0 0 125887131.4735215 2003804.921171224 2003804.921171224 -2815319.735485171 0 0 0 0 0 125243480.19725 2430745.804215494 2430745.804215494 -2495523.720645902 0 0 0 0 0 124609402.9525241 2813364.066884255 2813364.066884255 -2185870.674882754 0 0 0 0 0 124208361.1095413 2465947.426182843 2465947.426182843 -3095082.976588566 0 0 0 0 0 123359352.0386276 2703103.345793232 2703103.345793232 -2774741.11736825 0 0 0 0 0 122769662.2986606 3003553.915673101 3003553.915673101 -2476700.891290848 0 0 0 0 0 121837248.8444841 2269573.618669147 2269573.618669147 -4033651.012368264 0 0 0 0 0 121280086.6695995 2545406.965036212 2545406.965036212 -3715346.489067001 0 0 0 0 0 120252975.8807991 2392122.13818536 2392122.13818536 -4063579.118827743 0 0 0 0 0 120614568.9682791 2675220.391061963 2675220.391061963 -3361448.573374039 0 0 0 0 0 119744661.0929413 2612816.735195176 2612816.735195176 -3774486.340184868 0 0 0 0 0 119248817.4405696 2812540.800230534 2812540.800230534 -3486287.663449734 0 0 0 0 0 118759479.2072707 2993326.729933117 2993326.729933117 -3207143.802241047 0 0 0 0 0 118280294.8459699 3153737.036760337 3153737.036760337 -2941782.300910588 0 0 0 0 0 117484969.0372814 2963212.375543848 2963212.375543848 -3207113.216132735 0 0 0 0 0 117817290.3860775 3206028.383582659 3206028.383582659 -2627454.05719639 0 0 0 0 0 117059416.896839 3108047.16901082 3108047.16901082 -2940627.288300935 0 0 0 0 0 116630686.2976854 3232892.270346309 3232892.270346309 -2686978.816067638 0 0 0 0 0 116210645.6255485 3336202.15752641 3336202.15752641 -2459358.619434908 0 0 0 0 0 115796280.64915 3420941.889488921 3420941.889488921 -2246201.939901656 0 0 0 0 0 115386262.8908296 3489863.049228064 3489863.049228064 -2049301.795126913 0 0 0 0 0 115094682.6007341 3488433.737625038 3488433.737625038 -1813114.524341078 0 0 0 0 0 114419202.4003288 3335793.407020168 3335793.407020168 -2120829.088590346 0 0 0 0 0 114728071.7665808 3547936.895591299 3547936.895591299 -1634191.988734995 0 0 0 0 0 114069062.8856177 3392823.35930726 3392823.35930726 -1936392.522339495 0 0 0 0 0 113728479.8990429 3441270.34778711 3441270.34778711 -1760713.004125632 0 0 0 0 0 113396383.7228171 3481253.078684234 3481253.078684234 -1594484.66202845 0 0 0 0 0 113073414.0960262 3513380.153046448 3513380.153046448 -1437563.700218449 0 0 0 0 0 112596831.412376 3310599.953902979 3310599.953902979 -1647390.36284336 0 0 0 0 0 112868662.6694594 3494479.620570148 3494479.620570148 -1232423.657035562 0 0 0 0 0 112302087.904601 3338967.718580732 3338967.718580732 -1497387.31593211 0 0 0 0 0 112015482.5294862 3361720.698734449 3361720.698734449 -1354176.569844417 0 0 0 0 0 111736767.1645304 3379215.85472358 3379215.85472358 -1218062.017853511 0 0 0 0 0 111465928.4954157 3391840.224192107 3391840.224192107 -1088895.775265089 0 0 0 0 0 111202926.5884192 3400007.928805655 3400007.928805655 -966420.7506054618 0 0 0 0 0 110814645.0593556 3378008.553591788 3378008.553591788 -694687.2534892421 0 0 0 0 0 110947508.2448323 3404287.824537006 3404287.824537006 -850453.8146686919 0 0 0 0 0 110591026.0614706 3229412.260476985 3229412.260476985 -1028508.560996758 0 0 0 0 0 110379301.4392788 3239966.348604984 3239966.348604984 -912791.4913236699 0 0 0 0 0 110029428.3891969 3169624.00471427 3169624.00471427 -799135.9313143691 0 0 0 0 0 109817238.1272053 3110624.804856561 3110624.804856561 -852338.0062970807 0 0 0 0 0 122373526.2802656 2680146.726194318 2680146.726194318 -3299323.790298285 0 0 0 0 0 76520395.12568356 -59682884.15559365 -59682884.15559365 46394863.36175324 0 0 0 0 0 90559628.91438164 -55229315.14047859 -55229315.14047859 36528290.0226999 0 0 0 0 0 113622071.9722926 -47103565.98430509 -47103565.98430509 25151514.83781616 0 0 0 0 0 101758674.2715423 -50383404.56283402 -50383404.56283402 27884037.42541026 0 0 0 0 0 120670280.7570486 -42484338.49264103 -42484338.49264103 19520857.18369296 0 0 0 0 0 126120897.3969987 -37974335.19755297 -37974335.19755297 14859045.03357799 0 0 0 0 0 130436761.1270451 -33709054.13046622 -33709054.13046622 11127601.37688172 0 0 0 0 0 133659483.1752033 -29664429.06799837 -29664429.06799837 8151027.518546828 0 0 0 0 0 135968769.8642514 -25891067.10374843 -25891067.10374843 5808034.492513232 0 0 0 0 0 137539970.2930738 -22413558.95892491 -22413558.95892491 3985914.27532876 0 0 0 0 0 138531992.2035387 -19238998.6169486 -19238998.6169486 2588184.860441089 0 0 0 0 0 139058686.787531 -16358903.98171774 -16358903.98171774 1533544.272977322 0 0 0 0 0 135258586.1988469 -13347662.25711942 -13347662.25711942 -471536.1992629099 0 0 0 0 0 137012091.4839452 -13164442.45674642 -13164442.45674642 -1660072.973483524 0 0 0 0 0 137005589.0126784 -11027956.77545988 -11027956.77545988 -2047939.800039641 0 0 0 0 0 136778042.9728229 -9096892.241164288 -9096892.241164288 -2284887.557851067 0 0 0 0 0 136376108.7086853 -7356423.414952748 -7356423.414952748 -2399873.23160718 0 0 0 0 0 134245920.2186175 -5893416.177409248 -5893416.177409248 -4132584.216465275 0 0 0 0 0 133745286.731457 -5731541.664710002 -5731541.664710002 -2963117.353871599 0 0 0 0 0 133710651.3289057 -4572408.361743648 -4572408.361743648 -3993370.118418471 0 0 0 0 0 133093579.4129572 -3384882.921126778 -3384882.921126778 -3808143.40606519 0 0 0 0 0 132414316.8786268 -2319276.638578522 -2319276.638578522 -3587101.848707968 0 0 0 0 0 131688929.3564497 -1366116.40126823 -1366116.40126823 -3341320.08923772 0 0 0 0 0 130928119.9691965 -517376.9372555469 -517376.9372555469 -3081388.982777999 0 0 0 0 0 130154123.7080601 239011.8461515728 239011.8461515728 -2813149.98126504 0 0 0 0 0 128726008.6892677 856090.0169701834 856090.0169701834 -2655085.077424815 0 0 0 0 0 128442785.2008591 500491.8045399235 500491.8045399235 -3721401.876931833 0 0 0 0 0 127713056.4554582 1093594.280903439 1093594.280903439 -3405691.726375922 0 0 0 0 0 126984175.285247 1620108.46225879 1620108.46225879 -3094918.874974089 0 0 0 0 0 126262725.4499697 2092214.384531453 2092214.384531453 -2782870.785781466 0 0 0 0 0 125553456.0744553 2514403.712316008 2514403.712316008 -2474318.528846453 0 0 0 0 0 124842003.5192 2884983.983091845 2884983.983091845 -2177275.393533232 0 0 0 0 0 123974492.3170364 3146213.305475129 3146213.305475129 -1896028.823597208 0 0 0 0 0 123554166.8703783 2797057.018767351 2797057.018767351 -2791828.827357996 0 0 0 0 0 122911126.3726117 3088845.62184686 3088845.62184686 -2500739.010126065 0 0 0 0 0 121652160.0133706 2844478.417999622 2844478.417999622 -2960658.574028675 0 0 0 0 0 121111385.4143577 3088098.770250814 3088098.770250814 -2670855.103661811 0 0 0 0 0 120118902.9413426 2898670.555078072 2898670.555078072 -3074899.250422806 0 0 0 0 0 120732958.1021359 2791162.321612105 2791162.321612105 -3411834.593938258 0 0 0 0 0 119617959.4200663 3091236.469463403 3091236.469463403 -2811278.497817928 0 0 0 0 0 119124477.4055246 3265150.188891893 3265150.188891893 -2550848.812024071 0 0 0 0 0 118646259.1503274 3422457.491599442 3422457.491599442 -2298530.621329104 0 0 0 0 0 118177996.5427256 3560877.695123463 3560877.695123463 -2059000.357391513 0 0 0 0 0 117375271.3963101 3339994.571610812 3339994.571610812 -2383195.735761287 0 0 0 0 0 117811848.8722907 3295546.474031015 3295546.474031015 -2689011.349389651 0 0 0 0 0 116940280.1589449 3459715.841606238 3459715.841606238 -2146619.63225092 0 0 0 0 0 116523728.8678926 3564309.525553864 3564309.525553864 -1923811.458480784 0 0 0 0 0 116116308.225921 3650430.104405234 3650430.104405234 -1719625.78494859 0 0 0 0 0 115717721.7888801 3723999.155213424 3723999.155213424 -1525563.40652995 0 0 0 0 0 115337846.6572815 3779569.145961922 3779569.145961922 -1350003.135829603 0 0 0 0 0 115010933.9759209 3552611.00805663 3552611.00805663 -1879258.185535013 0 0 0 0 0 114371910.4139025 3600590.665048745 3600590.665048745 -1460661.384019715 0 0 0 0 0 114636951.9552197 3605671.031127694 3605671.031127694 -1695503.349935584 0 0 0 0 0 114026714.2375185 3645050.241797728 3645050.241797728 -1295312.936234348 0 0 0 0 0 113690548.7604481 3681515.814708381 3681515.814708381 -1138596.749404053 0 0 0 0 0 113364136.348192 3710517.574903965 3710517.574903965 -990789.0417449742 0 0 0 0 0 113046144.8792495 3732524.263146529 3732524.263146529 -851618.3142291456 0 0 0 0 0 112568272.1212697 3518307.663549395 3518307.663549395 -1091919.688005892 0 0 0 0 0 112760459.7883267 3539351.612929219 3539351.612929219 -1289067.641199437 0 0 0 0 0 112276851.6174775 3537455.180292641 3537455.180292641 -957488.9272876685 0 0 0 0 0 111993276.5009705 3551394.418680626 3551394.418680626 -829865.5374378051 0 0 0 0 0 111717385.9409763 3560431.904798608 3560431.904798608 -709072.779510755 0 0 0 0 0 111449153.43209 3564998.508123936 3564998.508123936 -595071.8542552213 0 0 0 0 0 111188281.1786719 3565607.86580403 3565607.86580403 -487812.7330492462 0 0 0 0 0 110698682.9701756 3405239.387472346 3405239.387472346 -740882.8222091745 0 0 0 0 0 110934491.3743387 3562811.117926512 3562811.117926512 -387552.8932811515 0 0 0 0 0 110577689.6231001 3374889.315898373 3374889.315898373 -586507.2195801351 0 0 0 0 0 110283703.9810679 3362614.242525561 3362614.242525561 -514944.9336367029 0 0 0 0 0 110105365.782591 3291499.12126948 3291499.12126948 -557109.7868935292 0 0 0 0 0 110265529.323024 3354722.822764591 3354722.822764591 -583366.811771883 0 0 0 0 0 122185729.5111545 3268983.037553744 3268983.037553744 -2192160.101611066 0 0 0 0 0 89956870.28583533 -64699643.26186305 -64699643.26186305 52501835.26614358 0 0 0 0 0 104579372.0863695 -59536470.77729939 -59536470.77729939 42425693.15741009 0 0 0 0 0 111036344.6612976 -44712447.48858114 -44712447.48858114 21408506.23429747 0 0 0 0 0 115941441.178485 -54597255.09522064 -54597255.09522064 34321136.07241915 0 0 0 0 0 118001389.1070257 -39865455.84049288 -39865455.84049288 16344630.46419437 0 0 0 0 0 123573967.0654322 -35307177.43533467 -35307177.43533467 12388268.11100949 0 0 0 0 0 127974673.4404406 -30961984.34924417 -30961984.34924417 9298058.507627934 0 0 0 0 0 131324684.1589648 -26905490.87687152 -26905490.87687152 6920259.521462439 0 0 0 0 0 133786622.8944612 -23179497.3804516 -23179497.3804516 5093859.226522639 0 0 0 0 0 135526202.6614705 -19791354.24307328 -19791354.24307328 3718691.254938318 0 0 0 0 0 136683171.1943983 -16727020.78089333 -16727020.78089333 2691630.262183523 0 0 0 0 0 137372407.8399506 -13969487.03627303 -13969487.03627303 1945385.902985774 0 0 0 0 0 139219021.9158117 -13760182.16663787 -13760182.16663787 754973.0752253035 0 0 0 0 0 135656323.0576663 -11093418.7639951 -11093418.7639951 -845339.024981282 0 0 0 0 0 135767550.526965 -9063368.037738029 -9063368.037738029 -1069251.002482014 0 0 0 0 0 135649209.9125468 -7243213.607804765 -7243213.607804765 -1172850.392846859 0 0 0 0 0 135353615.2680655 -5612148.227858423 -5612148.227858423 -1182816.315069547 0 0 0 0 0 133399471.9261446 -4356968.918871231 -4356968.918871231 -2822261.235230756 0 0 0 0 0 135839128.4622172 -5795468.03120245 -5795468.03120245 -2419195.727488837 0 0 0 0 0 132940813.9309967 -3125185.242019838 -3125185.242019838 -2637332.830039305 0 0 0 0 0 132394147.9459111 -2023834.42503845 -2023834.42503845 -2420622.032264289 0 0 0 0 0 131781020.4410523 -1040650.640112677 -1040650.640112677 -2180409.13005244 0 0 0 0 0 131118533.2560349 -165814.3003716309 -165814.3003716309 -1926371.92502026 0 0 0 0 0 130422979.2634077 610150.0913610824 610150.0913610824 -1666829.354155594 0 0 0 0 0 129693697.1465515 1297427.226124228 1297427.226124228 -1407076.349019658 0 0 0 0 0 129361992.7184018 909828.8946442179 909828.8946442179 -2541876.353175955 0 0 0 0 0 128041201.5364423 1453888.265810882 1453888.265810882 -2355994.104493496 0 0 0 0 0 127351833.9851652 1989076.028450898 1989076.028450898 -2064426.093684901 0 0 0 0 0 126653562.1592299 2460151.53709537 2460151.53709537 -1780880.926034003 0 0 0 0 0 125959703.7143205 2880058.706172292 2880058.706172292 -1498876.184189936 0 0 0 0 0 125263241.4968018 3251069.686773373 3251069.686773373 -1223543.328110931 0 0 0 0 0 124579357.0968828 3575055.807674901 3575055.807674901 -963664.6901085114 0 0 0 0 0 124140656.8778432 3208627.307851712 3208627.307851712 -1898642.578902286 0 0 0 0 0 123342525.8009526 3436571.485897115 3436571.485897115 -1622698.067637683 0 0 0 0 0 122718299.9285989 3690689.707935115 3690689.707935115 -1363181.216832341 0 0 0 0 0 121779099.3525596 2946536.099716719 2946536.099716719 -2999638.015270824 0 0 0 0 0 121196913.6419273 3181536.234267673 3181536.234267673 -2714116.450026633 0 0 0 0 0 120183050.0825425 3000007.157376331 3000007.157376331 -3134235.285367867 0 0 0 0 0 120576588.2641104 3301848.131795381 3301848.131795381 -2398531.503461375 0 0 0 0 0 119653876.1851661 3184460.795388301 3184460.795388301 -2869929.460491657 0 0 0 0 0 119141178.3555965 3354303.904784343 3354303.904784343 -2607399.914833587 0 0 0 0 0 118637319.8911317 3504263.651945795 3504263.651945795 -2356202.709046302 0 0 0 0 0 118145564.6675315 3635052.728012357 3635052.728012357 -2117038.875755484 0 0 0 0 0 117362201.0993786 3424357.537281348 3424357.537281348 -2440449.809996433 0 0 0 0 0 117721933.9289086 3682092.558577183 3682092.558577183 -1832014.351329792 0 0 0 0 0 116922125.6759801 3538052.279725171 3538052.279725171 -2201746.117285639 0 0 0 0 0 116485196.4028772 3633624.565932812 3633624.565932812 -1979662.281880447 0 0 0 0 0 116062445.2358348 3712568.482036613 3712568.482036613 -1775411.44276813 0 0 0 0 0 115646934.4177153 3779710.313656358 3779710.313656358 -1581773.704643891 0 0 0 0 0 115231696.6389869 3831460.808700506 3831460.808700506 -1412293.369609485 0 0 0 0 0 114957248.9090298 3826567.288883676 3826567.288883676 -1185422.412506327 0 0 0 0 0 114274331.9846376 3653559.480242926 3653559.480242926 -1519984.011957127 0 0 0 0 0 114592131.0663319 3871556.282487336 3871556.282487336 -1020868.103020361 0 0 0 0 0 113920964.9009011 3693628.765082371 3693628.765082371 -1353610.512993488 0 0 0 0 0 113577782.7336195 3725759.305168909 3725759.305168909 -1195708.483212009 0 0 0 0 0 113244184.2366684 3750442.483563254 3750442.483563254 -1046729.320140673 0 0 0 0 0 112919624.4816184 3768322.308136337 3768322.308136337 -906343.1365305294 0 0 0 0 0 112456304.6161884 3559914.254860728 3559914.254860728 -1146962.545739275 0 0 0 0 0 112735619.9722085 3748418.065720652 3748418.065720652 -719976.6907802477 0 0 0 0 0 112160610.2252126 3575180.527569607 3575180.527569607 -1010914.94626158 0 0 0 0 0 111873063.7265373 3585406.740573197 3585406.740573197 -881718.1546046116 0 0 0 0 0 111593849.2106521 3590983.856565715 3590983.856565715 -759370.3391764303 0 0 0 0 0 111322827.4593752 3592162.969883392 3592162.969883392 -643743.7537202659 0 0 0 0 0 111059760.4358807 3589249.711978094 3589249.711978094 -534607.0259509588 0 0 0 0 0 110688681.7429612 3557501.329901469 3557501.329901469 -292511.5087559422 0 0 0 0 0 110804558.2847456 3582720.32924658 3582720.32924658 -432137.9307515959 0 0 0 0 0 110455821.8837331 3405697.411747448 3405697.411747448 -636772.6639335258 0 0 0 0 0 110262641.0814549 3410890.165201206 3410890.165201206 -547863.1979968688 0 0 0 0 0 109852826.7857439 3296521.232639864 3296521.232639864 -537504.3363527356 0 0 0 0 0 110042983.0592774 3357154.966478261 3357154.966478261 -487657.2314001571 0 0 0 0 0 122279722.9633186 3345930.00943863 3345930.00943863 -2221901.200871348 0 0 0 0 0 89082609.25763738 -64805152.666597 -64805152.666597 47328196.67760465 0 0 0 0 0 102154761.4496636 -58079716.02866716 -58079716.02866716 36704788.86667641 0 0 0 0 0 123377422.3266441 -48313619.22759536 -48313619.22759536 26989375.39995959 0 0 0 0 0 112448915.1939889 -50654973.07011214 -50654973.07011214 27955696.48285239 0 0 0 0 0 128722973.2425096 -42438079.46084622 -42438079.46084622 20655775.74100986 0 0 0 0 0 133270024.1367582 -37373124.55152023 -37373124.55152023 16109916.01266086 0 0 0 0 0 136600893.9028573 -32627259.53475148 -32627259.53475148 12491740.74057012 0 0 0 0 0 138888366.6490181 -28249516.59523477 -28249516.59523477 9641765.226236131 0 0 0 0 0 140388834.0460611 -24269320.44346941 -24269320.44346941 7412804.200719511 0 0 0 0 0 141257464.0037455 -20673169.31756987 -20673169.31756987 5688189.457041528 0 0 0 0 0 141652580.955321 -17446156.53818531 -17446156.53818531 4368261.454512923 0 0 0 0 0 141655781.3747253 -14557841.07031213 -14557841.07031213 3369014.509754552 0 0 0 0 0 137686931.1564802 -11496684.11485276 -11496684.11485276 1418523.479554557 0 0 0 0 0 139086645.8010878 -11422161.20614296 -11422161.20614296 197014.0154096858 0 0 0 0 0 138728423.2173239 -9325158.303668415 -9325158.303668415 -184853.2809653504 0 0 0 0 0 138198496.5894801 -7448809.908904139 -7448809.908904139 -423514.6450721558 0 0 0 0 0 137534845.2401446 -5776671.037372952 -5776671.037372952 -549515.0991137276 0 0 0 0 0 135197474.7299562 -4397922.754326593 -4397922.754326593 -2364642.651187521 0 0 0 0 0 134913248.8712129 -4156832.731381175 -4156832.731381175 -1123237.632409568 0 0 0 0 0 134476915.0244217 -3149416.042421767 -3149416.042421767 -2253672.700389358 0 0 0 0 0 133700599.0416154 -2035547.318447717 -2035547.318447717 -2099960.758911681 0 0 0 0 0 132882106.60827 -1044308.194052116 -1044308.194052116 -1914295.704630452 0 0 0 0 0 132036847.144112 -164516.4471913027 -164516.4471913027 -1707347.423540837 0 0 0 0 0 131171594.6391923 611409.9409654628 611409.9409654628 -1489297.009695961 0 0 0 0 0 130308909.5005638 1299573.783661096 1299573.783661096 -1261887.144494468 0 0 0 0 0 128951008.4347533 1903599.659858966 1903599.659858966 -1147453.019792368 0 0 0 0 0 128572721.6504499 1509812.234605854 1509812.234605854 -2267641.411614726 0 0 0 0 0 127775819.058065 2036528.974458777 2036528.974458777 -1997715.505154351 0 0 0 0 0 126989537.3006408 2504416.928430102 2504416.928430102 -1730784.356679236 0 0 0 0 0 126220068.5877694 2920090.163399755 2920090.163399755 -1462578.711202334 0 0 0 0 0 125464701.6196558 3285975.056109254 3285975.056109254 -1198369.565261493 0 0 0 0 0 124718471.5363732 3604313.675530342 3604313.675530342 -950090.4914803631 0 0 0 0 0 123905791.2990215 3856708.569957743 3856708.569957743 -717333.9488787086 0 0 0 0 0 123453942.645696 3491440.754422397 3491440.754422397 -1633507.214927637 0 0 0 0 0 122783933.6045988 3739078.856144233 3739078.856144233 -1380285.199795409 0 0 0 0 0 121610559.0637861 3501855.825480443 3501855.825480443 -1921327.36784532 0 0 0 0 0 121044067.0063515 3704938.773447829 3704938.773447829 -1669950.55556087 0 0 0 0 0 120055720.2979647 3486110.147481407 3486110.147481407 -2147719.207581276 0 0 0 0 0 120623721.3781731 3384489.998126549 3384489.998126549 -2445963.589812839 0 0 0 0 0 119536378.1223911 3645897.436403644 3645897.436403644 -1907697.51559239 0 0 0 0 0 119029759.9500894 3790950.154820901 3790950.154820901 -1672316.880397019 0 0 0 0 0 118536097.4897104 3917451.650127025 3917451.650127025 -1447577.413356321 0 0 0 0 0 118054618.2203722 4026805.490871258 4026805.490871258 -1235755.680003437 0 0 0 0 0 117271245.7347006 3789268.010208608 3789268.010208608 -1615303.826517646 0 0 0 0 0 117665233.0923138 3748400.819915639 3748400.819915639 -1890080.610281117 0 0 0 0 0 116826807.4165491 3879245.034397922 3879245.034397922 -1409818.177144035 0 0 0 0 0 116397569.055265 3953824.573361199 3953824.573361199 -1217439.179990949 0 0 0 0 0 115975575.8135224 4014337.819087844 4014337.819087844 -1035145.878368009 0 0 0 0 0 115567481.0227274 4065059.334392655 4065059.334392655 -861578.9596453073 0 0 0 0 0 115191573.636069 4110410.104000543 4110410.104000543 -705203.976058963 0 0 0 0 0 114851372.8825655 3875818.394490959 3875818.394490959 -1244207.646225153 0 0 0 0 0 114233840.5029213 3907572.731188794 3907572.731188794 -864803.7267267915 0 0 0 0 0 114474251.8208655 3914596.602723347 3914596.602723347 -1078295.047973335 0 0 0 0 0 113885300.3234763 3935441.799331035 3935441.799331035 -717763.8611151095 0 0 0 0 0 113546333.6255113 3955918.891365218 3955918.891365218 -579400.7411762795 0 0 0 0 0 113216750.1177841 3969818.253649107 3969818.253649107 -449015.851771711 0 0 0 0 0 112896824.2132905 3977730.227392704 3977730.227392704 -326088.6344193075 0 0 0 0 0 112433796.4628399 3759256.420064755 3759256.420064755 -594698.9342756507 0 0 0 0 0 112605492.1193744 3780627.198541729 3780627.198541729 -773038.6999936327 0 0 0 0 0 112140549.2282631 3765380.612908725 3765380.612908725 -475219.1846119477 0 0 0 0 0 111855763.1969747 3766993.075972457 3766993.075972457 -362180.0674926916 0 0 0 0 0 111579232.0705722 3764385.553583125 3764385.553583125 -255338.3020103559 0 0 0 0 0 111310576.1824586 3757782.16735361 3757782.16735361 -154654.51834306 0 0 0 0 0 111049867.7259651 3747641.597625033 3747641.597625033 -59776.34737170377 0 0 0 0 0 110550135.5463513 3572972.859137904 3572972.859137904 -336513.8680703926 0 0 0 0 0 110794439.6266069 3735467.716557954 3735467.716557954 27757.59777269551 0 0 0 0 0 110465168.4019698 3548888.038592492 3548888.038592492 -207601.5050045247 0 0 0 0 0 110310119.4686129 3521382.875046106 3521382.875046106 -164219.1103101426 0 0 0 0 0 110107570.8512353 3475596.779425121 3475596.779425121 -234293.637441429 0 0 0 0 0 122105909.7328631 3912993.832461029 3912993.832461029 -1116982.339792212 0 0 0 0 0 103973689.2517995 -70170830.03571981 -70170830.03571981 53426016.05681648 0 0 0 0 0 117239529.7359683 -63005890.86651317 -63005890.86651317 42973476.58318762 0 0 0 0 0 119510898.4640205 -44824808.06420979 -44824808.06420979 21426613.39345619 0 0 0 0 0 125087378.6026858 -54315756.25928523 -54315756.25928523 33756345.33267448 0 0 0 0 0 125556003.811656 -39330759.86803998 -39330759.86803998 16908473.29458859 0 0 0 0 0 130265108.8240692 -34191250.50540277 -34191250.50540277 13315139.17888408 0 0 0 0 0 133788018.8593977 -29452026.66858692 -29452026.66858692 10519910.99620993 0 0 0 0 0 136310962.5036559 -25177098.8807423 -25177098.8807423 8375121.152659138 0 0 0 0 0 138040525.9235006 -21323858.9448032 -21323858.9448032 6713800.798324236 0 0 0 0 0 139129176.0851803 -17878322.04374734 -17878322.04374734 5461352.518661843 0 0 0 0 0 139712064.3985504 -14805164.84095075 -14805164.84095075 4517997.904704429 0 0 0 0 0 139911478.0154756 -12074599.52466523 -12074599.52466523 3831693.991672122 0 0 0 0 0 141365649.4309974 -11979629.06091436 -11979629.06091436 2625723.422461629 0 0 0 0 0 137700274.0156927 -9288550.964863591 -9288550.964863591 1065566.54801707 0 0 0 0 0 137476408.5504267 -7322596.016181135 -7322596.016181135 849231.4504881324 0 0 0 0 0 137067437.3913429 -5574850.029045844 -5574850.029045844 739404.5812733278 0 0 0 0 0 136516521.0869143 -4024937.190347785 -4024937.190347785 710617.5154721614 0 0 0 0 0 134360139.1630026 -2860951.467096561 -2860951.467096561 -1011155.161507483 0 0 0 0 0 136770911.2779939 -4289382.423087828 -4289382.423087828 -589101.4871366464 0 0 0 0 0 133721095.1850648 -1709674.126158388 -1709674.126158388 -860248.5914483477 0 0 0 0 0 133017023.469082 -688330.9126320248 -688330.9126320248 -681322.0827799813 0 0 0 0 0 132268091.3485146 216334.7525964083 216334.7525964083 -483092.5077064778 0 0 0 0 0 131486696.0538945 1014675.579929254 1014675.579929254 -274129.4493647455 0 0 0 0 0 130688406.0977862 1717425.968183021 1717425.968183021 -61717.44670103106 0 0 0 0 0 129870472.0694004 2334132.538492458 2334132.538492458 151534.4569879211 0 0 0 0 0 129441460.0096161 1906844.9994669 1906844.9994669 -1032507.403655179 0 0 0 0 0 128194512.5438912 2440053.639182718 2440053.639182718 -895082.4753829004 0 0 0 0 0 127435906.8703726 2909113.74211294 2909113.74211294 -654552.9945703775 0 0 0 0 0 126683133.0011794 3320942.950783145 3320942.950783145 -413853.0754882873 0 0 0 0 0 125938788.8310028 3683898.031487379 3683898.031487379 -179132.4796003833 0 0 0 0 0 125201653.0709636 3999523.662552334 3999523.662552334 44556.33105408128 0 0 0 0 0 124478918.8572249 4270699.453830336 4270699.453830336 256642.5675751059 0 0 0 0 0 123989404.2807812 3880190.005051225 3880190.005051225 -713305.4892407646 0 0 0 0 0 123243046.6315027 4100981.619637776 4100981.619637776 -484326.3301726986 0 0 0 0 0 122592727.986959 4312120.404564803 4312120.404564803 -262935.4577411846 0 0 0 0 0 121661061.580767 3571470.630396552 3571470.630396552 -1956731.373290334 0 0 0 0 0 121060023.1452207 3765513.027481903 3765513.027481903 -1709061.403407048 0 0 0 0 0 120061147.4301697 3559845.795840763 3559845.795840763 -2200040.682655505 0 0 0 0 0 120485909.0608004 3878159.971167367 3878159.971167367 -1434932.951725011 0 0 0 0 0 119517082.3225804 3715704.086427405 3715704.086427405 -1960298.962876996 0 0 0 0 0 118989661.6434781 3853989.351818526 3853989.351818526 -1724742.439456569 0 0 0 0 0 118473890.1998295 3974143.195576687 3974143.195576687 -1500928.033773593 0 0 0 0 0 117971717.904725 4076472.424644113 4076472.424644113 -1289306.262037019 0 0 0 0 0 117201544.4966239 3846450.505409515 3846450.505409515 -1670410.788265025 0 0 0 0 0 117586665.1399548 4120002.400478379 4120002.400478379 -1035531.407783686 0 0 0 0 0 116747697.8457958 3930495.937411126 3930495.937411126 -1463942.711276559 0 0 0 0 0 116305354.3679883 4001228.348374901 4001228.348374901 -1272121.112776097 0 0 0 0 0 115882496.6725626 4062800.237315902 4062800.237315902 -1089530.354444748 0 0 0 0 0 115463745.4090456 4110595.14752845 4110595.14752845 -917806.9334915234 0 0 0 0 0 115057758.2657418 4145374.615422097 4145374.615422097 -761049.277992642 0 0 0 0 0 114808663.7587932 4144273.7707704 4144273.7707704 -551975.6228021514 0 0 0 0 0 114108256.4742101 3945622.774867544 3945622.774867544 -920681.9637667196 0 0 0 0 0 114436222.7546445 4170129.722573629 4170129.722573629 -407329.1580586422 0 0 0 0 0 113752926.0938808 3969049.076188173 3969049.076188173 -772274.0620948429 0 0 0 0 0 113408251.0760007 3985440.262205931 3985440.262205931 -632490.1437195973 0 0 0 0 0 113073552.6634512 3995502.042778168 3995502.042778168 -500704.6172332423 0 0 0 0 0 112748829.4621288 4000070.588229307 4000070.588229307 -376618.1329150662 0 0 0 0 0 112300568.2575196 3787925.818426716 3787925.818426716 -646047.3038820834 0 0 0 0 0 112585177.4764551 3980233.473800329 3980233.473800329 -210647.5624527825 0 0 0 0 0 112004488.9617463 3790877.990943137 3790877.990943137 -525072.3988959884 0 0 0 0 0 111717144.0810746 3789530.464392398 3789530.464392398 -410633.7214154768 0 0 0 0 0 111438362.8322261 3784085.023192999 3784085.023192999 -302391.696525449 0 0 0 0 0 111168053.9818231 3774782.027451775 3774782.027451775 -200259.8878359961 0 0 0 0 0 110905938.8147933 3761969.546502232 3761969.546502232 -103869.1950184261 0 0 0 0 0 110550355.5533087 3721175.596172086 3721175.596172086 106652.3295902983 0 0 0 0 0 110654839.070328 3746916.510858155 3746916.510858155 -13386.16768843116 0 0 0 0 0 110305175.9316118 3561198.251398815 3561198.251398815 -249799.3359633942 0 0 0 0 0 110093320.4675003 3527522.849291198 3527522.849291198 -187344.9561139854 0 0 0 0 0 109885076.3899585 3460687.330254187 3460687.330254187 -192762.2435765495 0 0 0 0 0 122129183.4280215 3954194.475170949 3954194.475170949 -1139425.988573794 0 0 0 0 0 101883928.3783481 -69073871.09340751 -69073871.09340751 47279542.43328781 0 0 0 0 0 116450421.4339125 -62627487.82852435 -62627487.82852435 38758807.27892838 0 0 0 0 0 131568438.0394533 -47444838.9470211 -47444838.9470211 26088715.03689147 0 0 0 0 0 122407983.5779041 -49524049.03628708 -49524049.03628708 27020795.38314937 0 0 0 0 0 126103130.4731672 -55701751.428276 -55701751.428276 32738919.62658128 0 0 0 0 0 136656630.6050445 -41756156.59925412 -41756156.59925412 21209622.32563981 0 0 0 0 0 140112951.3612539 -36238055.995108 -36238055.995108 17059770.73828532 0 0 0 0 0 142323326.4716167 -31139723.31979436 -31139723.31979436 13707147.02213877 0 0 0 0 0 143670340.3653971 -26550976.31138167 -26550976.31138167 11067111.5310915 0 0 0 0 0 144379926.7571808 -22459142.7930448 -22459142.7930448 9000724.536516186 0 0 0 0 0 144562708.151226 -18822468.85247353 -18822468.85247353 7401792.927685873 0 0 0 0 0 144370624.994084 -15586787.82033298 -15586787.82033298 6162688.732980825 0 0 0 0 0 143876755.3859236 -12725604.51224727 -12725604.51224727 5221981.424362696 0 0 0 0 0 139799708.375156 -9656030.406513574 -9656030.406513574 3343112.566831426 0 0 0 0 0 140849278.2313545 -9686553.174310131 -9686553.174310131 2088453.435890196 0 0 0 0 0 140162597.8044605 -7652524.543049199 -7652524.543049199 1715388.409774586 0 0 0 0 0 139349682.2222657 -5850789.248501882 -5850789.248501882 1472547.165080546 0 0 0 0 0 138444256.7678445 -4258831.872137018 -4258831.872137018 1330394.627310516 0 0 0 0 0 135933662.9297235 -2968959.094468459 -2968959.094468459 -561624.6206788355 0 0 0 0 0 135855000.7922815 -2653942.355189004 -2653942.355189004 743312.9542217313 0 0 0 0 0 135045628.4142522 -1798648.983070814 -1798648.983070814 -482956.1340382855 0 0 0 0 0 134126688.8656652 -762683.8649802726 -762683.8649802726 -365027.2961324418 0 0 0 0 0 133184107.5169964 150983.6565942054 150983.6565942054 -219552.0342503258 0 0 0 0 0 132232270.1765935 955716.6555495604 955716.6555495604 -55814.46054568564 0 0 0 0 0 131280710.71745 1662128.64322491 1662128.64322491 117486.5688821186 0 0 0 0 0 130338754.3214888 2280921.364490062 2280921.364490062 299610.4324878688 0 0 0 0 0 129053548.0761381 2875176.092669604 2875176.092669604 361582.0029645959 0 0 0 0 0 128584208.3688011 2439507.587046266 2439507.587046266 -802877.6492862856 0 0 0 0 0 127733707.2984384 2906280.172355121 2906280.172355121 -582409.8908715509 0 0 0 0 0 126900357.120883 3317492.104110302 3317492.104110302 -359521.5661656654 0 0 0 0 0 126088087.6568094 3676059.956504135 3676059.956504135 -138021.4509836762 0 0 0 0 0 125291995.192672 3986908.636466268 3986908.636466268 74694.01915996821 0 0 0 0 0 124518022.7214133 4256718.849846285 4256718.849846285 275494.1361920932 0 0 0 0 0 123773373.4698924 4504551.876118095 4504551.876118095 458343.0543507612 0 0 0 0 0 123279120.1895193 4119054.200991866 4119054.200991866 -487983.7167013724 0 0 0 0 0 122587753.3519235 4325131.619792776 4325131.619792776 -272955.3447592016 0 0 0 0 0 121508062.6465303 4104711.738831313 4104711.738831313 -885380.6133839505 0 0 0 0 0 120914739.3384591 4265342.45779131 4265342.45779131 -673261.7605656364 0 0 0 0 0 119940855.1080709 4027352.293034719 4027352.293034719 -1214412.924229568 0 0 0 0 0 120468491.620984 3932036.617638783 3932036.617638783 -1477143.34724021 0 0 0 0 0 119409813.4796409 4159190.536247164 4159190.536247164 -998681.7988190356 0 0 0 0 0 118889545.8626784 4273330.099099339 4273330.099099339 -792586.25216799 0 0 0 0 0 118384852.0899834 4371454.995140531 4371454.995140531 -594624.4398323093 0 0 0 0 0 117891958.1607852 4451703.789692023 4451703.789692023 -414434.9712272719 0 0 0 0 0 117126215.8875306 4198130.760942105 4198130.760942105 -845007.1993206362 0 0 0 0 0 117484867.651785 4163273.6570066 4163273.6570066 -1089297.48201054 0 0 0 0 0 116678320.8675114 4262653.483787054 4262653.483787054 -666838.2126427366 0 0 0 0 0 116245679.7147895 4316633.668435667 4316633.668435667 -500911.9915882036 0 0 0 0 0 115819579.0659723 4359343.638566651 4359343.638566651 -340495.8387401097 0 0 0 0 0 115412627.7387395 4390890.246565703 4390890.246565703 -193477.8386487206 0 0 0 0 0 115017517.5439391 4415043.037042188 4415043.037042188 -54152.17682070161 0 0 0 0 0 114668056.1015316 4174515.324828742 4174515.324828742 -606139.9203695606 0 0 0 0 0 114074494.5233883 4188643.496475051 4188643.496475051 -271177.3790660343 0 0 0 0 0 114289405.404066 4196226.702795841 4196226.702795841 -460161.5992241908 0 0 0 0 0 113723545.2348945 4200239.473508805 4200239.473508805 -143438.6433606171 0 0 0 0 0 113382667.9718556 4205649.068445892 4205649.068445892 -23089.54756222117 0 0 0 0 0 113051892.7034283 4205503.938701382 4205503.938701382 90119.92177378359 0 0 0 0 0 112731586.5426778 4200400.689205752 4200400.689205752 195859.3446943205 0 0 0 0 0 112282522.8935101 3978395.22942417 3978395.22942417 -100738.9712103423 0 0 0 0 0 112434935.5479389 3999598.3332598 3999598.3332598 -259658.8087510722 0 0 0 0 0 111989097.8674499 3972723.291324164 3972723.291324164 3498.759817445095 0 0 0 0 0 111704285.6981542 3963072.285143367 3963072.285143367 101936.6799695895 0 0 0 0 0 111427921.9898438 3949691.033035411 3949691.033035411 194508.5070654692 0 0 0 0 0 111159582.3795722 3932870.168251638 3932870.168251638 282343.1471581075 0 0 0 0 0 110900134.9965762 3913196.972961616 3913196.972961616 365416.7013377353 0 0 0 0 0 110409082.7437223 3730564.294563724 3730564.294563724 66218.01305346179 0 0 0 0 0 110648315.4039066 3890244.378959939 3890244.378959939 444321.0240175187 0 0 0 0 0 110359719.6786292 3702810.131931806 3702810.131931806 170725.5968137659 0 0 0 0 0 110179908.7787024 3651468.013708638 3651468.013708638 121521.4461014854 0 0 0 0 0 121957799.3556415 4493242.379086727 4493242.379086727 -53881.81194349001 0 0 0 0 0 118795874.3265216 -74515537.10609351 -74515537.10609351 53436726.34905021 0 0 0 0 0 130214352.4761938 -66744248.65545451 -66744248.65545451 43239880.49770177 0 0 0 0 0 128129826.2000443 -43962343.384216 -43962343.384216 21940649.53273616 0 0 0 0 0 135708091.8813469 -52542845.04019774 -52542845.04019774 31400203.55851018 0 0 0 0 0 126871535.3153773 -56262291.10730426 -56262291.10730426 32763973.50097569 0 0 0 0 0 133085093.458616 -38084684.0812307 -38084684.0812307 17543584.15750923 0 0 0 0 0 136740453.5607705 -32556868.48096927 -32556868.48096927 14280650.21265002 0 0 0 0 0 139251392.5266454 -27611027.24282703 -27611027.24282703 11762295.3140682 0 0 0 0 0 140919058.8565029 -23242103.26230013 -23242103.26230013 9858504.358325751 0 0 0 0 0 141918016.700485 -19319471.18867358 -19319471.18867358 8364149.214458615 0 0 0 0 0 142345401.2357112 -15879469.55762225 -15879469.55762225 7222221.659356168 0 0 0 0 0 142372277.9001087 -12849733.99466933 -12849733.99466933 6371348.06515616 0 0 0 0 0 142102751.7472719 -10184907.67990454 -10184907.67990454 5745660.209786367 0 0 0 0 0 143165627.5919621 -10203403.54455013 -10203403.54455013 4519647.861834531 0 0 0 0 0 139445473.2316853 -7519162.205452447 -7519162.205452447 3009112.871064421 0 0 0 0 0 138905638.9528256 -5633672.305605355 -5633672.305605355 2795120.31022209 0 0 0 0 0 138224364.8753207 -3973631.10329288 -3973631.10329288 2673157.262111988 0 0 0 0 0 137437929.6132402 -2514733.057703549 -2514733.057703549 2621282.537497142 0 0 0 0 0 135111174.050418 -1443462.671771268 -1443462.671771268 821762.9497258276 0 0 0 0 0 137473753.3262835 -2854535.850663653 -2854535.850663653 1266631.419161652 0 0 0 0 0 134307549.5771255 -376971.4177709148 -376971.4177709148 933582.6510005479 0 0 0 0 0 133460363.1502506 561186.3439009105 561186.3439009105 1069516.037262345 0 0 0 0 0 132588592.8827014 1385400.449255921 1385400.449255921 1220748.706368504 0 0 0 0 0 131701635.5169658 2106615.728631496 2106615.728631496 1380526.199366335 0 0 0 0 0 130810028.0440603 2735502.942391847 2735502.942391847 1542592.205342747 0 0 0 0 0 129915223.0923899 3281268.885135521 3281268.885135521 1705345.200960089 0 0 0 0 0 129406226.7567025 2822005.433522451 2822005.433522451 481903.2357233262 0 0 0 0 0 128227747.0469473 3342869.974410876 3342869.974410876 560371.1473598673 0 0 0 0 0 127411010.2109009 3748706.485971618 3748706.485971618 756144.412384538 0 0 0 0 0 126613442.6572935 4105495.783916297 4105495.783916297 949673.9582963104 0 0 0 0 0 125828563.955581 4413447.266996998 4413447.266996998 1137624.479861476 0 0 0 0 0 125059697.3990973 4676851.521846989 4676851.521846989 1314153.817455086 0 0 0 0 0 124310754.1184298 4902654.032347823 4902654.032347823 1481913.95543393 0 0 0 0 0 123766187.7175988 4488089.928249734 4488089.928249734 467820.7751669898 0 0 0 0 0 123084119.669475 4705024.588751431 4705024.588751431 649638.0948483841 0 0 0 0 0 122412337.9508904 4875600.773270254 4875600.773270254 830784.6113540332 0 0 0 0 0 121486756.0527816 4137683.994653733 4137683.994653733 -913642.4995958972 0 0 0 0 0 120867427.1446491 4294452.400654576 4294452.400654576 -704891.6729978124 0 0 0 0 0 119892996.6980691 4075328.249486257 4075328.249486257 -1259279.462431453 0 0 0 0 0 120339732.8791851 4404762.753395391 4404762.753395391 -473299.4451156309 0 0 0 0 0 119337205.7885281 4201640.447277974 4201640.447277974 -1044982.83953588 0 0 0 0 0 118797980.8508687 4310191.186366582 4310191.186366582 -839423.2537624452 0 0 0 0 0 118271315.2276197 4402754.526915746 4402754.526915746 -643019.8775280048 0 0 0 0 0 117764227.4753438 4477735.388085586 4477735.388085586 -462675.596509012 0 0 0 0 0 117012423.5073302 4236445.929361895 4236445.929361895 -898262.6064833099 0 0 0 0 0 117412960.1876646 4518458.624007056 4518458.624007056 -241132.0061156767 0 0 0 0 0 116553601.934748 4296829.288461211 4296829.288461211 -719875.109050488 0 0 0 0 0 116108329.8706834 4344783.88472666 4344783.88472666 -552876.1280257629 0 0 0 0 0 115677982.9041384 4384065.631697424 4384065.631697424 -391145.6960843102 0 0 0 0 0 115259869.4388511 4412258.604058561 4412258.604058561 -244516.8738145698 0 0 0 0 0 114855425.7779989 4432009.962921104 4432009.962921104 -104431.6431166475 0 0 0 0 0 114632160.3468567 4431274.771430713 4431274.771430713 77937.18907918714 0 0 0 0 0 113922217.3584902 4210753.313660583 4210753.313660583 -322596.2272643583 0 0 0 0 0 114257780.3341054 4440274.326608842 4440274.326608842 201740.4046255334 0 0 0 0 0 113566419.6969254 4218634.373572961 4218634.373572961 -193474.5277004534 0 0 0 0 0 113221751.228312 4220739.303789795 4220739.303789795 -71783.73260925565 0 0 0 0 0 112887957.0577421 4217685.245860429 4217685.245860429 42657.00969145397 0 0 0 0 0 112564173.519187 4209394.069738496 4209394.069738496 149939.4221135777 0 0 0 0 0 112130696.4458144 3995037.586489114 3995037.586489114 -148354.0049148525 0 0 0 0 0 112419794.2672721 4190446.792645306 4190446.792645306 294977.5492842149 0 0 0 0 0 111835226.1411397 3986444.11588056 3986444.11588056 -42607.75835627231 0 0 0 0 0 111548917.8029624 3974206.23664347 3974206.23664347 57251.11874106382 0 0 0 0 0 111271701.2631486 3958605.02304124 3958605.02304124 151169.8527747076 0 0 0 0 0 111003674.4824916 3940388.707807029 3940388.707807029 240010.8580551095 0 0 0 0 0 110746076.5891663 3920145.243492259 3920145.243492259 324043.0027696272 0 0 0 0 0 110388856.2768922 3857498.068596438 3857498.068596438 493716.7875751377 0 0 0 0 0 110508207.4667989 3903699.604436607 3903699.604436607 402559.3978949109 0 0 0 0 0 110154764.8793104 3699818.527355842 3699818.527355842 145825.5836718409 0 0 0 0 0 109907714.4787618 3632893.875778543 3632893.875778543 161147.6912586521 0 0 0 0 0 121915251.6722265 4501229.779286194 4501229.779286194 -69482.33045090229 0 0 0 0 0 116274602.2778414 -73048272.72180888 -73048272.72180888 46339186.93323161 0 0 0 0 0 127556232.3512483 -65058397.9816422 -65058397.9816422 37913793.36819767 0 0 0 0 0 140600412.3288577 -47049335.7243706 -47049335.7243706 26980945.36293535 0 0 0 0 0 132378100.0196253 -49336978.02077968 -49336978.02077968 26604390.06519132 0 0 0 0 0 138216989.6931192 -58653208.24946138 -58653208.24946138 35849756.83695392 0 0 0 0 0 144350733.0871869 -40618399.43200141 -40618399.43200141 21956866.09846525 0 0 0 0 0 146390436.0872224 -34635888.09291522 -34635888.09291522 18000275.50167598 0 0 0 0 0 147488416.2198826 -29321095.42795461 -29321095.42795461 14893335.88111542 0 0 0 0 0 147950101.1659787 -24626087.39109816 -24626087.39109816 12471996.12840866 0 0 0 0 0 147886349.0313158 -20514546.50130991 -20514546.50130991 10606005.93069357 0 0 0 0 0 147407930.8014649 -16872438.11058832 -16872438.11058832 9108290.099256087 0 0 0 0 0 146662165.4412256 -13682129.28274192 -13682129.28274192 7962762.942512641 0 0 0 0 0 145713170.7575387 -10890554.23702538 -10890554.23702538 7088285.278642606 0 0 0 0 0 141587471.2975518 -7848308.391891165 -7848308.391891165 5291971.028643971 0 0 0 0 0 142292900.4908281 -7982726.638877488 -7982726.638877488 4004818.356472182 0 0 0 0 0 141303606.5329736 -6030690.992479859 -6030690.992479859 3638165.173086464 0 0 0 0 0 140233238.8453744 -4317664.336105398 -4317664.336105398 3387186.843192651 0 0 0 0 0 139110544.2965138 -2816042.231210142 -2816042.231210142 3225887.127320038 0 0 0 0 0 136460641.4211592 -1617963.562890789 -1617963.562890789 1262987.83309875 0 0 0 0 0 136575101.4717759 -1234901.077241423 -1234901.077241423 2622503.70498456 0 0 0 0 0 135422630.465015 -531287.200124726 -531287.200124726 1305097.625206577 0 0 0 0 0 134375574.2958312 422875.2292626234 422875.2292626234 1382375.839500743 0 0 0 0 0 133326692.4455027 1258860.193110028 1258860.193110028 1483199.192797249 0 0 0 0 0 132283025.0918564 1988366.147538629 1988366.147538629 1599872.056595041 0 0 0 0 0 131256474.4270886 2623722.830790402 2623722.830790402 1725298.499365687 0 0 0 0 0 130248563.7933603 3174820.486741343 3174820.486741343 1857486.442447428 0 0 0 0 0 129030509.7148927 3754575.35031643 3754575.35031643 1861720.39615682 0 0 0 0 0 128489467.6661933 3290449.439458737 3290449.439458737 658694.2624350052 0 0 0 0 0 127596354.7168521 3700701.600842774 3700701.600842774 833156.676999358 0 0 0 0 0 126724653.0615825 4055636.114005943 4055636.114005943 1010221.089315944 0 0 0 0 0 125878357.8068604 4362726.515249001 4362726.515249001 1183995.531761138 0 0 0 0 0 125056690.4586266 4625326.968419475 4625326.968419475 1348448.351856464 0 0 0 0 0 124261399.5501253 4849189.427504779 4849189.427504779 1506444.127926929 0 0 0 0 0 123581492.6937205 5093560.78419153 5093560.78419153 1639825.473655034 0 0 0 0 0 123037124.2543393 4685688.559057862 4685688.559057862 651553.912443833 0 0 0 0 0 122330883.6720511 4853522.86182957 4853522.86182957 826332.7583407011 0 0 0 0 0 121343545.2726458 4647679.951315411 4647679.951315411 139190.8973404796 0 0 0 0 0 120738168.3268066 4775858.498230996 4775858.498230996 317618.764337723 0 0 0 0 0 119780703.918635 4523365.548859435 4523365.548859435 -278661.1345548856 0 0 0 0 0 120264688.3196426 4428373.97866628 4428373.97866628 -507503.5399990237 0 0 0 0 0 119236970.8141214 4625608.348622447 4625608.348622447 -93448.76766436239 0 0 0 0 0 118707660.8820607 4712833.179981226 4712833.179981226 87780.13455678635 0 0 0 0 0 118195538.7190353 4783040.603350298 4783040.603350298 250995.898509484 0 0 0 0 0 117693724.3531526 4836821.6444454 4836821.6444454 401651.3754140752 0 0 0 0 0 116947965.5356952 4572883.596738392 4572883.596738392 -78864.30037562481 0 0 0 0 0 117271481.5890891 4540110.950453478 4540110.950453478 -289665.982801157 0 0 0 0 0 116496675.8845272 4615277.127923743 4615277.127923743 73147.71318864574 0 0 0 0 0 116057799.7227963 4647347.104378521 4647347.104378521 216130.9769054262 0 0 0 0 0 115633243.013486 4670409.159993207 4670409.159993207 349875.9635781986 0 0 0 0 0 115221094.3771699 4684115.34220586 4684115.34220586 474828.6488998489 0 0 0 0 0 114821485.3102302 4690005.075371868 4690005.075371868 592040.1726193749 0 0 0 0 0 114463975.3753726 4444336.985798034 4444336.985798034 28858.90979155867 0 0 0 0 0 113894793.2354946 4442773.625502842 4442773.625502842 317582.2012887446 0 0 0 0 0 114085027.2939804 4449750.817525757 4449750.817525757 154024.1046454254 0 0 0 0 0 113542697.7212606 4439395.950116468 4439395.950116468 425985.5986582041 0 0 0 0 0 113201382.3475039 4430872.796926136 4430872.796926136 527915.5666630317 0 0 0 0 0 112870513.0384026 4417546.474867269 4417546.474867269 623282.7342422797 0 0 0 0 0 112550308.8450593 4399795.651034235 4399795.651034235 711482.0974783286 0 0 0 0 0 112117250.1298663 4176973.469725423 4176973.469725423 388974.8048424713 0 0 0 0 0 112251159.0698766 4196899.570743261 4196899.570743261 250402.4969736362 0 0 0 0 0 111824156.3210417 4159961.800896715 4159961.800896715 477771.0768107479 0 0 0 0 0 111540219.5212071 4139725.335641938 4139725.335641938 560841.177817707 0 0 0 0 0 111264904.2689638 4116531.140628755 4116531.140628755 638584.0108583629 0 0 0 0 0 110998575.6403747 4090828.190326354 4090828.190326354 711920.238124776 0 0 0 0 0 110742351.5606103 4063217.463505172 4063217.463505172 772851.9503132221 0 0 0 0 0 110351041.5483562 3905818.043088566 3905818.043088566 458301.2682346338 0 0 0 0 0 110526994.5134033 4023138.910094082 4023138.910094082 795027.0187846023 0 0 0 0 0 110210041.1254935 3834309.368175046 3834309.368175046 494050.7770538114 0 0 0 0 0 121760127.0375177 5019237.630527176 5019237.630527176 1001571.096125317 0 0 0 0 0 133988378.5214686 -78375286.59745866 -78375286.59745866 52329074.63982077 0 0 0 0 0 143245920.5285622 -69292661.58408272 -69292661.58408272 43148523.61294656 0 0 0 0 0 136411161.0801689 -42877206.46101664 -42877206.46101664 21833492.77722658 0 0 0 0 0 145234654.1530508 -52368534.00142682 -52368534.00142682 31181701.90770888 0 0 0 0 0 136141943.2546377 -57312181.43102609 -57312181.43102609 33246407.07522531 0 0 0 0 0 140273916.6584905 -36313775.65718214 -36313775.65718214 18143207.05005494 0 0 0 0 0 142735102.3450581 -30570087.7995549 -30570087.7995549 15246420.76891072 0 0 0 0 0 144266824.8847598 -25538271.15974525 -25538271.15974525 13054544.92090925 0 0 0 0 0 145100210.8730322 -21096751.80675387 -21096751.80675387 11338443.64147785 0 0 0 0 0 145312643.1555518 -17217999.55588158 -17217999.55588158 10009025.0576483 0 0 0 0 0 145133468.132638 -13837507.89568978 -13837507.89568978 9001609.00531205 0 0 0 0 0 144647517.1025125 -10891811.1311503 -10891811.1311503 8246030.114197359 0 0 0 0 0 143934923.418209 -8327211.982156131 -8327211.982156131 7678308.503361802 0 0 0 0 0 144619954.4460085 -8454794.315205561 -8454794.315205561 6429084.889910034 0 0 0 0 0 140889008.8351375 -5802690.473112571 -5802690.473112571 4971732.728581008 0 0 0 0 0 140054958.4581046 -4014601.920975725 -4014601.920975725 4754155.14299989 0 0 0 0 0 139123437.6062725 -2453874.640314912 -2453874.640314912 4614507.181318064 0 0 0 0 0 138123164.2912573 -1094045.341105493 -1094045.341105493 4534677.642332358 0 0 0 0 0 135658523.3647439 -114519.9944643229 -114519.9944643229 2662839.762917075 0 0 0 0 0 137956080.1684237 -1502354.090212939 -1502354.090212939 3134364.604291878 0 0 0 0 0 134707114.8314885 864230.0601946332 864230.0601946332 2731284.797439979 0 0 0 0 0 133734107.3683871 1718039.027446548 1718039.027446548 2819466.77924299 0 0 0 0 0 132753632.8108366 2461339.646311561 2461339.646311561 2920140.797610051 0 0 0 0 0 131775193.3021907 3105481.703543955 3105481.703543955 3027483.769444906 0 0 0 0 0 130802200.7673233 3660426.74119166 3660426.74119166 3135087.356416069 0 0 0 0 0 129844122.9755898 4139054.121586678 4139054.121586678 3242272.828377929 0 0 0 0 0 129261394.1611241 3650623.645490316 3650623.645490316 1988597.378494551 0 0 0 0 0 128153201.7233108 4160466.185735001 4160466.185735001 2010842.22883399 0 0 0 0 0 127293029.2710659 4511736.762085886 4511736.762085886 2157600.041091571 0 0 0 0 0 126453960.7113016 4812970.975663281 4812970.975663281 2302659.708201217 0 0 0 0 0 125636610.4877575 5069662.566784025 5069662.566784025 2439547.627122972 0 0 0 0 0 124841315.8743987 5286048.676299782 5286048.676299782 2568606.083542506 0 0 0 0 0 124069432.6818622 5467395.962296162 5467395.962296162 2689919.151299695 0 0 0 0 0 123492000.2590512 5038488.387302577 5038488.387302577 1655852.242724705 0 0 0 0 0 122872096.3388723 5253579.349461516 5253579.349461516 1787892.306251485 0 0 0 0 0 122183884.3644389 5386225.41209345 5386225.41209345 1925779.502053532 0 0 0 0 0 121259718.1843664 4648782.465353867 4648782.465353867 118644.2195098494 0 0 0 0 0 120627258.9125936 4772720.02068314 4772720.02068314 293732.9269630965 0 0 0 0 0 119679768.514278 4544023.8527385 4544023.8527385 -316838.2570780445 0 0 0 0 0 120147359.4022538 4882730.459198635 4882730.459198635 488733.4626595921 0 0 0 0 0 119115499.7233232 4640955.568166902 4640955.568166902 -132937.9346345928 0 0 0 0 0 118567434.744428 4724081.482659625 4724081.482659625 46333.6225516859 0 0 0 0 0 118035868.7087428 4788515.084193321 4788515.084193321 209535.1001073951 0 0 0 0 0 117524874.155473 4838811.955560198 4838811.955560198 359814.5089553014 0 0 0 0 0 116794793.4083995 4589770.723601354 4589770.723601354 -126971.1746559734 0 0 0 0 0 117210640.5220406 4880432.03464435 4880432.03464435 548391.4909846407 0 0 0 0 0 116333412.2971163 4627954.420075498 4627954.420075498 25493.18340092685 0 0 0 0 0 115886763.9120861 4656237.322712866 4656237.322712866 169195.4855549535 0 0 0 0 0 115454163.0862488 4674862.808572974 4674862.808572974 304022.3584603983 0 0 0 0 0 115036027.8884268 4685439.432261326 4685439.432261326 429708.3138093724 0 0 0 0 0 114631881.1497207 4688518.726899165 4688518.726899165 547731.8087806799 0 0 0 0 0 114434489.3678664 4689262.642502099 4689262.642502099 701958.5310020805 0 0 0 0 0 113718149.9425269 4448936.028306437 4448936.028306437 271231.9856514949 0 0 0 0 0 114059543.831513 4682425.586931031 4682425.586931031 804516.3736745715 0 0 0 0 0 113363165.8238241 4442564.581082768 4442564.581082768 380965.8129176421 0 0 0 0 0 113019528.6914356 4431352.649492336 4431352.649492336 484133.1906599084 0 0 0 0 0 112687439.3351893 4415746.793729051 4415746.793729051 580855.6452116582 0 0 0 0 0 112365764.8077536 4395654.687220989 4395654.687220989 670393.9961888789 0 0 0 0 0 111947818.1205613 4180855.13760326 4180855.13760326 345884.5042851873 0 0 0 0 0 112239566.4371709 4378538.377595475 4378538.377595475 794265.7530835251 0 0 0 0 0 111654038.7204557 4161654.778299524 4161654.778299524 435951.5048457047 0 0 0 0 0 111369679.9628918 4139240.387511543 4139240.387511543 520480.97091884 0 0 0 0 0 111094686.6573709 4114155.205336316 4114155.205336316 599612.8042324535 0 0 0 0 0 110829438.0497899 4087282.373564215 4087282.373564215 674123.1031692205 0 0 0 0 0 110585523.3445138 4059467.9170805 4059467.9170805 739311.1706981733 0 0 0 0 0 110179573.2574993 3946500.822935672 3946500.822935672 789686.78678876 0 0 0 0 0 110342770.1469176 4029057.772165431 4029057.772165431 774985.2160981179 0 0 0 0 0 109932071.8852264 3802290.037887562 3802290.037887562 561990.1672521995 0 0 0 0 0 121648531.914183 4994759.691428096 4994759.691428096 991215.8265251418 0 0 0 0 0 130562190.1329038 -76207660.10823202 -76207660.10823202 44954108.80766236 0 0 0 0 0 137734123.188418 -64832041.46969419 -64832041.46969419 38457242.96205945 0 0 0 0 0 149790371.0044789 -46026810.29551598 -46026810.29551598 27081741.65912614 0 0 0 0 0 141001003.888116 -49073798.29308078 -49073798.29308078 26056522.8259927 0 0 0 0 0 145617097.3501392 -61225728.187217 -61225728.187217 35163499.93591931 0 0 0 0 0 151296991.3590881 -38895929.77442035 -38895929.77442035 22532472.22899545 0 0 0 0 0 151985769.250913 -32647181.91564544 -32647181.91564544 18865014.68313127 0 0 0 0 0 152103651.1856881 -27227569.02747669 -27227569.02747669 16063508.13608161 0 0 0 0 0 151662190.9388005 -22530568.22068276 -22530568.22068276 13883601.58420858 0 0 0 0 0 150841016.8495838 -18437276.73619724 -18437276.73619724 12164757.97782351 0 0 0 0 0 149774327.4329897 -14859537.70885766 -14859537.70885766 10806219.31453599 0 0 0 0 0 148531528.9898027 -11766091.75320686 -11766091.75320686 9768377.924131751 0 0 0 0 0 147168607.410675 -9084072.091180671 -9084072.091180671 8965263.969828716 0 0 0 0 0 143044329.2239275 -6096681.308459671 -6096681.308459671 7254057.781743564 0 0 0 0 0 143421892.9829258 -6329576.237951341 -6329576.237951341 5935302.013967705 0 0 0 0 0 142156574.7251614 -4477127.018007758 -4477127.018007758 5570904.022048232 0 0 0 0 0 140856658.9186279 -2863903.993110575 -2863903.993110575 5307447.750054107 0 0 0 0 0 139541776.8995027 -1461487.812286543 -1461487.812286543 5123337.892571851 0 0 0 0 0 136786974.6170715 -354982.8308904778 -354982.8308904778 3095986.032786715 0 0 0 0 0 137078865.2544113 89251.79026404863 89251.79026404863 4499650.334145724 0 0 0 0 0 135618803.6883948 645824.0347160443 645824.0347160443 3097479.165885485 0 0 0 0 0 134463244.3216421 1517549.061841908 1517549.061841908 3129692.367443851 0 0 0 0 0 133322381.7884336 2274034.284647011 2274034.284647011 3183121.674367415 0 0 0 0 0 132199993.5612893 2928262.910215861 2928262.910215861 3249645.70189399 0 0 0 0 0 131108655.1073222 3492495.859538674 3492495.859538674 3322881.824760543 0 0 0 0 0 130048565.3190248 3977936.359009981 3977936.359009981 3401144.224545802 0 0 0 0 0 128903673.7636659 4548393.166282551 4548393.166282551 3344440.649731574 0 0 0 0 0 128300501.9224207 4060611.769807123 4060611.769807123 2114819.463928748 0 0 0 0 0 127369283.7367301 4413738.465465182 4413738.465465182 2243197.472602063 0 0 0 0 0 126468046.6063368 4717577.123284644 4717577.123284644 2370893.520322767 0 0 0 0 0 125598602.2736582 4975258.241623019 4975258.241623019 2494577.703416254 0 0 0 0 0 124758362.4577405 5192438.889425558 5192438.889425558 2612323.846712558 0 0 0 0 0 123945941.5308184 5373551.886670812 5373551.886670812 2724105.354078733 0 0 0 0 0 123321303.2107627 5617161.884560768 5617161.884560768 2803223.699817595 0 0 0 0 0 122748626.04306 5196771.285225385 5196771.285225385 1796976.359656753 0 0 0 0 0 122030835.7983634 5327230.445762531 5327230.445762531 1929273.949736077 0 0 0 0 0 121129182.765282 5138684.71366003 5138684.71366003 1158946.668283138 0 0 0 0 0 120512395.1320028 5235416.916400654 5235416.916400654 1305311.048214334 0 0 0 0 0 119578937.800608 4973408.571937514 4973408.571937514 651632.9318773201 0 0 0 0 0 120016720.288056 4878281.040650229 4878281.040650229 460525.0891475916 0 0 0 0 0 119024881.1707486 5048625.37172775 5048625.37172775 812256.9864757417 0 0 0 0 0 118489401.1847287 5108698.971916895 5108698.971916895 957263.2960122583 0 0 0 0 0 117969815.1248114 5151549.158704602 5151549.158704602 1086156.440371666 0 0 0 0 0 117463283.7185572 5181909.154602483 5181909.154602483 1211666.132875393 0 0 0 0 0 116740437.9371815 4911285.582535125 4911285.582535125 681608.0049468866 0 0 0 0 0 117028903.801815 4878543.888421677 4878543.888421677 506192.9328643512 0 0 0 0 0 116284661.0840957 4932453.163373588 4932453.163373588 807289.685774597 0 0 0 0 0 115843988.0654721 4944318.350916997 4944318.350916997 924706.0255114188 0 0 0 0 0 115416810.5351431 4948118.294189341 4948118.294189341 1033799.190374035 0 0 0 0 0 115003581.2836764 4944426.722011524 4944426.722011524 1135222.033213869 0 0 0 0 0 114603837.7291469 4934073.043212194 4934073.043212194 1229703.686953932 0 0 0 0 0 114241071.4325105 4684912.303758608 4684912.303758608 658702.3624556875 0 0 0 0 0 113696448.2703526 4670127.403362872 4670127.403362872 899980.8114320691 0 0 0 0 0 113863307.4215993 4675391.652532392 4675391.652532392 762424.4993244014 0 0 0 0 0 113344630.6109044 4652952.612833284 4652952.612833284 989239.064007745 0 0 0 0 0 113004381.1470663 4631544.637666174 4631544.637666174 1072393.734440282 0 0 0 0 0 112674887.7715819 4606051.3972185 4606051.3972185 1148935.847339935 0 0 0 0 0 112355866.4429474 4576929.548793815 4576929.548793815 1219927.676939114 0 0 0 0 0 111938367.8845265 4354124.908812994 4354124.908812994 872581.3610749881 0 0 0 0 0 112054631.0830458 4372064.367360485 4372064.367360485 754674.3594761676 0 0 0 0 0 111646827.1315194 4326798.277930713 4326798.277930713 945754.3990379627 0 0 0 0 0 111364540.2348572 4296708.823348002 4296708.823348002 1013476.763926143 0 0 0 0 0 111091450.68431 4264413.747056454 4264413.747056454 1075223.904070954 0 0 0 0 0 110831911.2153374 4228135.4678993 4228135.4678993 1131774.464833084 0 0 0 0 0 110585015.8767317 4192216.661340165 4192216.661340165 1163528.745936893 0 0 0 0 0 110207738.595318 4000824.104529285 4000824.104529285 829574.103192063 0 0 0 0 0 110378813.2129269 4110566.575871376 4110566.575871376 979603.3381012441 0 0 0 0 0 121515717.545561 5494278.817560656 5494278.817560656 2055191.265428282 0 0 0 0 0 149707728.4018656 -80991073.18770553 -80991073.18770553 50924296.34431336 0 0 0 0 0 144524170.5837203 -64980585.78818285 -64980585.78818285 38527927.98175862 0 0 0 0 0 144789939.5862912 -40915237.55828284 -40915237.55828284 21802689.25106039 0 0 0 0 0 155699898.9150649 -52281398.01296254 -52281398.01296254 31637841.1406376 0 0 0 0 0 153142144.9849412 -62194161.96334939 -62194161.96334939 35495465.29931674 0 0 0 0 0 146896856.9317536 -34145447.18047233 -34145447.18047233 18663863.30971897 0 0 0 0 0 148182374.2175652 -28305820.49967119 -28305820.49967119 16207999.60396003 0 0 0 0 0 148718807.2786308 -23245675.35192739 -23245675.35192739 14307790.87989643 0 0 0 0 0 148721849.0372418 -18852870.11244284 -18852870.11244284 12840294.45021853 0 0 0 0 0 148260697.5009331 -15056020.08098636 -15056020.08098636 11690340.69455799 0 0 0 0 0 147495418.3718074 -11790165.70623239 -11790165.70623239 10812034.70480556 0 0 0 0 0 146531614.6846526 -8962419.854754083 -8962419.854754083 10138853.97216878 0 0 0 0 0 145409563.6161126 -6520972.641185906 -6520972.641185906 9617372.43079558 0 0 0 0 0 145724658.9203179 -6760471.067244369 -6760471.067244369 8345974.492839308 0 0 0 0 0 142029342.0306042 -4159274.859525469 -4159274.859525469 6939331.02345281 0 0 0 0 0 140928265.3273466 -2481220.779514778 -2481220.779514778 6711596.427222109 0 0 0 0 0 139770884.0371769 -1029124.773431656 -1029124.773431656 6549447.454471796 0 0 0 0 0 138580602.8697448 226051.3976634034 226051.3976634034 6436795.500078889 0 0 0 0 0 136008971.8232166 1116685.745692742 1116685.745692742 4496563.233897341 0 0 0 0 0 138227046.7655089 -243742.1540174464 -243742.1540174464 5000136.466473578 0 0 0 0 0 134927019.3957012 2005660.428515239 2005660.428515239 4515929.653642581 0 0 0 0 0 133842523.643646 2774000.263118473 2774000.263118473 4552499.783462651 0 0 0 0 0 132767763.3636181 3436651.919015127 3436651.919015127 4599143.554234547 0 0 0 0 0 131713053.4138028 4006202.849240682 4006202.849240682 4648869.025355891 0 0 0 0 0 130675120.2697937 4491165.68452841 4491165.68452841 4700259.105249664 0 0 0 0 0 129660429.3671193 4903886.4998164 4903886.4998164 4750966.549023088 0 0 0 0 0 129015806.9760798 4391834.891241362 4391834.891241362 3479566.886422852 0 0 0 0 0 127982404.6926869 4897043.057193655 4897043.057193655 3441575.369232767 0 0 0 0 0 127083686.4055909 5192035.789568441 5192035.789568441 3539378.562658599 0 0 0 0 0 126214880.6167066 5441823.105314442 5441823.105314442 3633625.365019911 0 0 0 0 0 125369742.0085756 5649121.582543423 5649121.582543423 3718359.595278678 0 0 0 0 0 124553075.4155185 5821477.824618806 5821477.824618806 3799225.618698987 0 0 0 0 0 123764984.5744728 5962226.834849284 5962226.834849284 3874860.438052427 0 0 0 0 0 123162923.5361572 5523268.232861431 5523268.232861431 2829110.901798836 0 0 0 0 0 122597018.5093077 5738614.800486267 5738614.800486267 2907794.966100815 0 0 0 0 0 121896277.1977926 5835191.814666759 5835191.814666759 3003857.379166527 0 0 0 0 0 120985883.5482012 5110043.063648598 5110043.063648598 1144578.259926761 0 0 0 0 0 120347295.9008027 5204061.796385882 5204061.796385882 1287146.529993752 0 0 0 0 0 119426016.9211388 4964810.786170376 4964810.786170376 620911.7622545307 0 0 0 0 0 119914985.1044219 5314433.510030209 5314433.510030209 1443919.925543786 0 0 0 0 0 118855646.7676282 5037574.704784166 5037574.704784166 777971.1137781515 0 0 0 0 0 118304036.0115823 5092472.357034502 5092472.357034502 924195.5600068952 0 0 0 0 0 117769642.6958272 5131203.340520597 5131203.340520597 1053280.82241847 0 0 0 0 0 117257446.5834679 5160493.59895335 5160493.59895335 1175954.865493949 0 0 0 0 0 116551342.776435 4906072.003189137 4906072.003189137 640014.811424659 0 0 0 0 0 116977347.4854224 5202677.682980156 5202677.682980156 1327050.814378847 0 0 0 0 0 116088835.6185848 4923803.929847969 4923803.929847969 766383.8001108577 0 0 0 0 0 115641633.0288938 4932722.780866009 4932722.780866009 884140.5000529031 0 0 0 0 0 115209725.6321626 4933563.345748222 4933563.345748222 994235.0402184507 0 0 0 0 0 114792731.7980734 4927374.119998826 4927374.119998826 1096495.628070058 0 0 0 0 0 114390307.5746554 4914876.182812232 4914876.182812232 1191690.848866547 0 0 0 0 0 114217258.9957724 4918010.570027213 4918010.570027213 1317527.927583188 0 0 0 0 0 113498042.5498015 4660538.439525654 4660538.439525654 859167.6332919977 0 0 0 0 0 113843176.2365149 4896764.682200236 4896764.682200236 1398941.998236782 0 0 0 0 0 113145076.6815096 4641169.334670554 4641169.334670554 949536.4787456552 0 0 0 0 0 112803703.6720274 4617647.896507135 4617647.896507135 1033972.894165361 0 0 0 0 0 112474106.1616451 4590142.341942493 4590142.341942493 1112020.62504473 0 0 0 0 0 112155368.8684452 4559348.342162274 4559348.342162274 1184262.090767796 0 0 0 0 0 111753464.3273981 4345774.884335521 4345774.884335521 834049.9722410435 0 0 0 0 0 112046704.9959026 4544870.18614783 4544870.18614783 1286651.086943191 0 0 0 0 0 111461919.0873606 4316611.368507877 4316611.368507877 908513.3299515763 0 0 0 0 0 111179819.171619 4284504.176519649 4284504.176519649 977673.4198283231 0 0 0 0 0 110906011.6158641 4249138.592664654 4249138.592664654 1041342.492737467 0 0 0 0 0 110631409.1912437 4209394.129431752 4209394.129431752 1099143.37979562 0 0 0 0 0 110386456.604332 4171587.251090153 4171587.251090153 1156177.08923567 0 0 0 0 0 109954312.4943421 3972361.539056179 3972361.539056179 996790.4382407962 0 0 0 0 0 110190433.1280114 4084471.761614202 4084471.761614202 1156190.334966298 0 0 0 0 0 121338770.5620234 5433664.557942731 5433664.557942731 2054071.508893116 0 0 0 0 0 144348014.9808677 -77570852.98293608 -77570852.98293608 42458979.9447815 0 0 0 0 0 158604372.6528942 -69269675.70286517 -69269675.70286517 41158464.45526553 0 0 0 0 0 157192571.0426664 -43789255.79004008 -43789255.79004008 26714715.81947612 0 0 0 0 0 149794592.2500471 -46253338.50259153 -46253338.50259153 25271093.48783847 0 0 0 0 0 148030804.2998217 -54893091.11617844 -54893091.11617844 29113197.45817087 0 0 0 0 0 157355284.4042332 -36557880.2380543 -36557880.2380543 22792737.64229117 0 0 0 0 0 156911098.3571188 -30308940.39247818 -30308940.39247818 19650928.04708533 0 0 0 0 0 156012049.8725411 -24918517.90954886 -24918517.90954886 17183625.34771426 0 0 0 0 0 154774160.3619761 -20275064.50022772 -20275064.50022772 15254550.25668826 0 0 0 0 0 153284026.1420038 -16285012.93803999 -16285012.93803999 13734595.38776237 0 0 0 0 0 151672607.4416543 -12837325.66765341 -12837325.66765341 12522057.55251162 0 0 0 0 0 149978969.1312815 -9875383.359298956 -9875383.359298956 11582963.57653883 0 0 0 0 0 148243677.1086136 -7326865.467480001 -7326865.467480001 10842340.3243533 0 0 0 0 0 144175534.3403424 -4416471.846023373 -4416471.846023373 9211997.573396247 0 0 0 0 0 144236492.0642006 -4747031.906638389 -4747031.906638389 7866690.350166173 0 0 0 0 0 142729985.4359663 -3006354.040042469 -3006354.040042469 7499179.175258446 0 0 0 0 0 141230629.374501 -1502604.695481217 -1502604.695481217 7219902.762591625 0 0 0 0 0 139752047.2884724 -204938.3570464163 -204938.3570464163 7009030.11916841 0 0 0 0 0 136923615.2587685 811306.8609287182 811306.8609287182 4922686.465034589 0 0 0 0 0 137376388.4056457 1309388.416707245 1309388.416707245 6360362.626832871 0 0 0 0 0 135643700.5520186 1723713.657204745 1723713.657204745 4878705.998927631 0 0 0 0 0 134392247.8926378 2510816.222762867 2510816.222762867 4862392.610755059 0 0 0 0 0 133175433.4808483 3189788.701199061 3189788.701199061 4863738.497385922 0 0 0 0 0 131990031.6783046 3770635.755592436 3770635.755592436 4876459.945249709 0 0 0 0 0 130847069.0965426 4267348.913337259 4267348.913337259 4894682.630529443 0 0 0 0 0 129745309.2927045 4689420.955384959 4689420.955384959 4917811.275070657 0 0 0 0 0 128676491.3070342 5253448.350379515 5253448.350379515 4800786.570929877 0 0 0 0 0 128019974.4425338 4745652.177059524 4745652.177059524 3555647.395525171 0 0 0 0 0 127061626.3268076 5047123.212213827 5047123.212213827 3632604.185364742 0 0 0 0 0 126137032.7249921 5300556.940453703 5300556.940453703 3711303.99888557 0 0 0 0 0 125255274.1662245 5512800.155077877 5512800.155077877 3783783.870476921 0 0 0 0 0 124400082.850116 5687167.576962632 5687167.576962632 3853764.472639024 0 0 0 0 0 123576111.9115558 5829181.17050706 5829181.17050706 3919530.350211713 0 0 0 0 0 123004446.7679634 6074148.436090805 6074148.436090805 3943920.681567817 0 0 0 0 0 122409934.4386885 5644806.199359982 5644806.199359982 2926719.835004094 0 0 0 0 0 121685636.7805595 5741512.821329318 5741512.821329318 3017073.620014987 0 0 0 0 0 120869892.7873587 5579388.938402802 5579388.938402802 2173237.406234795 0 0 0 0 0 120244346.2497057 5645823.96052241 5645823.96052241 2283604.266841061 0 0 0 0 0 119336276.0254205 5377787.53363802 5377787.53363802 1580517.34065254 0 0 0 0 0 119730775.2828825 5279743.231941913 5279743.231941913 1423429.107889857 0 0 0 0 0 118776905.3653012 5426366.530274536 5426366.530274536 1703580.163853287 0 0 0 0 0 118234605.9137311 5457872.979110182 5457872.979110182 1813469.702364011 0 0 0 0 0 117710539.6578937 5476606.764472345 5476606.764472345 1913110.596190305 0 0 0 0 0 117203786.0205997 5486642.711208119 5486642.711208119 2009129.934441064 0 0 0 0 0 116503637.2097107 5211895.961928518 5211895.961928518 1432522.067781745 0 0 0 0 0 116760144.9786749 5177724.253353895 5177724.253353895 1292729.676723402 0 0 0 0 0 116047031.6257675 5213366.035747821 5213366.035747821 1531441.025714102 0 0 0 0 0 115605281.3121969 5206751.160492579 5206751.160492579 1622959.083063158 0 0 0 0 0 115178391.0417346 5193224.174070397 5193224.174070397 1707450.89958179 0 0 0 0 0 114766040.1751836 5173435.333800074 5173435.333800074 1785168.017344204 0 0 0 0 0 114367556.1241297 5148148.609250722 5148148.609250722 1856959.207762469 0 0 0 0 0 114001557.2457055 4896679.714118716 4896679.714118716 1280501.312808107 0 0 0 0 0 113481225.0139676 4870907.27043908 4870907.27043908 1474266.437148405 0 0 0 0 0 113626188.2072044 4873484.901849656 4873484.901849656 1362961.595651815 0 0 0 0 0 113131125.917747 4841169.098557163 4841169.098557163 1544157.644724489 0 0 0 0 0 112793066.3064521 4807790.361346927 4807790.361346927 1607983.82956943 0 0 0 0 0 112465648.5572418 4771007.997782054 4771007.997782054 1666352.403327581 0 0 0 0 0 112148829.1245374 4731558.717574627 4731558.717574627 1720324.91655628 0 0 0 0 0 111747651.4452713 4510511.579799891 4510511.579799891 1349064.40223128 0 0 0 0 0 111847090.9517484 4525955.605022555 4525955.605022555 1251789.636805909 0 0 0 0 0 111458335.9365249 4473551.026741881 4473551.026741881 1407182.132552649 0 0 0 0 0 111178435.4436157 4434122.012975837 4434122.012975837 1461661.839171683 0 0 0 0 0 110905840.1264298 4393425.30102148 4393425.30102148 1513866.335480002 0 0 0 0 0 110647762.9012652 4353747.903548976 4353747.903548976 1554210.442192512 0 0 0 0 0 110417546.1305542 4268404.216321537 4268404.216321537 1340168.591898405 0 0 0 0 0 110211233.2325579 4157932.614927822 4157932.614927822 1231622.887965725 0 0 0 0 0 121219413.286812 5909902.425459412 5909902.425459412 3091368.004882659 0 0 0 0 0 165157479.3001786 -82657323.70198895 -82657323.70198895 48259064.83291031 0 0 0 0 0 152200323.3445253 -65750749.68210125 -65750749.68210125 34834940.05842645 0 0 0 0 0 152006340.881672 -38311154.71220181 -38311154.71220181 21876314.64094441 0 0 0 0 0 164660686.1771923 -49878248.05595449 -49878248.05595449 31272082.83920475 0 0 0 0 0 165006890.1460119 -59122680.30524292 -59122680.30524292 36006950.53089122 0 0 0 0 0 152811322.6105539 -31577705.51955011 -31577705.51955011 19225835.1924387 0 0 0 0 0 152983097.7323574 -25771102.80957815 -25771102.80957815 17191165.02097036 0 0 0 0 0 152584828.9967443 -20797671.40882275 -20797671.40882275 15607243.78552159 0 0 0 0 0 151793955.3098896 -16537938.02507976 -16537938.02507976 14374840.85731584 0 0 0 0 0 150707891.541316 -12884174.43594213 -12884174.43594213 13400579.66466486 0 0 0 0 0 149420697.5643235 -9761595.732222984 -9761595.732222984 12635123.49554174 0 0 0 0 0 148010705.0352741 -7086285.518384461 -7086285.518384461 12034172.11078095 0 0 0 0 0 146522086.9954962 -4792533.282526555 -4792533.282526555 11548862.0336597 0 0 0 0 0 146491200.7533157 -5135311.393809591 -5135311.393809591 10254744.55061307 0 0 0 0 0 142871748.1913635 -2605340.771909843 -2605340.771909843 8897007.952867648 0 0 0 0 0 141533298.0446884 -1047555.942215745 -1047555.942215745 8652828.754149001 0 0 0 0 0 140176556.9451181 289183.2885907163 289183.2885907163 8461825.382901389 0 0 0 0 0 138819289.6667657 1435812.820419621 1435812.820419621 8309863.657550996 0 0 0 0 0 136172729.8897159 2241421.181545658 2241421.181545658 6308745.572711874 0 0 0 0 0 138299993.887315 912483.595813232 912483.595813232 6850342.507113812 0 0 0 0 0 134977326.0687509 3041401.780284593 3041401.780284593 6276317.703248326 0 0 0 0 0 133800757.9925742 3726680.606678548 3726680.606678548 6256654.697957568 0 0 0 0 0 132646516.6776296 4310762.832901873 4310762.832901873 6245511.642560656 0 0 0 0 0 131526317.5006794 4806764.132746071 4806764.132746071 6238435.361190086 0 0 0 0 0 130436007.9242855 5225462.179157054 5225462.179157054 6230957.659446846 0 0 0 0 0 129376448.3944855 5575631.135807972 5575631.135807972 6230440.983157611 0 0 0 0 0 128680503.1840857 5047013.013062683 5047013.013062683 4944357.832464575 0 0 0 0 0 127718814.0437719 5545293.386743351 5545293.386743351 4848187.544564401 0 0 0 0 0 126794122.7848854 5790484.676282906 5790484.676282906 4895350.496683475 0 0 0 0 0 125903840.1344458 5990891.106695026 5990891.106695026 4933608.362170227 0 0 0 0 0 125037117.407605 6153477.99621019 6153477.99621019 4967616.923481524 0 0 0 0 0 124205054.1210265 6285123.906622254 6285123.906622254 5002596.251985818 0 0 0 0 0 123405276.1153166 6388183.633809373 6388183.633809373 5032404.247189411 0 0 0 0 0 122784506.3640547 5942519.37919982 5942519.37919982 3980282.789575415 0 0 0 0 0 122270219.0778892 6160452.887139201 6160452.887139201 4004934.223214899 0 0 0 0 0 121562328.1848633 6224144.325712169 6224144.325712169 4058133.269600244 0 0 0 0 0 120671259.8314382 5517707.647216076 5517707.647216076 2167656.215668845 0 0 0 0 0 120028271.6504812 5582631.815218064 5582631.815218064 2274888.887418107 0 0 0 0 0 119136827.4216447 5341515.207715036 5341515.207715036 1554987.532036658 0 0 0 0 0 119639619.9556856 5696818.460484695 5696818.460484695 2393246.571513302 0 0 0 0 0 118563322.6999533 5386444.337769736 5386444.337769736 1679731.258783665 0 0 0 0 0 118010163.6696071 5416081.208514903 5416081.208514903 1788488.600195369 0 0 0 0 0 117477041.1990546 5433166.890172624 5433166.890172624 1886839.583178833 0 0 0 0 0 116964357.9395677 5440761.857905218 5440761.857905218 1982677.858345439 0 0 0 0 0 116283074.4001509 5184995.199611416 5184995.199611416 1398080.217751799 0 0 0 0 0 116716300.6698772 5485695.25952664 5485695.25952664 2092675.943933858 0 0 0 0 0 115821431.5358035 5183807.919751654 5183807.919751654 1497590.120653156 0 0 0 0 0 115376140.2533626 5175163.534272256 5175163.534272256 1589722.52033923 0 0 0 0 0 114946451.9610674 5159729.091368767 5159729.091368767 1674819.62742588 0 0 0 0 0 114532150.9681828 5138261.355773815 5138261.355773815 1753244.432043996 0 0 0 0 0 114132688.2999995 5111536.223493264 5111536.223493264 1825699.447271755 0 0 0 0 0 113982593.571427 5118003.72819868 5118003.72819868 1922839.371399835 0 0 0 0 0 113263768.5585864 4845923.189954814 4845923.189954814 1439274.484859952 0 0 0 0 0 113610643.1005909 5083630.195704925 5083630.195704925 1983210.011986085 0 0 0 0 0 112913804.0613521 4814591.66082954 4814591.66082954 1510293.800759948 0 0 0 0 0 112575967.832031 4779683.268930219 4779683.268930219 1575495.895267761 0 0 0 0 0 112249662.3237451 4741622.434730696 4741622.434730696 1635069.038658985 0 0 0 0 0 111934460.5023361 4701056.178614256 4701056.178614256 1689906.568213674 0 0 0 0 0 111549050.0182789 4490223.339462949 4490223.339462949 1315385.269782181 0 0 0 0 0 111842607.1433083 4690083.760257579 4690083.760257579 1770600.384934094 0 0 0 0 0 111260676.3900446 4452280.451183049 4452280.451183049 1374428.408505999 0 0 0 0 0 110982546.8312989 4412456.708120408 4412456.708120408 1429608.179965388 0 0 0 0 0 110716290.722601 4372969.968153994 4372969.968153994 1482454.789350888 0 0 0 0 0 110471073.3155896 4335157.663817655 4335157.663817655 1527643.197051244 0 0 0 0 0 110183455.9233499 4238036.996481626 4238036.996481626 1576020.196588866 0 0 0 0 0 109945658.1076731 4119629.262760935 4119629.262760935 1369240.555732593 0 0 0 0 0 120989282.8398084 5816118.28957752 5816118.28957752 3100066.210125829 0 0 0 0 0 158586283.276198 -78627226.57595181 -78627226.57595181 39769256.37279952 0 0 0 0 0 170602579.4211579 -69817485.64826709 -69817485.64826709 39462444.10406694 0 0 0 0 0 163671389.7899439 -41077882.46811534 -41077882.46811534 26535482.50445525 0 0 0 0 0 158103376.1457577 -43168528.83445239 -43168528.83445239 24501876.5003476 0 0 0 0 0 157339333.6762196 -52711046.49172432 -52711046.49172432 28319055.44001914 0 0 0 0 0 162559069.5709066 -33861594.35877425 -33861594.35877425 23096928.67097386 0 0 0 0 0 161028653.0784122 -27691030.83952738 -27691030.83952738 20415948.86884481 0 0 0 0 0 159228168.9028377 -22428446.00224125 -22428446.00224125 18303558.5801082 0 0 0 0 0 157259587.4149165 -17938616.46915855 -17938616.46915855 16634251.42759552 0 0 0 0 0 155189437.0688308 -14109225.08655349 -14109225.08655349 15310436.79833028 0 0 0 0 0 153093038.1867716 -10832367.69947723 -10832367.69947723 14242316.31947017 0 0 0 0 0 151009480.5028224 -8033523.098181296 -8033523.098181296 13392481.45849294 0 0 0 0 0 148949470.216251 -5643655.476469029 -5643655.476469029 12709002.07045287 0 0 0 0 0 144982607.0347397 -2831550.541088495 -2831550.541088495 11152425.03676753 0 0 0 0 0 144749662.2276687 -3250993.257448921 -3250993.257448921 9785171.287096947 0 0 0 0 0 143037273.7092088 -1632969.377866129 -1632969.377866129 9410152.980360756 0 0 0 0 0 141368056.1747577 -246458.6984063966 -246458.6984063966 9110275.80531482 0 0 0 0 0 139748737.3268374 941726.0528666308 941726.0528666308 8867666.002977431 0 0 0 0 0 136880672.6848855 1872224.625668211 1872224.625668211 6729602.605939145 0 0 0 0 0 137476100.4229051 2417036.210635639 2417036.210635639 8186990.589048213 0 0 0 0 0 135506228.0080013 2696609.289383526 2696609.289383526 6637171.574157409 0 0 0 0 0 134180979.3105122 3403296.873486092 3403296.873486092 6567429.143358018 0 0 0 0 0 132900470.0938936 4004878.280493565 4004878.280493565 6514409.528945168 0 0 0 0 0 131666303.7247078 4515533.137623582 4515533.137623582 6471230.673786442 0 0 0 0 0 130483630.1557849 4946777.838317531 4946777.838317531 6434744.642223791 0 0 0 0 0 129352456.6038959 5311567.083944553 5311567.083944553 6403120.96443153 0 0 0 0 0 128359612.9527528 5868343.580501935 5868343.580501935 6226050.169723908 0 0 0 0 0 127660931.2557386 5347700.232281891 5347700.232281891 4969137.482075267 0 0 0 0 0 126682718.9622775 5599455.62478376 5599455.62478376 4998418.400743023 0 0 0 0 0 125746240.1568818 5806397.404710415 5806397.404710415 5023304.597209848 0 0 0 0 0 124850028.7546155 5973989.561272822 5973989.561272822 5045311.908675074 0 0 0 0 0 123986652.5181547 6110518.901670154 6110518.901670154 5067732.405334598 0 0 0 0 0 123158582.1708237 6217268.257289096 6217268.257289096 5087538.714279629 0 0 0 0 0 122637941.526273 6465967.765874691 6465967.765874691 5057653.552543782 0 0 0 0 0 122026834.6491005 6030681.529367479 6030681.529367479 4034606.077324538 0 0 0 0 0 121300493.6073419 6096222.214594115 6096222.214594115 4082330.015021126 0 0 0 0 0 120565940.0989832 5964891.690627391 5964891.690627391 3171714.848959169 0 0 0 0 0 119935651.8819609 6003399.354269073 6003399.354269073 3248202.047097119 0 0 0 0 0 119056379.6097707 5734078.854875338 5734078.854875338 2490900.398280806 0 0 0 0 0 119411512.0138159 5633665.915039726 5633665.915039726 2377756.805709998 0 0 0 0 0 118492642.4654035 5754769.825895249 5754769.825895249 2576503.461310854 0 0 0 0 0 117948573.4826582 5763045.882634612 5763045.882634612 2653461.365335076 0 0 0 0 0 117423449.684438 5760584.848296292 5760584.848296292 2723717.202445155 0 0 0 0 0 116917149.5750673 5749428.741002273 5749428.741002273 2787768.696030286 0 0 0 0 0 116242906.0062999 5475970.165076621 5475970.165076621 2171654.20358963 0 0 0 0 0 116468701.3436703 5437484.166842413 5437484.166842413 2067306.378239603 0 0 0 0 0 115786067.7386439 5458662.922263767 5458662.922263767 2242677.246885667 0 0 0 0 0 115345549.5790463 5435238.334782111 5435238.334782111 2308660.645444599 0 0 0 0 0 114920561.2472168 5406014.432916123 5406014.432916123 2368551.813532552 0 0 0 0 0 114510464.2668336 5371605.32414084 5371605.32414084 2422767.213790756 0 0 0 0 0 114114669.2423624 5332703.961639245 5332703.961639245 2471856.9104076 0 0 0 0 0 113747343.6677929 5080082.872457338 5080082.872457338 1892400.021377295 0 0 0 0 0 113251138.3766339 5045558.607104645 5045558.607104645 2038446.011401788 0 0 0 0 0 113375568.1638184 5044493.800116679 5044493.800116679 1953647.764732287 0 0 0 0 0 112904130.6019949 5004228.995360605 5004228.995360605 2088722.921164799 0 0 0 0 0 112568675.3451439 4959870.510923105 4959870.510923105 2133502.358209665 0 0 0 0 0 112244516.0920011 4913096.161885954 4913096.161885954 2174088.974995146 0 0 0 0 0 111931126.1820502 4864374.876413057 4864374.876413057 2211234.96948179 0 0 0 0 0 111546314.6635722 4646582.448313166 4646582.448313166 1816644.57422954 0 0 0 0 0 111629932.5183011 4658544.153558076 4658544.153558076 1741177.206593247 0 0 0 0 0 111259843.2145649 4601161.457553892 4601161.457553892 1859200.074425467 0 0 0 0 0 110982732.3363315 4554900.739555776 4554900.739555776 1897688.873227181 0 0 0 0 0 110718100.631578 4505317.078158808 4505317.078158808 1924826.155318656 0 0 0 0 0 110450080.558446 4451411.920778462 4451411.920778462 1899753.935113624 0 0 0 0 0 110207807.6451513 4305932.848785796 4305932.848785796 1631485.050526494 0 0 0 0 0 110356004.3317136 4391517.122114437 4391517.122114437 1673548.05220538 0 0 0 0 0 120880373.4554006 6268428.715557421 6268428.715557421 4104868.642791424 0 0 0 0 0 181144086.4413913 -83138018.62547362 -83138018.62547362 45410248.16852939 0 0 0 0 0 168372161.6715674 -68192495.00468151 -68192495.00468151 35159877.1466571 0 0 0 0 0 158331187.1209097 -35360407.83877285 -35360407.83877285 21915257.56313182 0 0 0 0 0 171036923.7719379 -45976289.62429741 -45976289.62429741 29493577.68708624 0 0 0 0 0 172388968.3527681 -56216612.99659935 -56216612.99659935 34403879.4087037 0 0 0 0 0 157969306.8989071 -28696255.12422432 -28696255.12422432 19853033.68096472 0 0 0 0 0 157073353.7225194 -23049491.15544325 -23049491.15544325 18237753.76291253 0 0 0 0 0 155817466.3029134 -18257544.34238029 -18257544.34238029 16964027.93264645 0 0 0 0 0 154315289.1322559 -14188549.1783 -14188549.1783 15948400.10604559 0 0 0 0 0 152650825.9711365 -10728826.8818633 -10728826.8818633 15129205.73142501 0 0 0 0 0 150896107.6041101 -7790114.165406857 -7790114.165406857 14464224.86013694 0 0 0 0 0 149095828.2373433 -5290451.710888991 -5290451.710888991 13917866.38584374 0 0 0 0 0 147280510.7397776 -3164984.421444824 -3164984.421444824 13454382.46129343 0 0 0 0 0 146935275.5466802 -3600979.253294218 -3600979.253294218 12144175.94113399 0 0 0 0 0 143426944.0758429 -1156677.035004452 -1156677.035004452 10831064.13214144 0 0 0 0 0 141880571.3525006 272898.1818803235 272898.1818803235 10564321.20761781 0 0 0 0 0 140353373.6976348 1491937.209046051 1491937.209046051 10338258.80910002 0 0 0 0 0 138854826.1701947 2528961.773166415 2528961.773166415 10142117.00414254 0 0 0 0 0 136158756.0171707 3255376.12790493 3255376.12790493 8083982.892233996 0 0 0 0 0 138183038.993908 1958512.877070267 1958512.877070267 8667592.382520365 0 0 0 0 0 134870409.1006275 3967368.459035874 3967368.459035874 7997731.881931909 0 0 0 0 0 133614319.6053148 4570773.748050823 4570773.748050823 7919726.424087382 0 0 0 0 0 132397337.0264912 5079248.199825793 5079248.199825793 7853230.771144952 0 0 0 0 0 131226629.1245329 5506642.54910865 5506642.54910865 7789614.849492574 0 0 0 0 0 130095726.1530798 5862168.528217953 5862168.528217953 7728696.031709918 0 0 0 0 0 129008781.4164996 6156900.003637341 6156900.003637341 7671439.918558965 0 0 0 0 0 128267257.4541026 5614560.178556504 5614560.178556504 6377108.175584411 0 0 0 0 0 127377198.2880262 6110083.358158058 6110083.358158058 6222052.68788397 0 0 0 0 0 126431982.2301618 6304848.075047779 6304848.075047779 6211958.64793446 0 0 0 0 0 125523905.0557426 6461177.052270296 6461177.052270296 6195845.030180904 0 0 0 0 0 124645230.6038514 6583574.295861325 6583574.295861325 6184048.108367573 0 0 0 0 0 123804950.7165365 6678610.176460707 6678610.176460707 6172138.776072598 0 0 0 0 0 122997272.1439354 6747127.386534402 6747127.386534402 6157983.099330485 0 0 0 0 0 122363193.2772658 6297676.370340116 6297676.370340116 5105113.760000519 0 0 0 0 0 121898421.7757239 6519860.523215721 6519860.523215721 5074103.465698397 0 0 0 0 0 121187170.5448477 6553752.404033262 6553752.404033262 5085043.266032443 0 0 0 0 0 120321147.0020043 5872220.672100536 5872220.672100536 3176084.496624004 0 0 0 0 0 119682334.6327473 5912305.722834568 5912305.722834568 3245092.347418472 0 0 0 0 0 118815103.0535904 5668516.317866199 5668516.317866199 2477821.112560395 0 0 0 0 0 119328099.9605473 6029880.667739898 6029880.667739898 3319239.514672672 0 0 0 0 0 118241046.5863458 5687816.396728496 5687816.396728496 2561852.018137902 0 0 0 0 0 117689268.1891863 5695063.134526857 5695063.134526857 2637621.759336835 0 0 0 0 0 117158591.2510498 5692205.48718622 5692205.48718622 2706989.500224604 0 0 0 0 0 116648182.0430709 5680136.391094275 5680136.391094275 2770705.713050148 0 0 0 0 0 115992920.0104208 5426830.074505823 5426830.074505823 2145387.415855814 0 0 0 0 0 116429614.7379262 5729338.43374876 5729338.43374876 2843701.529256016 0 0 0 0 0 115534660.2791809 5408587.963990944 5408587.963990944 2216779.729660227 0 0 0 0 0 115092553.3439194 5383996.21611496 5383996.21611496 2283016.89809595 0 0 0 0 0 114666676.3584831 5353818.147141682 5353818.147141682 2343379.921538031 0 0 0 0 0 114256399.4449538 5318605.658978432 5318605.658978432 2398106.279408869 0 0 0 0 0 113861168.7141919 5279033.039445408 5279033.039445408 2447761.520034099 0 0 0 0 0 113732639.7615447 5289825.67787477 5289825.67787477 2516038.85173253 0 0 0 0 0 113017068.1311503 5005377.91321745 5005377.91321745 2009782.257349676 0 0 0 0 0 113363975.2028171 5243568.816397689 5243568.816397689 2555582.482631848 0 0 0 0 0 112670986.7034863 4963105.991532324 4963105.991532324 2061108.428501306 0 0 0 0 0 112337372.9294231 4917911.452758504 4917911.452758504 2107155.895868439 0 0 0 0 0 112015328.1045544 4870385.074959232 4870385.074959232 2148602.922610587 0 0 0 0 0 111704369.7882151 4821031.763863302 4821031.763863302 2186447.574811977 0 0 0 0 0 111335815.2090623 4614210.40947626 4614210.40947626 1788334.46358138 0 0 0 0 0 111628379.7070655 4814055.442249392 4814055.442249392 2244502.300284214 0 0 0 0 0 111051665.2987558 4568504.447222451 4568504.447222451 1831643.368011771 0 0 0 0 0 110781632.9525302 4522255.631762395 4522255.631762395 1871809.146042153 0 0 0 0 0 110529543.4881003 4476288.486587455 4476288.486587455 1902100.412258099 0 0 0 0 0 110293932.4747701 4436012.133490182 4436012.133490182 1914212.355480054 0 0 0 0 0 109929216.7128166 4257542.51884636 4257542.51884636 1755784.387308167 0 0 0 0 0 110123894.3407419 4360821.481950196 4360821.481950196 1903589.679733443 0 0 0 0 0 120603550.3888347 6142092.528821415 6142092.528821415 4124197.988554276 0 0 0 0 0 174118713.7631437 -78827754.90253468 -78827754.90253468 35895075.61310901 0 0 0 0 0 169916318.653255 -58443538.21168467 -58443538.21168467 30107252.72203096 0 0 0 0 0 184413989.7413504 -71060705.72258796 -71060705.72258796 38118009.31069616 0 0 0 0 0 169141752.0080711 -37803192.65644115 -37803192.65644115 26141529.62016721 0 0 0 0 0 164843993.0942398 -48402587.01924395 -48402587.01924395 26812954.5487154 0 0 0 0 0 164965994.8263435 -39470774.67771671 -39470774.67771671 24221942.62043107 0 0 0 0 0 166835800.6602674 -30805305.61947883 -30805305.61947883 23403422.64912135 0 0 0 0 0 164320089.4773701 -24862482.77767848 -24862482.77767848 21201477.59012067 0 0 0 0 0 161730476.8255568 -19828606.95288106 -19828606.95288106 19445309.41759945 0 0 0 0 0 159132499.1312346 -15564224.3250832 -15564224.3250832 18035696.9321674 0 0 0 0 0 156562531.4016842 -11948769.99900659 -11948769.99900659 16896037.65023053 0 0 0 0 0 154058835.6088928 -8878557.983072581 -8878557.983072581 15960539.96989562 0 0 0 0 0 151639157.0601997 -6271077.451810663 -6271077.451810663 15191846.15752248 0 0 0 0 0 149304971.8414001 -4058398.64561054 -4058398.64561054 14550078.30960472 0 0 0 0 0 145474528.4203935 -1360934.225488318 -1360934.225488318 13063092.2397397 0 0 0 0 0 144980601.2938291 -1856919.834298208 -1856919.834298208 11678467.78323763 0 0 0 0 0 143096843.3010764 -370088.7023405383 -370088.7023405383 11291863.5616973 0 0 0 0 0 141287238.2312379 896746.7936749476 896746.7936749476 10966002.18021945 0 0 0 0 0 139553905.4388294 1974705.680351491 1974705.680351491 10686625.37329683 0 0 0 0 0 136675110.5517341 2825937.14110663 2825937.14110663 8499506.896771464 0 0 0 0 0 137395142.9246766 3408756.486826906 3408756.486826906 9969817.45688314 0 0 0 0 0 135224643.0758808 3563208.296041867 3563208.296041867 8357793.459969036 0 0 0 0 0 133837518.427168 4188594.669507287 4188594.669507287 8235171.825061991 0 0 0 0 0 132511789.8127249 4718680.631297532 4718680.631297532 8124855.169970655 0 0 0 0 0 131244278.3318515 5163399.938196617 5163399.938196617 8027884.148943446 0 0 0 0 0 130035195.6466976 5534344.758212004 5534344.758212004 7936986.952885042 0 0 0 0 0 128882430.1416319 5842518.483120475 5842518.483120475 7854706.789020165 0 0 0 0 0 127964785.2610721 6396706.470912861 6396706.470912861 7612976.929504544 0 0 0 0 0 127230317.238046 5865479.813696037 5865479.813696037 6353145.223094125 0 0 0 0 0 126241587.1477023 6070400.335062971 6070400.335062971 6328641.243957964 0 0 0 0 0 125295623.4940101 6233135.349822992 6233135.349822992 6299812.833303378 0 0 0 0 0 124393124.6383065 6363585.435313097 6363585.435313097 6270824.908326025 0 0 0 0 0 123525670.8236208 6464338.858288546 6464338.858288546 6248841.10418473 0 0 0 0 0 122698859.9495783 6539184.21169483 6539184.21169483 6223686.154568737 0 0 0 0 0 122227191.6980699 6793180.056278758 6793180.056278758 6137400.531883677 0 0 0 0 0 121605500.1199607 6355146.472953412 6355146.472953412 5115852.436439589 0 0 0 0 0 120880602.9669727 6392634.916304355 6392634.916304355 5121102.508129505 0 0 0 0 0 120225169.9687067 6295245.016494208 6295245.016494208 4145898.990311296 0 0 0 0 0 119587846.1932293 6308583.07396621 6308583.07396621 4186405.030118178 0 0 0 0 0 118742143.8314696 6039322.186200962 6039322.186200962 3379004.617499567 0 0 0 0 0 119059549.2053459 5935733.671402769 5935733.671402769 3318787.720533932 0 0 0 0 0 118178089.5295924 6036805.243051348 6036805.243051348 3430406.205718135 0 0 0 0 0 117634278.7337012 6024013.86975216 6024013.86975216 3475455.345946916 0 0 0 0 0 117111209.2159284 6002048.063986858 6002048.063986858 3514806.961630843 0 0 0 0 0 116607466.5019761 5972506.776369283 5972506.776369283 3548493.02204508 0 0 0 0 0 115959295.4928462 5702654.11169517 5702654.11169517 2894252.269903476 0 0 0 0 0 116156876.6173837 5659664.575881598 5659664.575881598 2825951.822593227 0 0 0 0 0 115504550.0754086 5668868.0250186 5668868.0250186 2938832.695559156 0 0 0 0 0 115067127.0474919 5630330.098370603 5630330.098370603 2979396.622616097 0 0 0 0 0 114645449.2178779 5586987.695477147 5586987.695477147 3014954.397012884 0 0 0 0 0 114239000.5716179 5539432.626264825 5539432.626264825 3045925.190073207 0 0 0 0 0 113847143.223423 5488286.96034505 5488286.96034505 3072611.022143746 0 0 0 0 0 113480341.5323281 5235655.408003033 5235655.408003033 2492533.553109189 0 0 0 0 0 113008022.6606592 5194366.671156053 5194366.671156053 2590797.553262034 0 0 0 0 0 113113337.6474825 5188981.211290546 5188981.211290546 2532775.030335337 0 0 0 0 0 112664937.87681 5142666.198660113 5142666.198660113 2621415.070673148 0 0 0 0 0 112333423.1491439 5088588.51761624 5088588.51761624 2648026.170066158 0 0 0 0 0 112013103.4147763 5032772.381324449 5032772.381324449 2671240.701061522 0 0 0 0 0 111703883.2932391 4975573.620669482 4975573.620669482 2691612.160531682 0 0 0 0 0 111335670.2810109 4762256.326437165 4762256.326437165 2273546.98754134 0 0 0 0 0 111403979.983164 4769920.056571267 4769920.056571267 2220828.785630607 0 0 0 0 0 111053247.6202532 4708587.472454396 4708587.472454396 2298459.041033064 0 0 0 0 0 110786088.8254541 4652483.623790568 4652483.623790568 2318874.99489734 0 0 0 0 0 110518887.4372766 4596692.27519343 4596692.27519343 2301708.452965512 0 0 0 0 0 110349686.3621874 4515304.164122703 4515304.164122703 2185241.036591548 0 0 0 0 0 110173133.889353 4434412.428221598 4434412.428221598 2040815.900163852 0 0 0 0 0 120504865.1812526 6570432.387497157 6570432.387497157 5091679.313073513 0 0 0 0 0 197988229.5375296 -82360374.43160148 -82360374.43160148 42239988.37774703 0 0 0 0 0 182767748.6983907 -62034259.80730762 -62034259.80730762 35688952.03939592 0 0 0 0 0 175624609.2281501 -65646055.76438743 -65646055.76438743 29879886.88708269 0 0 0 0 0 163831632.0653166 -31956928.42832912 -31956928.42832912 22205522.51979283 0 0 0 0 0 179759214.5931118 -51723872.55107318 -51723872.55107318 32635230.33199342 0 0 0 0 0 176737592.0961324 -42111709.80875339 -42111709.80875339 28813915.27053509 0 0 0 0 0 162285262.6090808 -25576638.19802777 -25576638.19802777 20644716.80143633 0 0 0 0 0 160439827.0482688 -20202661.22915565 -20202661.22915565 19396356.67687827 0 0 0 0 0 158400514.20496 -15678230.11988218 -15678230.11988218 18386091.53360696 0 0 0 0 0 156265754.5670269 -11860811.4515818 -11860811.4515818 17557569.5695889 0 0 0 0 0 154092671.6270855 -8635533.973433753 -8635533.973433753 16866291.98254684 0 0 0 0 0 151924667.2280639 -5910415.737672523 -5910415.737672523 16280280.14113127 0 0 0 0 0 149788071.757715 -3606584.110379556 -3606584.110379556 15772073.1071714 0 0 0 0 0 147699308.4129681 -1660535.721895905 -1660535.721895905 15325036.68787455 0 0 0 0 0 147075732.0407964 -2177119.866772169 -2177119.866772169 14001377.99098893 0 0 0 0 0 143707233.9760706 171522.2216798895 171522.2216798895 12726210.37546162 0 0 0 0 0 141984508.9399 1470819.866180212 1470819.866180212 12430363.32807369 0 0 0 0 0 140313413.4368744 2570051.103632642 2570051.103632642 12165450.56246598 0 0 0 0 0 138699937.6002951 3498094.426768313 3498094.426768313 11924134.89347786 0 0 0 0 0 135980383.3573793 4152360.51548773 4152360.51548773 9815661.047571426 0 0 0 0 0 137897876.1041791 2890398.111915364 2890398.111915364 10442500.99977845 0 0 0 0 0 134617819.1673967 4780174.049055977 4780174.049055977 9673625.358648386 0 0 0 0 0 133301986.2405406 5305888.030286647 5305888.030286647 9540680.299890378 0 0 0 0 0 132038924.2933203 5744960.138043111 5744960.138043111 9415995.352242347 0 0 0 0 0 130828385.0543867 6107527.318850174 6107527.318850174 9295155.711549621 0 0 0 0 0 129668116.4882653 6404626.370400199 6404626.370400199 9178439.322960844 0 0 0 0 0 128558185.3242242 6645290.908533213 6645290.908533213 9064043.696925137 0 0 0 0 0 127783462.4077573 6095124.535663392 6095124.535663392 7774582.425365131 0 0 0 0 0 126963694.0085917 6587732.190545911 6587732.190545911 7551006.644149734 0 0 0 0 0 126005578.374308 6739069.631020376 6739069.631020376 7484919.6176667 0 0 0 0 0 125085532.9375563 6854931.304073679 6854931.304073679 7420194.69444536 0 0 0 0 0 124200728.7261502 6941620.251865455 6941620.251865455 7362784.012515551 0 0 0 0 0 123357033.0144909 7002559.602677481 7002559.602677481 7304003.558846852 0 0 0 0 0 122547689.2365426 7040201.843052821 7040201.843052821 7244135.719061417 0 0 0 0 0 121905419.0262275 6589857.39457503 6589857.39457503 6197520.256234194 0 0 0 0 0 121486499.8866457 6817944.4131153 6817944.4131153 6110468.428348175 0 0 0 0 0 120776098.3999679 6825195.805878686 6825195.805878686 6079969.485528933 0 0 0 0 0 119934458.1609244 6169980.13232957 6169980.13232957 4159933.472963049 0 0 0 0 0 119297222.3622882 6186029.460942091 6186029.460942091 4198342.206717191 0 0 0 0 0 118464118.1758638 5945424.218735724 5945424.218735724 3375774.186994561 0 0 0 0 0 118981480.2558491 6308132.288411365 6308132.288411365 4218749.899454008 0 0 0 0 0 117893228.8612788 5943511.033500783 5943511.033500783 3425553.495448447 0 0 0 0 0 117345246.8272237 5931337.76075184 5931337.76075184 3469280.812980989 0 0 0 0 0 116818981.2844054 5910075.813734933 5910075.813734933 3507408.275686988 0 0 0 0 0 116313219.1611255 5880756.843453145 5880756.843453145 3540465.751111453 0 0 0 0 0 115684062.1997142 5632335.739278259 5632335.739278259 2877385.017263512 0 0 0 0 0 116122349.7076385 5935834.562868362 5935834.562868362 3577302.567682717 0 0 0 0 0 115230682.227885 5598749.977286988 5598749.977286988 2920951.106029492 0 0 0 0 0 114793424.1170747 5560029.903328363 5560029.903328363 2961717.341265919 0 0 0 0 0 114372623.9569817 5516599.434623401 5516599.434623401 2997592.416603968 0 0 0 0 0 113967595.1056555 5469099.584459669 5469099.584459669 3028850.704773859 0 0 0 0 0 113577753.2511161 5418075.738907642 5418075.738907642 3055922.251887449 0 0 0 0 0 113469325.4685858 5434043.49962188 5434043.49962188 3095346.9767557 0 0 0 0 0 112759728.4724359 5139489.727980199 5139489.727980199 2568720.055060079 0 0 0 0 0 113105047.4227258 5377156.003794925 5377156.003794925 3114213.330463716 0 0 0 0 0 112418584.2044402 5087381.950061746 5087381.950061746 2600452.16231099 0 0 0 0 0 112089709.2326999 5033123.484399724 5033123.484399724 2627767.874593223 0 0 0 0 0 111772512.3540453 4977137.617996586 4977137.617996586 2651676.242874195 0 0 0 0 0 111466319.6557863 4919797.976981788 4919797.976981788 2672679.382382013 0 0 0 0 0 111113610.5982231 4717047.354142893 4717047.354142893 2251171.160752863 0 0 0 0 0 111405161.5314893 4916959.26881185 4916959.26881185 2708794.294442596 0 0 0 0 0 110830677.2320802 4661788.014076285 4661788.014076285 2277037.746955395 0 0 0 0 0 110560269.5321765 4606232.086029446 4606232.086029446 2302369.213994459 0 0 0 0 0 110312863.2113422 4559787.586301781 4559787.586301781 2322060.961188344 0 0 0 0 0 110111480.7718715 4481533.235214807 4481533.235214807 2265977.411885419 0 0 0 0 0 109910858.0157208 4387934.540414852 4387934.540414852 2175194.423694997 0 0 0 0 0 120186504.9788664 6412655.546897678 6412655.546897678 5122347.547900602 0 0 0 0 0 185921349.087949 -75253289.21538557 -75253289.21538557 31471586.35385075 0 0 0 0 0 176949449.3166017 -53598426.5948313 -53598426.5948313 28444506.89630167 0 0 0 0 0 196309248.8881267 -69451156.98511231 -69451156.98511231 37022038.32781547 0 0 0 0 0 173512308.4546888 -34223214.92048956 -34223214.92048956 26047527.89550396 0 0 0 0 0 172809281.4210437 -43931029.67311268 -43931029.67311268 26038620.54998583 0 0 0 0 0 170699522.4697641 -35508143.66770823 -35508143.66770823 24134975.96710916 0 0 0 0 0 170139478.9330525 -27543950.2328574 -27543950.2328574 23854850.24017625 0 0 0 0 0 166791123.8551499 -21922163.40067593 -21922163.40067593 22083169.96026373 0 0 0 0 0 163538346.9842903 -17195912.28348871 -17195912.28348871 20646055.90876207 0 0 0 0 0 160409522.450063 -13213595.40340868 -13213595.40340868 19467758.34461334 0 0 0 0 0 157419907.1439361 -9853520.305897836 -9853520.305897836 18489816.29570099 0 0 0 0 0 154580271.2889169 -7015180.614591624 -7015180.614591624 17665577.14883591 0 0 0 0 0 151883766.2857116 -4617483.899377379 -4617483.899377379 16963303.65060113 0 0 0 0 0 149338173.5007462 -2590948.862660823 -2590948.862660823 16351080.63636657 0 0 0 0 0 145676715.9170876 -17049.14827141432 -17049.14827141432 14927508.94509882 0 0 0 0 0 144949310.6576131 -580730.2575581298 -580730.2575581298 13534558.18451839 0 0 0 0 0 142927034.2610223 772943.8386996054 772943.8386996054 13129913.71225024 0 0 0 0 0 141007567.2142402 1919171.953791271 1919171.953791271 12773706.2108696 0 0 0 0 0 139187374.557586 2887976.775168643 2887976.775168643 12455193.19997762 0 0 0 0 0 136319025.5626051 3665975.543005263 3665975.543005263 10227142.4179061 0 0 0 0 0 137148437.7318702 4279218.863094022 4279218.863094022 11701014.83701008 0 0 0 0 0 134814984.0143177 4320472.556324027 4320472.556324027 10033662.74192059 0 0 0 0 0 133384591.507349 4870167.839648102 4870167.839648102 9856673.418026231 0 0 0 0 0 132025382.1779642 5330504.317219231 5330504.317219231 9694419.856054261 0 0 0 0 0 130733988.7187741 5712452.105146961 5712452.105146961 9540987.033268547 0 0 0 0 0 129507910.4213727 6027253.818596527 6027253.818596527 9396404.578893576 0 0 0 0 0 128343695.6430319 6283830.251878664 6283830.251878664 9258198.312411852 0 0 0 0 0 127498182.648213 6834616.91984066 6834616.91984066 8947630.318731053 0 0 0 0 0 126739682.7693117 6299848.385367024 6299848.385367024 7696413.972055814 0 0 0 0 0 125743247.0892709 6460237.79486853 6460237.79486853 7616211.902854865 0 0 0 0 0 124792709.3801056 6585445.206979204 6585445.206979204 7535271.622665804 0 0 0 0 0 123891305.9872425 6682156.398302984 6682156.398302984 7460756.151431041 0 0 0 0 0 123027990.3125829 6751568.284735526 6751568.284735526 7391584.505628454 0 0 0 0 0 122204092.3139375 6796756.42064426 6796756.42064426 7322866.530684626 0 0 0 0 0 121778120.3090059 7057611.514415544 7057611.514415544 7179281.254972088 0 0 0 0 0 121151056.6140814 6619774.35380909 6619774.35380909 6164701.241622678 0 0 0 0 0 120430813.5354004 6632075.616093287 6632075.616093287 6128471.994913557 0 0 0 0 0 119849291.7855388 6573054.000290918 6573054.000290918 5096181.969761482 0 0 0 0 0 119216361.6720043 6562381.829405736 6562381.829405736 5097238.057517316 0 0 0 0 0 118398633.798907 6296485.240894212 6296485.240894212 4243976.749329031 0 0 0 0 0 118680785.8028652 6187720.214549008 6187720.214549008 4225944.375535152 0 0 0 0 0 117836917.2902782 6273989.863159929 6273989.863159929 4262472.724127606 0 0 0 0 0 117296437.6824387 6242271.211948118 6242271.211948118 4275560.060076592 0 0 0 0 0 116777042.7957741 6202845.240928638 6202845.240928638 4284202.590624413 0 0 0 0 0 116277195.2730706 6156963.529031809 6156963.529031809 4288847.418553627 0 0 0 0 0 115656207.3772871 5893181.771518295 5893181.771518295 3599166.883123826 0 0 0 0 0 115827382.7569271 5844863.291807034 5844863.291807034 3568559.228104782 0 0 0 0 0 115205592.0826947 5845072.7865584 5845072.7865584 3618078.810563984 0 0 0 0 0 114772432.9136756 5792889.533187746 5792889.533187746 3633423.646700738 0 0 0 0 0 114355388.5917468 5736920.507895875 5736920.507895875 3644975.072221752 0 0 0 0 0 113953836.4769977 5677686.247950451 5677686.247950451 3652948.927222667 0 0 0 0 0 113567092.8087395 5615697.970593839 5615697.970593839 3657626.332355537 0 0 0 0 0 113202470.433103 5364087.963582953 5364087.963582953 3079076.839565256 0 0 0 0 0 112753706.2120386 5318004.261389835 5318004.261389835 3129565.244475835 0 0 0 0 0 112841118.4046411 5307514.683394779 5307514.683394779 3098498.624954159 0 0 0 0 0 112415041.3391197 5256983.861779788 5256983.861779788 3141281.376791197 0 0 0 0 0 112088243.2911094 5194422.209371316 5194422.209371316 3150038.047690968 0 0 0 0 0 111772750.8330174 5130626.96332729 5130626.96332729 3156456.7762114 0 0 0 0 0 111468151.3818692 5065944.438770634 5065944.438770634 3160639.245816324 0 0 0 0 0 111116370.6972907 4856967.301069492 4856967.301069492 2722709.610243255 0 0 0 0 0 111170192.5880877 4861033.174407842 4861033.174407842 2690568.347049803 0 0 0 0 0 110835695.4100401 4794634.440147106 4794634.440147106 2735371.510197542 0 0 0 0 0 110586210.0889723 4748001.367813087 4748001.367813087 2749054.531679605 0 0 0 0 0 110353704.9931606 4657286.961220531 4657286.961220531 2606701.975744361 0 0 0 0 0 110164543.4744943 4565691.145351691 4565691.145351691 2473200.372569687 0 0 0 0 0 120095455.2073381 6817539.025311019 6817539.025311019 6046225.545359241 0 0 0 0 0 210517043.8942076 -79320406.76952757 -79320406.76952757 37944680.80510477 0 0 0 0 0 190952800.0140175 -57365427.34347387 -57365427.34347387 34521300.86429177 0 0 0 0 0 186029162.2294704 -60253277.23108245 -60253277.23108245 28553782.39837307 0 0 0 0 0 168356859.8245942 -28336889.34215367 -28336889.34215367 22719634.48821793 0 0 0 0 0 185780954.6417303 -47032770.1735601 -47032770.1735601 31274170.45869492 0 0 0 0 0 181232251.3623662 -37931235.13621552 -37931235.13621552 28276979.10250372 0 0 0 0 0 165748244.1087068 -22342507.63670582 -22342507.63670582 21587544.99959244 0 0 0 0 0 163045176.8856014 -17332147.61473453 -17332147.61473453 20653624.95797917 0 0 0 0 0 160333287.4417001 -13131688.8199221 -13131688.8199221 19867347.96882055 0 0 0 0 0 157658703.044755 -9605299.24715564 -9605299.24715564 19191135.70078067 0 0 0 0 0 155051840.6726633 -6641920.562763736 -6641920.562763736 18598591.18454081 0 0 0 0 0 152533251.8078807 -4149381.320654606 -4149381.320654606 18068799.07049047 0 0 0 0 0 150116882.6763159 -2053344.513827256 -2053344.513827256 17586528.49462125 0 0 0 0 0 147805551.4919504 -291830.6215686912 -291830.6215686912 17142944.32734865 0 0 0 0 0 146937522.7059326 -878245.6640540725 -878245.6640540725 15815558.28812195 0 0 0 0 0 143730233.0554181 1369572.50130227 1369572.50130227 14568402.24060134 0 0 0 0 0 141863321.8746778 2537233.428050987 2537233.428050987 14238186.98051587 0 0 0 0 0 140077975.5651999 3518817.358614378 3518817.358614378 13931315.81483156 0 0 0 0 0 138373870.6288162 4340954.352777912 4340954.352777912 13641385.67250769 0 0 0 0 0 135660151.6243958 4934158.274149447 4934158.274149447 11492040.60048215 0 0 0 0 0 137463824.0607653 3705033.643092528 3705033.643092528 12166579.35101631 0 0 0 0 0 134236865.2437868 5480231.903613848 5480231.903613848 11293701.41922984 0 0 0 0 0 132875819.8892001 5932972.270036055 5932972.270036055 11104178.25461552 0 0 0 0 0 131577460.2737882 6305296.96575497 6305296.96575497 10921077.8161657 0 0 0 0 0 130339340.5850923 6608159.589772081 6608159.589772081 10743420.78157884 0 0 0 0 0 129159892.6555352 6851290.814890733 6851290.814890733 10569753.6255884 0 0 0 0 0 128037520.3286662 7041290.168075383 7041290.168075383 10397516.44943753 0 0 0 0 0 127241568.1325075 6490281.815713502 6490281.815713502 9123680.778137013 0 0 0 0 0 126487353.601142 6982818.107464976 6982818.107464976 8829419.714860022 0 0 0 0 0 125520324.7424063 7094440.69432929 7094440.69432929 8713229.076208776 0 0 0 0 0 124596940.1753864 7174763.180704207 7174763.180704207 8602476.005099412 0 0 0 0 0 123711240.1225065 7228112.642974087 7228112.642974087 8497648.774350638 0 0 0 0 0 122867159.8093203 7258652.230684955 7258652.230684955 8392162.595924625 0 0 0 0 0 122061106.7519416 7268706.344376267 7268706.344376267 8288155.567703491 0 0 0 0 0 121415828.2694628 6820485.204163625 6820485.204163625 7252448.759666055 0 0 0 0 0 121040012.7485059 7056399.206525779 7056399.206525779 7110489.969330866 0 0 0 0 0 120333908.6123455 7039957.874170436 7039957.874170436 7038930.023887817 0 0 0 0 0 119524188.6523865 6418460.68703269 6418460.68703269 5120838.2577018 0 0 0 0 0 118890077.1343467 6411397.126644257 6411397.126644257 5118764.732580706 0 0 0 0 0 118089485.9036779 6176918.475507472 6176918.475507472 4250475.914886978 0 0 0 0 0 118610933.7682974 6540861.706596385 6540861.706596385 5093914.713853432 0 0 0 0 0 117523579.7490632 6155684.704794876 6155684.704794876 4267846.857751003 0 0 0 0 0 116981398.4293476 6125547.42716866 6125547.42716866 4279420.287455348 0 0 0 0 0 116461079.8717762 6087745.860061598 6087745.860061598 4286821.009728811 0 0 0 0 0 115961768.7799188 6043468.620391178 6043468.620391178 4290458.538251713 0 0 0 0 0 115360010.0710846 5802504.060289002 5802504.060289002 3591513.548499235 0 0 0 0 0 115796984.6100211 6105259.264525253 6105259.264525253 4289580.924953099 0 0 0 0 0 114912259.4177345 5755367.764640805 5755367.764640805 3608911.97712017 0 0 0 0 0 114481121.5384143 5704001.73552178 5704001.73552178 3624147.226212886 0 0 0 0 0 114066514.7370567 5648874.58677479 5648874.58677479 3635715.822489974 0 0 0 0 0 113667849.5420648 5590516.823586218 5590516.823586218 3643783.432134631 0 0 0 0 0 113284388.4770939 5529453.846295635 5529453.846295635 3648606.249086523 0 0 0 0 0 113194571.9986818 5551399.358315534 5551399.358315534 3659116.917171862 0 0 0 0 0 112493158.8754421 5248765.126863566 5248765.126863566 3114429.256731856 0 0 0 0 0 112835703.4997176 5485142.236160351 5485142.236160351 3657618.544046208 0 0 0 0 0 112157644.0862127 5188030.85450025 5188030.85450025 3126850.08135737 0 0 0 0 0 111834397.1807682 5125850.990912941 5125850.990912941 3136208.956576185 0 0 0 0 0 111522945.7395967 5062658.690313225 5062658.690313225 3142884.686475827 0 0 0 0 0 111222581.2994321 4998784.545327263 4998784.545327263 3147467.364345394 0 0 0 0 0 110882810.6510944 4800405.468113353 4800405.468113353 2705253.985720145 0 0 0 0 0 111173767.9345618 5000360.587882295 5000360.587882295 3163774.946933031 0 0 0 0 0 110595607.5419122 4736167.201716091 4736167.201716091 2715720.307458323 0 0 0 0 0 110324338.7130148 4679484.871195443 4679484.871195443 2754466.925699747 0 0 0 0 0 110101216.2242792 4603717.788468249 4603717.788468249 2711122.450375557 0 0 0 0 0 109884655.3186396 4512966.023958207 4512966.023958207 2606704.139435191 0 0 0 0 0 119743156.0348555 6629185.697677121 6629185.697677121 6089464.912364198 0 0 0 0 0 201851343.7939741 -74584182.35532302 -74584182.35532302 29117394.58317619 0 0 0 0 0 182742583.1691396 -49123216.1424187 -49123216.1424187 26446417.49570107 0 0 0 0 0 199031909.1684354 -62353548.76985758 -62353548.76985758 32922800.00436306 0 0 0 0 0 176787813.1284985 -30420828.49290343 -30420828.49290343 26142942.40083027 0 0 0 0 0 178853637.0811655 -39380081.2191487 -39380081.2191487 25236112.47326309 0 0 0 0 0 175404485.6094691 -31286712.22356904 -31286712.22356904 24289188.38869248 0 0 0 0 0 172511678.397999 -24177852.70605817 -24177852.70605817 24451361.77220856 0 0 0 0 0 168474969.5853414 -18965593.65413897 -18965593.65413897 23061547.74132179 0 0 0 0 0 164679991.6283355 -14601101.98149846 -14601101.98149846 21905008.52724002 0 0 0 0 0 161123199.0613437 -10938825.87305859 -10938825.87305859 20925744.34482712 0 0 0 0 0 157795314.209993 -7861286.09329725 -7861286.09329725 20083297.757159 0 0 0 0 0 154687760.2957489 -5271324.979152361 -5271324.979152361 19346808.52378046 0 0 0 0 0 151783294.3477889 -3092498.983151516 -3092498.983151516 18693175.51377683 0 0 0 0 0 149074928.8510172 -1258558.761587646 -1258558.761587646 18104915.85900215 0 0 0 0 0 145605517.1509046 1187623.198230597 1187623.198230597 16730906.22310687 0 0 0 0 0 144678498.8301042 568447.8304675138 568447.8304675138 15339174.06922141 0 0 0 0 0 142551673.5934661 1788166.466831362 1788166.466831362 14911252.79185301 0 0 0 0 0 140549319.6633827 2814995.35470634 2814995.35470634 14521648.8880051 0 0 0 0 0 138666882.8706236 3677923.731614866 3677923.731614866 14161495.3624859 0 0 0 0 0 135832746.7619517 4391870.442517338 4391870.442517338 11901689.01292219 0 0 0 0 0 136750786.229707 5027236.342173254 5027236.342173254 13365472.30007382 0 0 0 0 0 134289801.7557578 4966541.954261943 4966541.954261943 11655331.93220419 0 0 0 0 0 132830639.0761864 5444967.334259694 5444967.334259694 11424825.70548302 0 0 0 0 0 131451105.8416127 5840436.076452276 5840436.076452276 11206619.52990647 0 0 0 0 0 130146974.5601199 6164828.194710933 6164828.194710933 10998487.93218523 0 0 0 0 0 128914686.5271948 6427953.037774092 6427953.037774092 10798537.89376865 0 0 0 0 0 127748606.3266866 6637749.162417406 6637749.162417406 10606234.08105545 0 0 0 0 0 126970853.2074784 7188136.907394422 7188136.907394422 10224497.30032295 0 0 0 0 0 126192646.4280158 6650358.743352944 6650358.743352944 8989650.422497701 0 0 0 0 0 125195642.4487491 6774076.586025636 6774076.586025636 8856668.829953104 0 0 0 0 0 124248657.0105284 6866155.719579613 6866155.719579613 8728095.616563719 0 0 0 0 0 123351483.0249403 6931194.57778152 6931194.57778152 8607863.202355377 0 0 0 0 0 122494726.636459 6971823.687178429 6971823.687178429 8493668.912645893 0 0 0 0 0 121679188.6912602 6991442.227878051 6991442.227878051 8379024.917511648 0 0 0 0 0 121296677.6227283 7261288.511815851 7261288.511815851 8180125.828111101 0 0 0 0 0 120668619.850015 6826349.781425519 6826349.781425519 7177186.817341826 0 0 0 0 0 119956793.8104 6816751.728766871 6816751.728766871 7100341.849311478 0 0 0 0 0 119442670.0547808 6797091.858103776 6797091.858103776 6012492.09322057 0 0 0 0 0 118814239.5127662 6765581.781491264 6765581.781491264 5977224.243252601 0 0 0 0 0 118030596.1965759 6508733.082450571 6508733.082450571 5084720.337020753 0 0 0 0 0 118279075.7602402 6392257.824793769 6392257.824793769 5113393.093007194 0 0 0 0 0 117473075.7733047 6467468.579793473 6467468.579793473 5069751.110219028 0 0 0 0 0 116937713.2101001 6418841.536129181 6418841.536129181 5051482.634904242 0 0 0 0 0 116423686.5528255 6364004.601561759 6364004.601561759 5030317.933726204 0 0 0 0 0 115930154.4426946 6303844.791768775 6303844.791768775 5006180.839764602 0 0 0 0 0 115335765.1372904 6048490.268521461 6048490.268521461 4284472.920384198 0 0 0 0 0 115482702.4993957 5993533.483471615 5993533.483471615 4290308.717012572 0 0 0 0 0 114891068.3153806 5987747.79677851 5987747.79677851 4277927.012560932 0 0 0 0 0 114463695.6001648 5923683.764698179 5923683.764698179 4268723.734610003 0 0 0 0 0 114052572.5969844 5856652.236157361 5856652.236157361 4256738.454737926 0 0 0 0 0 113657052.7607546 5787209.354181577 5787209.354181577 4242228.225665258 0 0 0 0 0 113276462.2598191 5715770.912896759 5715770.912896759 4225328.489724305 0 0 0 0 0 112915503.9043156 5466104.35534044 5466104.35534044 3650432.24017109 0 0 0 0 0 112489806.2720926 5417301.338774162 5417301.338774162 3653531.801945477 0 0 0 0 0 112560528.2223626 5400833.559512872 5400833.559512872 3649296.144205883 0 0 0 0 0 112156424.3202673 5348158.581577054 5348158.581577054 3647040.613192056 0 0 0 0 0 111834971.1659887 5278085.403651176 5278085.403651176 3638405.791126997 0 0 0 0 0 111524948.801347 5207543.4856459 5207543.4856459 3627669.687349705 0 0 0 0 0 111225515.2352686 5136998.805304299 5136998.805304299 3615022.981496994 0 0 0 0 0 110887629.0097692 4934614.063674645 4934614.063674645 3167170.572558225 0 0 0 0 0 110932347.4055348 4934859.420460467 4934859.420460467 3150451.01323433 0 0 0 0 0 110599032.6971628 4872235.977202079 4872235.977202079 3184624.45022426 0 0 0 0 0 110374280.6862205 4798880.301547882 4798880.301547882 3032135.929878744 0 0 0 0 0 110141724.1024163 4696435.824389589 4696435.824389589 2903022.008219426 0 0 0 0 0 119658969.9623191 7010704.280066806 7010704.280066806 6966730.039495848 0 0 0 0 0 226413371.4125707 -77174790.13584912 -77174790.13584912 33640760.36148576 0 0 0 0 0 209573598.1167127 -63478915.90559642 -63478915.90559642 31212826.35050912 0 0 0 0 0 195320219.7526726 -50988137.62640755 -50988137.62640755 30707010.63309743 0 0 0 0 0 193749073.1896257 -52737605.64394189 -52737605.64394189 26128503.34442955 0 0 0 0 0 171854401.1518321 -24625816.68992462 -24625816.68992462 23430110.42065576 0 0 0 0 0 190145474.6600172 -41567780.17610857 -41567780.17610857 29417930.01096063 0 0 0 0 0 184343508.8444798 -33346252.1871639 -33346252.1871639 27819178.18740772 0 0 0 0 0 168328794.9350708 -19106803.01770627 -19106803.01770627 22673362.4585235 0 0 0 0 0 164913955.6205116 -14511103.27091159 -14511103.27091159 21999523.68834439 0 0 0 0 0 161637372.4014826 -10674512.43923 -10674512.43923 21391099.46404952 0 0 0 0 0 158514444.5624095 -7466379.256274823 -7466379.256274823 20831790.12966983 0 0 0 0 0 155552166.0232965 -4780235.38417614 -4780235.38417614 20309749.13900838 0 0 0 0 0 152750231.8443766 -2531153.621430976 -2531153.621430976 19816786.7063075 0 0 0 0 0 150110253.826854 -647727.6585514145 -647727.6585514145 19345921.8643147 0 0 0 0 0 147624175.8871731 927946.7549719701 927946.7549719701 18894582.14007815 0 0 0 0 0 146549013.0334403 284542.0619655926 284542.0619655926 17570060.10800539 0 0 0 0 0 143517122.0986418 2428220.453607041 2428220.453607041 16341890.80137572 0 0 0 0 0 141537051.4912058 3467015.163745159 3467015.163745159 15974571.00072505 0 0 0 0 0 139664980.0449257 4334598.390842052 4334598.390842052 15620852.69052179 0 0 0 0 0 137892869.4540654 5055511.859883158 5055511.859883158 15280488.47811774 0 0 0 0 0 135206933.3034116 5596908.715612398 5596908.715612398 13100900.59320579 0 0 0 0 0 136896622.8700796 4400552.70624183 4400552.70624183 13825848.98662286 0 0 0 0 0 133740016.7177674 6066914.267720641 6066914.267720641 12846100.06417456 0 0 0 0 0 132347251.7107647 6451229.152697871 6451229.152697871 12599109.10722264 0 0 0 0 0 131025432.0110205 6762295.896266315 6762295.896266315 12358587.89480181 0 0 0 0 0 129772238.6993161 7010490.265305416 7010490.265305416 12124955.32186889 0 0 0 0 0 128582105.3423885 7203123.683225804 7203123.683225804 11894215.29134996 0 0 0 0 0 127458215.8190778 7350954.461529098 7350954.461529098 11663849.09278077 0 0 0 0 0 126645842.809936 6799832.302452493 6799832.302452493 10415311.10216806 0 0 0 0 0 125953901.553434 7296948.903854497 7296948.903854497 10056094.37207807 0 0 0 0 0 124985361.87291 7373308.335776296 7373308.335776296 9892479.269708175 0 0 0 0 0 124064087.3648941 7421752.299717439 7421752.299717439 9734216.200520022 0 0 0 0 0 123182804.3260504 7446144.018594713 7446144.018594713 9582040.45244102 0 0 0 0 0 122344261.2010269 7449954.943246751 7449954.943246751 9432003.237658747 0 0 0 0 0 121545274.4663435 7436095.540218034 7436095.540218034 9285618.717375316 0 0 0 0 0 120900652.420064 6992204.090413545 6992204.090413545 8266226.105896663 0 0 0 0 0 120564958.7338329 7237530.269452098 7237530.269452098 8069533.075903946 0 0 0 0 0 119866076.3302832 7200462.504070286 7200462.504070286 7958512.966824008 0 0 0 0 0 119087203.9447405 6613556.438100664 6613556.438100664 6049470.027043997 0 0 0 0 0 118460407.1275107 6587272.507646021 6587272.507646021 6010597.585593512 0 0 0 0 0 117694158.2114686 6362849.259528116 6362849.259528116 5102482.103345935 0 0 0 0 0 118214026.7369141 6724677.947503841 6724677.947503841 5939313.252186401 0 0 0 0 0 117135702.0593364 6324631.002765317 6324631.002765317 5086048.643986415 0 0 0 0 0 116600984.9658187 6278976.568367561 6278976.568367561 5065822.878687748 0 0 0 0 0 116088256.3715959 6226876.41302217 6226876.41302217 5043005.409089012 0 0 0 0 0 115596832.9522437 6169380.235455022 6169380.235455022 5017769.274915446 0 0 0 0 0 115022450.4657999 5938275.412442621 5938275.412442621 4285940.651624139 0 0 0 0 0 115456239.1934752 6239016.566599694 6239016.566599694 4979221.948401095 0 0 0 0 0 114581724.5345789 5879267.8481381 5879267.8481381 4277742.447495046 0 0 0 0 0 114157757.6891129 5816915.740377683 5816915.740377683 4268048.75781066 0 0 0 0 0 113750520.299986 5751610.533579116 5751610.533579116 4255807.324491048 0 0 0 0 0 113359140.2440237 5683861.490557561 5683861.490557561 4241143.657423609 0 0 0 0 0 112982959.2682337 5614095.89372638 5614095.89372638 4224228.344753848 0 0 0 0 0 112910150.7958538 5642695.916974481 5642695.916974481 4206127.404426638 0 0 0 0 0 112218860.7667891 5333997.287196967 5333997.287196967 3645496.745539661 0 0 0 0 0 112557526.608888 5568335.059105628 5568335.059105628 4184985.053400398 0 0 0 0 0 111889781.7226812 5265954.788097945 5265954.788097945 3639254.652927669 0 0 0 0 0 111572961.1877855 5196989.195399906 5196989.195399906 3630834.623618609 0 0 0 0 0 111268106.024292 5127438.882123295 5127438.882123295 3620632.215288579 0 0 0 0 0 110974659.9847413 5057954.544254739 5057954.544254739 3608537.623298856 0 0 0 0 0 110654508.0932466 4872593.574885637 4872593.574885637 3153520.98028725 0 0 0 0 0 110936042.0329803 5067040.987788871 5067040.987788871 3600956.648069586 0 0 0 0 0 110413706.3652355 4820164.853156504 4820164.853156504 3156387.953969099 0 0 0 0 0 110063915.8386359 4723155.422166614 4723155.422166614 3221111.077439278 0 0 0 0 0 109847858.3430128 4621699.669524593 4621699.669524593 3039911.396034198 0 0 0 0 0 119278323.3941647 6793976.309778676 6793976.309778676 7022411.047214433 0 0 0 0 0 213543229.7940224 -71178667.67226936 -71178667.67226936 24766923.79493825 0 0 0 0 0 202359867.4640657 -60126050.86080888 -60126050.86080888 26028100.15783357 0 0 0 0 0 188600143.6272648 -42859830.47243001 -42859830.47243001 26030938.1388868 0 0 0 0 0 209531364.5382608 -55424692.49370825 -55424692.49370825 31593584.62120385 0 0 0 0 0 178953447.9974752 -26507343.84288239 -26507343.84288239 26405829.50612977 0 0 0 0 0 183720913.9681265 -34126432.07620763 -34126432.07620763 25454547.82079885 0 0 0 0 0 178885195.5726567 -26916229.18991556 -26916229.18991556 24892017.8164648 0 0 0 0 0 173988468.6720756 -20815298.13719188 -20815298.13719188 25186741.28426583 0 0 0 0 0 169415483.9385333 -16069254.54087036 -16069254.54087036 24134085.19918691 0 0 0 0 0 165201147.5265128 -12103950.51478776 -12103950.51478776 23214299.25289672 0 0 0 0 0 161316079.9814493 -8785436.226736564 -8785436.226736564 22398437.16623965 0 0 0 0 0 157733907.004164 -6004015.970045752 -6004015.970045752 21663290.79099498 0 0 0 0 0 154427825.090381 -3671576.423411171 -3671576.423411171 20993125.73366307 0 0 0 0 0 151372902.9488678 -1714960.984145927 -1714960.984145927 20373873.04172599 0 0 0 0 0 148549151.2325879 -73933.85373800542 -73933.85373800542 19796406.6772943 0 0 0 0 0 145288438.2039315 2244487.257566535 2244487.257566535 18456964.97855556 0 0 0 0 0 144193959.8374716 1581853.797529059 1581853.797529059 17078940.7889662 0 0 0 0 0 141993124.6412828 2670841.440712881 2670841.440712881 16621966.69066401 0 0 0 0 0 139935605.7145048 3583109.375354728 3583109.375354728 16195735.05922898 0 0 0 0 0 138013318.8550431 4344400.580861585 4344400.580861585 15791845.68985159 0 0 0 0 0 135231348.2137065 5002960.804895899 5002960.804895899 13509961.11028739 0 0 0 0 0 136217719.2289884 5651602.259341389 5651602.259341389 14950795.89858503 0 0 0 0 0 133664148.872925 5502621.74923862 5502621.74923862 13211087.21483682 0 0 0 0 0 132189620.3005096 5914286.25262164 5914286.25262164 12925955.95013769 0 0 0 0 0 130801491.8874753 6250382.177177757 6250382.177177757 12652636.29215463 0 0 0 0 0 129492258.7989401 6521445.256120492 6521445.256120492 12390488.99954423 0 0 0 0 0 128260472.7717095 6736898.794512774 6736898.794512774 12137406.99981235 0 0 0 0 0 127100180.101062 6903729.152573042 6903729.152573042 11888185.77612252 0 0 0 0 0 126387367.0588121 7458339.117043549 7458339.117043549 11440228.70123023 0 0 0 0 0 125599759.3096533 6923664.643845148 6923664.643845148 10227877.71926354 0 0 0 0 0 124608478.3192932 7014166.47483679 7014166.47483679 10047590.21982192 0 0 0 0 0 123669705.662429 7076125.61912527 7076125.61912527 9873811.306969328 0 0 0 0 0 122782428.8138452 7113842.016646112 7113842.016646112 9706221.866057755 0 0 0 0 0 121937047.2155156 7129970.266734616 7129970.266734616 9545885.969199032 0 0 0 0 0 121130530.8444495 7126662.839726909 7126662.839726909 9389185.215202492 0 0 0 0 0 120788312.4659735 7406653.481225136 7406653.481225136 9135659.630743248 0 0 0 0 0 120163790.1788074 6977188.839924799 6977188.839924799 8150256.329500361 0 0 0 0 0 119463172.3095845 6948574.081262742 6948574.081262742 8033163.831040859 0 0 0 0 0 119012415.0696959 6970733.560444718 6970733.560444718 6896525.871642741 0 0 0 0 0 118391537.3778524 6921210.134812694 6921210.134812694 6825622.970518429 0 0 0 0 0 117640278.5139905 6675250.652875047 6675250.652875047 5896022.621878397 0 0 0 0 0 117858237.7467429 6550789.404685688 6550789.404685688 5969002.078168674 0 0 0 0 0 117089683.5603985 6618273.382274446 6618273.382274446 5849455.640743088 0 0 0 0 0 116561263.1334989 6555152.972361551 6555152.972361551 5800953.048926803 0 0 0 0 0 116054572.5963339 6486933.98840255 6486933.98840255 5750640.811637437 0 0 0 0 0 115568730.0864399 6414389.76291253 6414389.76291253 5698405.822921854 0 0 0 0 0 115001528.1730252 6170052.71005269 6170052.71005269 4948243.052792079 0 0 0 0 0 115126008.1845216 6107302.331393372 6107302.331393372 4989848.383846197 0 0 0 0 0 114563864.3615544 6098289.247150246 6098289.247150246 4916996.763949946 0 0 0 0 0 114143351.9614545 6023830.248096454 6023830.248096454 4883609.196724487 0 0 0 0 0 113739245.3616661 5947303.840412325 5947303.840412325 4848750.469996636 0 0 0 0 0 113350709.0902911 5869041.865971445 5869041.865971445 4812296.090327759 0 0 0 0 0 112977126.8394319 5789472.212404201 5789472.212404201 4774386.37629455 0 0 0 0 0 112621284.3474599 5542701.412765922 5542701.412765922 4205125.633725775 0 0 0 0 0 112217766.8629561 5492979.095162581 5492979.095162581 4162174.822769986 0 0 0 0 0 112273426.8636865 5470015.375062183 5470015.375062183 4183962.7612014 0 0 0 0 0 111890531.0404841 5416916.011771222 5416916.011771222 4137786.017717943 0 0 0 0 0 111575245.2425276 5340385.424179493 5340385.424179493 4111803.726185416 0 0 0 0 0 111271396.2333874 5263883.967491741 5263883.967491741 4083746.184565756 0 0 0 0 0 110978157.6210923 5188142.043813468 5188142.043813468 4053311.238987106 0 0 0 0 0 110667045.8868593 4993713.444712354 4993713.444712354 3606560.975935603 0 0 0 0 0 110691552.6594619 4989397.27339015 4989397.27339015 3595057.580378017 0 0 0 0 0 110329598.4461282 4923090.756083554 4923090.756083554 3632239.204723592 0 0 0 0 0 110108544.6695759 4802494.93735852 4802494.93735852 3321667.467104184 0 0 0 0 0 110252244.0684832 4880290.777205236 4880290.777205236 3425586.818159646 0 0 0 0 0 119199504.8413005 7152644.475476383 7152644.475476383 7848504.78245707 0 0 0 0 0 240130894.4290484 -72465487.06617087 -72465487.06617087 29755679.66216179 0 0 0 0 0 222226658.3935097 -62053079.9272368 -62053079.9272368 29570632.75104871 0 0 0 0 0 200636173.7963283 -45513556.34755517 -45513556.34755517 30675345.12461526 0 0 0 0 0 199764808.9182492 -46913268.1271772 -46913268.1271772 25607631.75545558 0 0 0 0 0 174338347.6661168 -20924528.49219988 -20924528.49219988 24382579.16405598 0 0 0 0 0 192870277.3302176 -36310347.27394354 -36310347.27394354 29123964.8127377 0 0 0 0 0 186169931.2453021 -28842816.99255384 -28842816.99255384 27940646.73272993 0 0 0 0 0 170068186.3291847 -15948145.24843344 -15948145.24843344 23893809.43100966 0 0 0 0 0 166075251.9717731 -11807576.22079182 -11807576.22079182 23413006.38296936 0 0 0 0 0 162345783.0197246 -8358162.215299417 -8358162.215299417 22935481.41344766 0 0 0 0 0 158867285.840157 -5480955.769549447 -5480955.769549447 22458706.17056352 0 0 0 0 0 155626624.1086332 -3079921.395189537 -3079921.395189537 21982935.85916408 0 0 0 0 0 152608701.0824398 -1075621.983211607 -1075621.983211607 21508074.56186967 0 0 0 0 0 149800127.7192986 596637.5617990698 596637.5617990698 21034982.97625671 0 0 0 0 0 147186155.117793 1990121.327358804 1990121.327358804 20562829.65240125 0 0 0 0 0 145936687.9610665 1301846.615004881 1301846.615004881 19254043.37753049 0 0 0 0 0 143090802.2340946 3342840.170754533 3342840.170754533 18031694.0964868 0 0 0 0 0 141027374.9645229 4257393.041745644 4257393.041745644 17620083.79212141 0 0 0 0 0 139090863.1237227 5015290.545581038 5015290.545581038 17218477.14256096 0 0 0 0 0 137272500.2956368 5640516.969268 5640516.969268 16826325.06174881 0 0 0 0 0 134634947.8811526 6141579.304003441 6141579.304003441 14631441.33072457 0 0 0 0 0 136215095.5747789 4977382.152564183 4977382.152564183 15408139.24647073 0 0 0 0 0 133140608.5129264 6540895.622771811 6540895.622771811 14319914.68921697 0 0 0 0 0 131729287.1136676 6862782.076540481 6862782.076540481 14016349.27698595 0 0 0 0 0 130395904.5669519 7118821.679257791 7118821.679257791 13723306.15178111 0 0 0 0 0 129137948.1477471 7317492.683488569 7317492.683488569 13433082.53906318 0 0 0 0 0 127950850.0433227 7467795.44624301 7467795.44624301 13146334.84976002 0 0 0 0 0 126825894.1449933 7576382.790017632 7576382.790017632 12864504.33990456 0 0 0 0 0 126004567.3281347 7030085.80929996 7030085.80929996 11642885.22816675 0 0 0 0 0 125371891.794963 7532530.222523921 7532530.222523921 11225130.99719917 0 0 0 0 0 124408176.5858748 7577702.53812087 7577702.53812087 11014648.8941939 0 0 0 0 0 123494148.6984044 7598195.482947143 7598195.482947143 10809361.27544302 0 0 0 0 0 122621078.7603341 7596847.491885101 7596847.491885101 10613486.42252392 0 0 0 0 0 121791029.8549016 7578240.898977295 7578240.898977295 10420809.73032784 0 0 0 0 0 121003120.4709768 7543875.767075735 7543875.767075735 10232238.14891851 0 0 0 0 0 120364428.9667403 7107300.871228811 7107300.871228811 9235882.777865227 0 0 0 0 0 120065810.4416347 7363162.309654765 7363162.309654765 8984588.085403608 0 0 0 0 0 119377265.2627557 7308760.763463506 7308760.763463506 8836137.742505336 0 0 0 0 0 118632240.403972 6760293.25019586 6760293.25019586 6944824.646879266 0 0 0 0 0 118015257.350744 6717182.133192055 6717182.133192055 6869974.419680497 0 0 0 0 0 117282223.9991814 6505316.993869742 6505316.993869742 5924844.527072086 0 0 0 0 0 117798923.0929111 6863951.158936004 6863951.158936004 6752776.246226985 0 0 0 0 0 116732401.06881 6452303.531873304 6452303.531873304 5876513.311732242 0 0 0 0 0 116206704.5775592 6393072.578222205 6393072.578222205 5825831.739785542 0 0 0 0 0 115703257.7978349 6328736.776879626 6328736.776879626 5773706.27581932 0 0 0 0 0 115221151.087888 6259912.892972066 6259912.892972066 5720195.611440826 0 0 0 0 0 114674177.3180249 6040990.275091838 6040990.275091838 4958768.056759398 0 0 0 0 0 115102546.3539935 6338210.391910547 6338210.391910547 5644473.655074928 0 0 0 0 0 114241352.9793748 5971752.695895795 5971752.695895795 4925878.782935987 0 0 0 0 0 113825761.0182853 5899924.846575184 5899924.846575184 4891809.132492456 0 0 0 0 0 113426605.5419373 5825893.313227366 5825893.313227366 4856393.128278702 0 0 0 0 0 113043387.6118974 5750133.070343398 5750133.070343398 4819514.785680149 0 0 0 0 0 112675260.7757596 5673011.022314198 5673011.022314198 4781309.352508785 0 0 0 0 0 112617824.1656169 5708917.001398023 5708917.001398023 4735228.121763228 0 0 0 0 0 111938698.5467785 5396354.159788988 5396354.159788988 4161119.872805092 0 0 0 0 0 112272030.1896124 5627681.389112662 5627681.389112662 4695059.8248921 0 0 0 0 0 111616530.6741087 5321948.589265185 5321948.589265185 4136781.296836322 0 0 0 0 0 111306534.602889 5246988.276619126 5246988.276619126 4111031.863573695 0 0 0 0 0 111008611.0337396 5171536.405339619 5171536.405339619 4083644.916257651 0 0 0 0 0 110722006.448584 5096314.428683482 5096314.428683482 4054379.995431625 0 0 0 0 0 110415425.7695701 4924334.204559014 4924334.204559014 3577644.919312556 0 0 0 0 0 110698031.1222091 5113182.164364949 5113182.164364949 4032350.946908194 0 0 0 0 0 110198551.7485881 4887416.898931556 4887416.898931556 3602060.903073936 0 0 0 0 0 109805645.5527389 4729557.23168765 4729557.23168765 3490614.89509798 0 0 0 0 0 109984149.6485616 4819809.498261878 4819809.498261878 3656868.062458942 0 0 0 0 0 118795682.3195679 6908441.238804162 6908441.238804162 7917203.854732309 0 0 0 0 0 228155785.0782584 -66840450.03336824 -66840450.03336824 21052842.01896126 0 0 0 0 0 214939073.9768912 -58588619.03538319 -58588619.03538319 23859483.15134386 0 0 0 0 0 193265849.6430873 -37061184.33398639 -37061184.33398639 25753890.53561484 0 0 0 0 0 210965731.8414387 -48614460.91202612 -48614460.91202612 29451894.26230823 0 0 0 0 0 180119105.7373936 -22679670.30208918 -22679670.30208918 26958404.4583146 0 0 0 0 0 186838654.1140214 -29207170.75461676 -29207170.75461676 25788778.51255872 0 0 0 0 0 181105121.7876337 -22732133.35478675 -22732133.35478675 25681764.18425879 0 0 0 0 0 174645084.9172393 -17564614.96004898 -17564614.96004898 26085665.87977706 0 0 0 0 0 169677945.5551055 -13307833.81204156 -13307833.81204156 25293367.17921712 0 0 0 0 0 165159598.3420015 -9757449.157063438 -9757449.157063438 24558779.58697625 0 0 0 0 0 161042282.5408161 -6791377.522679113 -6791377.522679113 23869100.21531 0 0 0 0 0 157282555.2706763 -4310777.134575866 -4310777.134575866 23214967.66725262 0 0 0 0 0 153842670.3845853 -2234863.582786322 -2234863.582786322 22590476.13052338 0 0 0 0 0 150689305.174324 -497498.9222676011 -497498.9222676011 21990393.23269085 0 0 0 0 0 147793072.9613489 955531.7698088427 955531.7698088427 21412781.8312957 0 0 0 0 0 144750761.5184541 3149636.926111806 3149636.926111806 20090717.89112401 0 0 0 0 0 143515859.2155835 2454021.838740575 2454021.838740575 18738352.87050839 0 0 0 0 0 141268985.8398215 3417559.794102675 3417559.794102675 18248107.5681949 0 0 0 0 0 139181173.797077 4219631.008455766 4219631.008455766 17780283.04702914 0 0 0 0 0 137239786.381629 4885492.130880557 4885492.130880557 17331229.13092757 0 0 0 0 0 134533049.798934 5501103.428572143 5501103.428572143 15040966.5453899 0 0 0 0 0 135564784.9761818 6152906.279699113 6152906.279699113 16443598.79999933 0 0 0 0 0 132955984.8929348 5931130.294200871 5931130.294200871 14689541.38418126 0 0 0 0 0 131475532.8120551 6281010.245623906 6281010.245623906 14351210.10703793 0 0 0 0 0 130086651.1382733 6562894.288607843 6562894.288607843 14025366.11661163 0 0 0 0 0 128783586.6707758 6786735.493423891 6786735.493423891 13711442.22541148 0 0 0 0 0 127562036.7075978 6960006.649518015 6960006.649518015 13402720.20386215 0 0 0 0 0 126411977.4911442 7090442.402458358 7090442.402458358 13102038.01761116 0 0 0 0 0 125759900.1999545 7649766.0860285 7649766.0860285 12594643.95510178 0 0 0 0 0 124968715.7192976 7121573.766039049 7121573.766039049 11408112.06620385 0 0 0 0 0 123989315.1718541 7183042.557449377 7183042.557449377 11182208.9854421 0 0 0 0 0 123062859.1151007 7218555.308404484 7218555.308404484 10963139.45229339 0 0 0 0 0 122188047.7384993 7232174.230538583 7232174.230538583 10750151.50506688 0 0 0 0 0 121354880.673375 7226443.348374052 7226443.348374052 10548350.95333442 0 0 0 0 0 120565290.1570823 7205223.204918936 7205223.204918936 10349248.92825401 0 0 0 0 0 120258799.951742 7496204.630565353 7496204.630565353 10041700.11596275 0 0 0 0 0 119641697.9533774 7074664.029161362 7074664.029161362 9079193.050477372 0 0 0 0 0 118954118.4084766 7030071.610784303 7030071.610784303 8924081.81303828 0 0 0 0 0 118561546.9565227 7095541.883480499 7095541.883480499 7742207.366762689 0 0 0 0 0 117949325.0115249 7030413.529853771 7030413.529853771 7637199.064017604 0 0 0 0 0 117232808.1977068 6799364.848906973 6799364.848906973 6677394.220639918 0 0 0 0 0 117422318.8405241 6665002.72498428 6665002.72498428 6795135.164787808 0 0 0 0 0 116690361.3755786 6728518.258353584 6728518.258353584 6599817.688083851 0 0 0 0 0 116170676.6456582 6652929.005966382 6652929.005966382 6521840.083459904 0 0 0 0 0 115672642.3806247 6573154.768737976 6573154.768737976 6443146.742355018 0 0 0 0 0 115195694.7000146 6490091.002345711 6490091.002345711 6363797.284878863 0 0 0 0 0 114655498.1685289 6258983.129569534 6258983.129569534 5588901.471087552 0 0 0 0 0 114759659.900495 6187472.163233565 6187472.163233565 5665241.923493894 0 0 0 0 0 114226063.4755314 6177704.615318219 6177704.615318219 5533083.148280093 0 0 0 0 0 113813444.5639226 6094470.183014593 6094470.183014593 5476641.247759119 0 0 0 0 0 113417293.827712 6009858.601543709 6009858.601543709 5419470.633925698 0 0 0 0 0 113036692.4721617 5924214.136509405 5924214.136509405 5361733.711499035 0 0 0 0 0 112670918.2324348 5837856.430313921 5837856.430313921 5303559.865155538 0 0 0 0 0 112321457.5517173 5594842.622640689 5594842.622640689 4741856.724021606 0 0 0 0 0 111939147.8100405 5545969.416662239 5545969.416662239 4654120.873331823 0 0 0 0 0 111981281.2935778 5515961.381121436 5515961.381121436 4701460.01342338 0 0 0 0 0 111618713.2009537 5463968.618645828 5463968.618645828 4612419.259578293 0 0 0 0 0 111310237.5814114 5381723.470386645 5381723.470386645 4569990.277059718 0 0 0 0 0 111013271.5010938 5299774.087435303 5299774.087435303 4525683.702850496 0 0 0 0 0 110724720.8682493 5220990.440428159 5220990.440428159 4476472.186698787 0 0 0 0 0 110430655.3128992 5048848.577515591 5048848.577515591 4020948.153194374 0 0 0 0 0 110433769.9182165 5021476.772877712 5021476.772877712 4020186.061918322 0 0 0 0 0 110243752.4125729 4987489.07272995 4987489.07272995 3961326.333617547 0 0 0 0 0 110022114.1113524 4895677.89642362 4895677.89642362 3764316.588696246 0 0 0 0 0 118721232.8142073 7245100.107942198 7245100.107942198 8690323.59356506 0 0 0 0 0 251405047.5194202 -67517561.55674975 -67517561.55674975 24021438.03520703 0 0 0 0 0 235552089.0497334 -59540211.20157173 -59540211.20157173 27280399.93233862 0 0 0 0 0 216186915.3282376 -49075688.38067921 -49075688.38067921 25041780.07400257 0 0 0 0 0 202296652.2818385 -38876641.19739088 -38876641.19739088 29146348.82181482 0 0 0 0 0 204059249.3713392 -39311581.2658714 -39311581.2658714 25542932.82606621 0 0 0 0 0 175839741.2104715 -17385705.37411655 -17385705.37411655 25478194.98442792 0 0 0 0 0 194180711.6538301 -31032731.49017758 -31032731.49017758 28785703.97144137 0 0 0 0 0 186890985.4387717 -24458151.11286912 -24458151.11286912 28238558.98281857 0 0 0 0 0 171010491.4292557 -12958064.35950563 -12958064.35950563 25199806.53920834 0 0 0 0 0 166577165.5815495 -9281849.956574636 -9281849.956574636 24861055.62630976 0 0 0 0 0 162505753.5452859 -6224715.101492535 -6224715.101492535 24474253.46046063 0 0 0 0 0 158763070.5853224 -3679858.316577889 -3679858.316577889 24050269.58674695 0 0 0 0 0 155318974.7157533 -1560759.431064306 -1560759.431064306 23597816.1982253 0 0 0 0 0 152145629.6242817 203642.8157431043 203642.8157431043 23124193.54653373 0 0 0 0 0 149218970.2443609 1671206.926243592 1671206.926243592 22635926.50621139 0 0 0 0 0 146517183.3799743 2890657.237886093 2890657.237886093 22135270.63316807 0 0 0 0 0 145127362.5569093 2169829.354366774 2169829.354366774 20852478.35390626 0 0 0 0 0 142475580.1343305 4112135.335909949 4112135.335909949 19627053.11749843 0 0 0 0 0 140357689.9982817 4908668.616215236 4908668.616215236 19170221.83741016 0 0 0 0 0 138382999.7532056 5564851.681098869 5564851.681098869 18719599.51955083 0 0 0 0 0 136538809.2059433 6101778.643789364 6101778.643789364 18276114.94916042 0 0 0 0 0 133959378.1056073 6569188.935841665 6569188.935841665 16069283.62221129 0 0 0 0 0 135431761.3123063 5435309.048904222 5435309.048904222 16898611.54685181 0 0 0 0 0 132450713.6193452 6904458.573081561 6904458.573081561 15704496.27978975 0 0 0 0 0 131033217.4955751 7171089.981145427 7171089.981145427 15353038.0710809 0 0 0 0 0 129700754.9218214 7378048.79193241 7378048.79193241 15005699.91773129 0 0 0 0 0 128447896.786242 7533483.388623973 7533483.388623973 14661106.93498729 0 0 0 0 0 127265270.922152 7645548.395072274 7645548.395072274 14324344.16373402 0 0 0 0 0 126149578.3798871 7720488.587498069 7720488.587498069 13994562.06287122 0 0 0 0 0 125330406.3082456 7184531.723837526 7184531.723837526 12808217.31329973 0 0 0 0 0 124752309.4806048 7693722.707015098 7693722.707015098 12331734.69651835 0 0 0 0 0 123798072.9255835 7711808.365045233 7711808.365045233 12075279.7419512 0 0 0 0 0 122894949.2678605 7707958.117950695 7707958.117950695 11825491.63641651 0 0 0 0 0 122034078.713093 7685801.13932858 7685801.13932858 11586659.68619858 0 0 0 0 0 121217513.297474 7647396.758996207 7647396.758996207 11353196.66349174 0 0 0 0 0 120442029.4327917 7595922.750091047 7595922.750091047 11125716.99605399 0 0 0 0 0 119813249.9018053 7169184.819736231 7169184.819736231 10156286.88690531 0 0 0 0 0 119547949.6631919 7436486.347766297 7436486.347766297 9853360.386792872 0 0 0 0 0 118871860.6883969 7367609.455459473 7367609.455459473 9668809.671406651 0 0 0 0 0 118160567.0805215 6858898.898662645 6858898.898662645 7803401.800684732 0 0 0 0 0 117555098.9690503 6801684.643374328 6801684.643374328 7694060.868324269 0 0 0 0 0 116856336.3664076 6605575.524977806 6605575.524977806 6717797.336414769 0 0 0 0 0 117366236.1567969 6958832.732694129 6958832.732694129 7532474.542605509 0 0 0 0 0 116317397.0373972 6540134.651402769 6540134.651402769 6637866.589662631 0 0 0 0 0 115801678.0410602 6469658.22984736 6469658.22984736 6557530.488231351 0 0 0 0 0 115308850.7662852 6394886.136437242 6394886.136437242 6476867.210008864 0 0 0 0 0 114837482.642234 6316683.031612073 6316683.031612073 6395885.880745162 0 0 0 0 0 114317325.6952111 6111848.593727476 6111848.593727476 5608352.695829393 0 0 0 0 0 114738652.6990624 6404436.609758677 6404436.609758677 6284035.297018073 0 0 0 0 0 113893373.3427242 6033961.155602685 6033961.155602685 5551466.431752902 0 0 0 0 0 113486909.0157831 5954173.45514375 5954173.45514375 5493718.790396441 0 0 0 0 0 113096823.2065166 5872901.372637023 5872901.372637023 5435764.693669871 0 0 0 0 0 112722456.2210722 5790494.24282089 5790494.24282089 5377357.944098244 0 0 0 0 0 112362994.7625652 5707283.955687057 5707283.955687057 5318538.279371144 0 0 0 0 0 112319237.0847365 5751099.812382054 5751099.812382054 5245170.774031742 0 0 0 0 0 111654123.3455547 5436628.521171596 5436628.521171596 4660202.937095117 0 0 0 0 0 111980965.6905286 5664158.658307413 5664158.658307413 5186573.092407633 0 0 0 0 0 111339257.8960532 5356974.153894074 5356974.153894074 4618305.055526396 0 0 0 0 0 111036015.4608038 5276905.840754119 5276905.840754119 4575730.955276702 0 0 0 0 0 110744893.8672879 5195973.187964809 5195973.187964809 4532118.336528807 0 0 0 0 0 110464807.0145294 5114867.205233937 5114867.205233937 4486356.549510191 0 0 0 0 0 110175382.5636618 4955353.052851886 4955353.052851886 4006224.821671729 0 0 0 0 0 110452706.1112705 5143825.15677988 5143825.15677988 4430008.277600747 0 0 0 0 0 109949433.3486536 4891120.228803476 4891120.228803476 4034857.335590332 0 0 0 0 0 109750929.8816126 4807230.125812128 4807230.125812128 3933496.847581202 0 0 0 0 0 118300140.3701567 6975740.4832897 6975740.4832897 8771921.886187388 0 0 0 0 0 243393188.4067464 -63587303.09982435 -63587303.09982435 17259163.38644122 0 0 0 0 0 223147004.0777743 -51854264.98870894 -51854264.98870894 20897874.99586897 0 0 0 0 0 223597333.4497128 -50579059.98759297 -50579059.98759297 27844032.12509709 0 0 0 0 0 195912160.5204979 -31229914.76056827 -31229914.76056827 26139911.68884583 0 0 0 0 0 212863577.3347858 -41289737.52515247 -41289737.52515247 29002459.46649184 0 0 0 0 0 180388619.8580358 -19014095.74027811 -19014095.74027811 27672645.41078078 0 0 0 0 0 188715587.3935123 -24389701.63421543 -24389701.63421543 26518461.11840601 0 0 0 0 0 182275801.3287765 -18736908.24646095 -18736908.24646095 26693346.02477033 0 0 0 0 0 174566374.6475387 -14494824.08750339 -14494824.08750339 27093732.16711029 0 0 0 0 0 169335688.4592279 -10735186.20272149 -10735186.20272149 26507365.9602036 0 0 0 0 0 164621246.3830813 -7601328.661896094 -7601328.661896094 25914351.41006387 0 0 0 0 0 160357272.842915 -4985820.303750471 -4985820.303750471 25317642.05924756 0 0 0 0 0 156490282.1842191 -2800365.193343608 -2800365.193343608 24719097.99269074 0 0 0 0 0 152974449.7394437 -973897.7366598477 -973897.7366598477 24121531.41025375 0 0 0 0 0 149768888.8505513 552262.1507798934 552262.1507798934 23527649.19640728 0 0 0 0 0 146840931.999126 1826586.807452063 1826586.807452063 22938756.26112937 0 0 0 0 0 144016201.3789597 3901645.305804204 3901645.305804204 21629365.96486472 0 0 0 0 0 142672539.2643219 3183403.017072937 3183403.017072937 20306838.68303745 0 0 0 0 0 140405569.9146707 4027197.140304234 4027197.140304234 19780272.57758548 0 0 0 0 0 138308505.1101793 4727143.575378886 4727143.575378886 19270772.16181604 0 0 0 0 0 136365975.3381789 5304832.939700275 5304832.939700275 18776186.31851697 0 0 0 0 0 133746634.6900846 5886546.799022734 5886546.799022734 16481566.9605027 0 0 0 0 0 134815659.4646721 6537633.714303007 6537633.714303007 17840052.24262729 0 0 0 0 0 132172995.7316527 6253682.033543897 6253682.033543897 16078795.84973653 0 0 0 0 0 130700131.0604396 6548494.376123499 6548494.376123499 15689324.5387252 0 0 0 0 0 129321056.3455795 6782630.667378448 6782630.667378448 15317401.85379408 0 0 0 0 0 128031998.4217003 6964346.462846514 6964346.462846514 14952218.16862019 0 0 0 0 0 126826502.3450964 7101662.160311405 7101662.160311405 14594029.83968765 0 0 0 0 0 125695175.7875781 7200447.826021311 7200447.826021311 14243477.85388227 0 0 0 0 0 125095953.4115718 7765368.299333655 7765368.299333655 13679079.79467234 0 0 0 0 0 124308830.1451361 7247650.168600085 7247650.168600085 12528567.63649185 0 0 0 0 0 123344806.2961424 7283811.370952304 7283811.370952304 12257204.35123156 0 0 0 0 0 122434780.5238111 7296946.43067237 7296946.43067237 11993501.2857729 0 0 0 0 0 121577922.8523372 7290724.680630488 7290724.680630488 11736804.65361304 0 0 0 0 0 120760876.8662473 7267771.778933547 7267771.778933547 11493651.72864209 0 0 0 0 0 119985423.3648323 7229922.580211441 7229922.580211441 11257059.38943009 0 0 0 0 0 119712019.5203158 7532923.329891561 7532923.329891561 10896955.50809909 0 0 0 0 0 119106255.3720145 7121470.531151575 7121470.531151575 9961473.811285827 0 0 0 0 0 118433837.532951 7063825.870735165 7063825.870735165 9770238.843181349 0 0 0 0 0 118094416.2590329 7173920.151761016 7173920.151761016 8550338.4608672 0 0 0 0 0 117494011.0742286 7095937.555927003 7095937.555927003 8412516.638800757 0 0 0 0 0 116810408.5406228 6881630.130515046 6881630.130515046 7425418.429861039 0 0 0 0 0 116974718.7002409 6737015.531307124 6737015.531307124 7584975.797715493 0 0 0 0 0 116277999.6387493 6799698.650164208 6799698.650164208 7318834.264983618 0 0 0 0 0 115768304.7747896 6713506.685565584 6713506.685565584 7212025.91242701 0 0 0 0 0 115280581.0539063 6624220.760562469 6624220.760562469 7105846.218962763 0 0 0 0 0 114813819.4129188 6532623.469883127 6532623.469883127 7000645.957495959 0 0 0 0 0 114300330.5251143 6316642.473490873 6316642.473490873 6204572.620676293 0 0 0 0 0 114386232.5923339 6235619.626053547 6235619.626053547 6314686.155567677 0 0 0 0 0 113879881.3627022 6227340.576642773 6227340.576642773 6125140.430587949 0 0 0 0 0 113476255.8129285 6136883.727079536 6136883.727079536 6046273.207946747 0 0 0 0 0 113088819.6182732 6045607.028429564 6045607.028429564 5967644.808451973 0 0 0 0 0 112716835.1612181 5953882.598390973 5953882.598390973 5889442.613109645 0 0 0 0 0 112359483.9909291 5862013.471118226 5862013.471118226 5811828.278223927 0 0 0 0 0 112017654.2792382 5623600.373009017 5623600.373009017 5259528.739569218 0 0 0 0 0 111655531.8601824 5577290.219460624 5577290.219460624 5128106.730199506 0 0 0 0 0 111685806.3502987 5539714.956488931 5539714.956488931 5200438.047618479 0 0 0 0 0 111342373.2481624 5490502.825032956 5490502.825032956 5070058.666872274 0 0 0 0 0 111041168.062407 5403492.085171559 5403492.085171559 5013832.766364087 0 0 0 0 0 110751392.4318556 5317450.202353803 5317450.202353803 4959594.374746519 0 0 0 0 0 110470554.7441865 5230964.929060314 5230964.929060314 4893195.400911208 0 0 0 0 0 110217033.103342 5080647.444857709 5080647.444857709 4419078.971950771 0 0 0 0 0 110184990.8278341 5035534.488195317 5035534.488195317 4431300.622005666 0 0 0 0 0 109997535.689558 4978242.152186844 4978242.152186844 4235750.438353506 0 0 0 0 0 118228732.721015 7290975.92686589 7290975.92686589 9488335.272132903 0 0 0 0 0 267952175.6841906 -62060055.56100705 -62060055.56100705 19756512.21998535 0 0 0 0 0 242565418.4535137 -51990417.49783408 -51990417.49783408 18566044.75834418 0 0 0 0 0 236367449.3830891 -52669538.87189957 -52669538.87189957 24940042.44629146 0 0 0 0 0 216118003.4586468 -41461392.48838925 -41461392.48838925 23903967.24323533 0 0 0 0 0 202993812.3992037 -32971495.39432996 -32971495.39432996 29015817.77276843 0 0 0 0 0 205927420.961464 -33011995.61144794 -33011995.61144794 25664474.85339281 0 0 0 0 0 176474845.0496775 -14061531.31018891 -14061531.31018891 26696681.90481307 0 0 0 0 0 194305067.4253113 -26046875.15912189 -26046875.15912189 28981137.64117017 0 0 0 0 0 186648449.9375328 -20329042.97194819 -20329042.97194819 28820937.08934253 0 0 0 0 0 171234821.749978 -10188674.12112371 -10188674.12112371 26560676.62156678 0 0 0 0 0 166486682.1397876 -6974851.376926241 -6974851.376926241 26313705.78375042 0 0 0 0 0 162174979.6069517 -4304194.376173863 -4304194.376173863 25982026.00879663 0 0 0 0 0 158251824.2855682 -2083180.938768386 -2083180.938768386 25582813.88600326 0 0 0 0 0 154672085.2696255 -236379.3604722093 -236379.3604722093 25133782.04308661 0 0 0 0 0 151399019.6207931 1298541.70516686 1298541.70516686 24647472.69602801 0 0 0 0 0 148402124.0593746 2572846.97906168 2572846.97906168 24133730.67704839 0 0 0 0 0 145650058.2473937 3628593.570420035 3628593.570420035 23600397.34643113 0 0 0 0 0 144158609.1933617 2888814.9030176 2888814.9030176 22354887.83268205 0 0 0 0 0 141700686.7039815 4737325.837215587 4737325.837215587 21124138.05268215 0 0 0 0 0 139554405.3911991 5425266.736373141 5425266.736373141 20621589.7846639 0 0 0 0 0 137562208.469861 5987847.256796492 5987847.256796492 20122373.40165089 0 0 0 0 0 135709776.6403252 6444573.181617548 6444573.181617548 19628808.95013345 0 0 0 0 0 133202076.3866217 6887782.400098654 6887782.400098654 17415984.20266412 0 0 0 0 0 134563334.3514397 5779009.369123886 5779009.369123886 18296168.21278568 0 0 0 0 0 131691918.4712725 7166029.302210123 7166029.302210123 17005250.57225491 0 0 0 0 0 130277886.1910341 7382415.499506699 7382415.499506699 16601824.96202436 0 0 0 0 0 128953680.1734714 7545311.938113746 7545311.938113746 16201466.3964365 0 0 0 0 0 127710924.089672 7662984.948192407 7662984.948192407 15807670.06336872 0 0 0 0 0 126542547.1862557 7742177.068979722 7742177.068979722 15421141.21686034 0 0 0 0 0 125440075.5668977 7789049.460097055 7789049.460097055 15049837.55543504 0 0 0 0 0 124629993.9853145 7266772.707348951 7266772.707348951 13906441.57315315 0 0 0 0 0 124100837.8968759 7783291.589724869 7783291.589724869 13370769.04794212 0 0 0 0 0 123160839.0964751 7778531.488302256 7778531.488302256 13070321.98222567 0 0 0 0 0 122272994.2606602 7754461.262360238 7754461.262360238 12778144.39244481 0 0 0 0 0 121425192.3285945 7713551.003003258 7713551.003003258 12501177.11596119 0 0 0 0 0 120624622.3155063 7660331.837743497 7660331.837743497 12228829.68489931 0 0 0 0 0 119867552.8592205 7594871.652515108 7594871.652515108 11963430.47746373 0 0 0 0 0 119252636.255056 7180362.72940548 7180362.72940548 11025192.36451242 0 0 0 0 0 119015874.1529634 7460202.633242644 7460202.633242644 10673456.36480146 0 0 0 0 0 118354328.7252896 7379449.054804131 7379449.054804131 10454592.89636334 0 0 0 0 0 117678976.0265419 6913440.32845526 6913440.32845526 8623014.226909248 0 0 0 0 0 117086748.5196808 6844393.165929463 6844393.165929463 8480325.609628269 0 0 0 0 0 116420728.2350415 6666152.496661427 6666152.496661427 7476894.600202709 0 0 0 0 0 116922162.5743137 7012885.405074607 7012885.405074607 8275901.039642551 0 0 0 0 0 115892574.5291284 6590237.591302892 6590237.591302892 7367921.062373012 0 0 0 0 0 115388998.7594299 6510268.330519433 6510268.330519433 7258829.373853178 0 0 0 0 0 114908049.8236952 6427169.906394535 6427169.906394535 7150377.631248041 0 0 0 0 0 114448032.733585 6341329.397156301 6341329.397156301 7043063.872113119 0 0 0 0 0 113954108.1793511 6152363.790632076 6152363.790632076 6233454.308770931 0 0 0 0 0 114366643.5116099 6439183.100728391 6439183.100728391 6896476.048142411 0 0 0 0 0 113540123.1309824 6067305.195733964 6067305.195733964 6152729.900270383 0 0 0 0 0 113143384.5249755 5981038.019877339 5981038.019877339 6072464.393825395 0 0 0 0 0 112762985.8207557 5893869.183217286 5893869.183217286 5992725.723857129 0 0 0 0 0 112398077.8331769 5806136.834711411 5806136.834711411 5913483.462416502 0 0 0 0 0 112047856.5946785 5718111.909808994 5718111.909808994 5834827.381330424 0 0 0 0 0 112016033.843381 5770222.865687961 5770222.865687961 5734676.073017655 0 0 0 0 0 111366749.6074002 5455945.333087571 5455945.333087571 5141495.450716875 0 0 0 0 0 111685887.5065819 5678841.792769857 5678841.792769857 5658325.458395668 0 0 0 0 0 111060183.4710007 5372561.684284127 5372561.684284127 5082761.939719325 0 0 0 0 0 110765666.3178928 5290158.810242301 5290158.810242301 5025004.866813116 0 0 0 0 0 110491233.4581398 5210522.347120236 5210522.347120236 4969974.370025192 0 0 0 0 0 110247374.8627627 5141078.294423854 5141078.294423854 4910563.909458585 0 0 0 0 0 109925311.1689838 4965567.87611081 4965567.87611081 4431132.522220335 0 0 0 0 0 110187581.1827947 5145834.232084534 5145834.232084534 4854373.554689848 0 0 0 0 0 109687659.657612 4881587.324535253 4881587.324535253 4379791.31522847 0 0 0 0 0 117795161.1091475 6997661.147259587 6997661.147259587 9583108.804919926 0 0 0 0 0 251169566.159095 -53365879.05225319 -53365879.05225319 11898943.30430878 0 0 0 0 0 251345428.1416903 -53021800.62459017 -53021800.62459017 21426189.51210548 0 0 0 0 0 227970422.6315223 -42143603.15543909 -42143603.15543909 21932835.69645084 0 0 0 0 0 224055954.8390276 -42596760.93018785 -42596760.93018785 26586597.85682966 0 0 0 0 0 197148879.7921261 -25821892.39945879 -25821892.39945879 26763525.53608353 0 0 0 0 0 212571265.1764084 -34410521.93584698 -34410521.93584698 28202551.93930656 0 0 0 0 0 179870809.3201351 -15595093.19606092 -15595093.19606092 28550540.73344586 0 0 0 0 0 189384770.0095395 -19912297.39384443 -19912297.39384443 27461394.04869737 0 0 0 0 0 182485004.6591159 -15043118.89234083 -15043118.89234083 27847009.28925669 0 0 0 0 0 173846231.3237202 -11664498.90601304 -11664498.90601304 28187034.44597396 0 0 0 0 0 168469910.2830713 -8393468.790084841 -8393468.790084841 27750605.12066242 0 0 0 0 0 163651869.0134459 -5665763.88922451 -5665763.88922451 27257302.53289399 0 0 0 0 0 159319475.8779345 -3388124.799173417 -3388124.799173417 26722563.14558441 0 0 0 0 0 155407434.1877783 -1485490.159983885 -1485490.159983885 26156774.38224803 0 0 0 0 0 151866328.2557902 103923.3646734676 103923.3646734676 25569801.06922675 0 0 0 0 0 148651410.5341567 1431027.75169015 1431027.75169015 24969393.04286791 0 0 0 0 0 145724789.4216556 2537680.187744606 2537680.187744606 24362001.89924853 0 0 0 0 0 143118526.8380232 4501017.324721416 4501017.324721416 23055641.86654246 0 0 0 0 0 141697482.0782798 3773090.645819035 3773090.645819035 21779434.78268176 0 0 0 0 0 139432985.4164336 4506713.628995495 4506713.628995495 21216133.39302259 0 0 0 0 0 137345456.4797869 5112581.442369051 5112581.442369051 20665019.56316857 0 0 0 0 0 135417760.3271815 5610291.571715785 5610291.571715785 20126051.19099731 0 0 0 0 0 132890111.2884741 6164779.919526392 6164779.919526392 17828662.08924098 0 0 0 0 0 133986234.1648977 6811494.913749713 6811494.913749713 19143627.2646755 0 0 0 0 0 131330711.630957 6475064.485972833 6475064.485972833 17377918.8004435 0 0 0 0 0 129875712.4817145 6722389.209625375 6722389.209625375 16945457.55841622 0 0 0 0 0 128515516.4083951 6914478.178140738 6914478.178140738 16524476.7280381 0 0 0 0 0 127247476.6314956 7059482.186731614 7059482.186731614 16110477.33654314 0 0 0 0 0 126062012.4480731 7165574.770141395 7165574.770141395 15706911.76953774 0 0 0 0 0 124953416.8162342 7237324.882549722 7237324.882549722 15309339.93521664 0 0 0 0 0 124403407.5687918 7809318.057245761 7809318.057245761 14690006.92782973 0 0 0 0 0 123626500.3472119 7305328.773642709 7305328.773642709 13581605.54996909 0 0 0 0 0 122681641.5633209 7320037.11277398 7320037.11277398 13266728.21148162 0 0 0 0 0 121791212.4071038 7314441.63333765 7314441.63333765 12960502.63096951 0 0 0 0 0 120953012.6090711 7292180.274758669 7292180.274758669 12664009.71295101 0 0 0 0 0 120154728.3844814 7254410.836008222 7254410.836008222 12382732.33858451 0 0 0 0 0 119400284.8209526 7205032.013409264 7205032.013409264 12107597.88216315 0 0 0 0 0 119153646.6950637 7520522.916708892 7520522.916708892 11700217.72252653 0 0 0 0 0 118561992.3586496 7120990.559205943 7120990.559205943 10794771.48987116 0 0 0 0 0 117907071.9983753 7052866.937716024 7052866.937716024 10569433.33533981 0 0 0 0 0 117614788.2655009 7208043.630562483 7208043.630562483 9315607.972383663 0 0 0 0 0 117026620.0542147 7119601.584990865 7119601.584990865 9147556.56116849 0 0 0 0 0 116376989.167842 6925373.562623122 6925373.562623122 8140558.574616706 0 0 0 0 0 116518510.4382694 6768849.205194091 6768849.205194091 8341061.193801815 0 0 0 0 0 115855604.1986221 6833456.614639553 6833456.614639553 8004056.099132795 0 0 0 0 0 115357548.6012844 6738866.485929265 6738866.485929265 7869607.283426378 0 0 0 0 0 114881131.5740429 6642078.98956147 6642078.98956147 7737630.174086571 0 0 0 0 0 114425364.0530937 6543680.34915209 6543680.34915209 7607854.417770049 0 0 0 0 0 113938220.0176964 6344336.256232131 6344336.256232131 6793463.887455328 0 0 0 0 0 114007830.1022925 6253380.869084651 6253380.869084651 6936873.014309193 0 0 0 0 0 113527430.0279329 6248561.397615986 6248561.397615986 6691688.50622483 0 0 0 0 0 113133502.2128264 6152265.47552094 6152265.47552094 6591248.002512117 0 0 0 0 0 112755600.3783928 6055743.196985156 6055743.196985156 6492109.830586891 0 0 0 0 0 112392874.3570715 5959270.09886074 5959270.09886074 6394269.797909613 0 0 0 0 0 112044566.1989432 5863078.999410662 5863078.999410662 6297816.2274167 0 0 0 0 0 111711571.4898089 5630056.366160341 5630056.366160341 5756879.589823651 0 0 0 0 0 111368425.3534246 5587971.595015236 5587971.595015236 5582398.345801764 0 0 0 0 0 111388220.090035 5542157.424055785 5542157.424055785 5679738.392474973 0 0 0 0 0 111063011.7921051 5497887.562914017 5497887.562914017 5506643.223165941 0 0 0 0 0 110770202.2698309 5407898.170099764 5407898.170099764 5431537.274095408 0 0 0 0 0 110494144.3609866 5319656.885625934 5319656.885625934 5341227.710743485 0 0 0 0 0 110246863.0287527 5228359.550620637 5228359.550620637 5240742.391412617 0 0 0 0 0 109957612.3440745 5075678.91547168 5075678.91547168 4718371.186245605 0 0 0 0 0 110033213.2858362 5082831.065566244 5082831.065566244 4825393.636389246 0 0 0 0 0 117725804.2331031 7292729.831159909 7292729.831159909 10242265.97156023 0 0 0 0 0 273520207.4263062 -52672273.00095396 -52672273.00095396 17478572.04088274 0 0 0 0 0 243110325.5846884 -42156365.34211637 -42156365.34211637 19060783.62641 0 0 0 0 0 235459262.36855 -43405793.75894634 -43405793.75894634 24574025.03484365 0 0 0 0 0 217314931.0381556 -34055576.43528987 -34055576.43528987 24408033.81663228 0 0 0 0 0 202339829.2822516 -27281681.06561245 -27281681.06561245 28995899.98552031 0 0 0 0 0 206478101.0409817 -26795762.8841897 -26795762.8841897 26379228.90896022 0 0 0 0 0 176329440.8891746 -11019145.79025895 -11019145.79025895 27987701.58882443 0 0 0 0 0 193405946.7949084 -21392230.44286762 -21392230.44286762 29428026.65325114 0 0 0 0 0 185574234.3919678 -16520461.15315557 -16520461.15315557 29589048.74284819 0 0 0 0 0 170821014.4263875 -7685260.095806384 -7685260.095806384 27937730.93489137 0 0 0 0 0 165873530.688979 -4917047.143794983 -4917047.143794983 27741400.22543042 0 0 0 0 0 161416648.6042854 -2616164.020519643 -2616164.020519643 27431285.03667342 0 0 0 0 0 157386474.7116839 -703518.1120999714 -703518.1120999714 27034360.25479284 0 0 0 0 0 153732068.8092805 886173.6457106884 886173.6457106884 26572579.13430797 0 0 0 0 0 150410330.7552597 2206413.937400255 2206413.937400255 26062145.61996696 0 0 0 0 0 147383854.7613323 3300940.876387778 3300940.876387778 25516881.35783529 0 0 0 0 0 144617652.6237247 4206092.814224187 4206092.814224187 24946095.97120566 0 0 0 0 0 143054343.0341821 3459323.880962129 3459323.880962129 23751107.27058318 0 0 0 0 0 140784724.5992899 5219443.873096929 5219443.873096929 22508543.09061689 0 0 0 0 0 138631807.9114185 5807604.60388004 5807604.60388004 21959895.42867432 0 0 0 0 0 136640831.5528274 6285649.992410003 6285649.992410003 21413493.53523517 0 0 0 0 0 134797027.4975953 6670550.42476875 6670550.42476875 20872440.47965793 0 0 0 0 0 132378820.7891091 7102924.857295805 7102924.857295805 18672575.94842941 0 0 0 0 0 133633912.3144278 6015614.754531972 6015614.754531972 19598938.49658365 0 0 0 0 0 130877371.7388727 7329887.279901306 7329887.279901306 18211458.91113129 0 0 0 0 0 129473877.1668938 7501306.909624078 7501306.909624078 17756652.56143477 0 0 0 0 0 128163693.9381156 7625470.15465628 7625470.15465628 17307457.6173641 0 0 0 0 0 126938346.4380838 7711180.396538503 7711180.396538503 16868291.27752241 0 0 0 0 0 125790073.9330618 7763347.484555164 7763347.484555164 16438179.90026885 0 0 0 0 0 124707631.8218728 7787711.901860096 7787711.901860096 16028228.41465984 0 0 0 0 0 123908224.2778242 7280229.359781663 7280229.359781663 14930626.87866758 0 0 0 0 0 123425442.1867045 7805480.651566664 7805480.651566664 14339409.38614004 0 0 0 0 0 122503807.2066535 7781904.351470645 7781904.351470645 13997266.65190984 0 0 0 0 0 121633913.2216422 7741920.274047097 7741920.274047097 13666605.70209533 0 0 0 0 0 120806076.3024113 7687928.416555175 7687928.416555175 13351871.18372943 0 0 0 0 0 120023250.6567384 7621203.32333333 7621203.32333333 13044778.99858227 0 0 0 0 0 119283916.1097179 7545620.801664867 7545620.801664867 12747119.83404122 0 0 0 0 0 118685366.147845 7144652.445516831 7144652.445516831 11842077.28625589 0 0 0 0 0 118473625.7366717 7437028.726588991 7437028.726588991 11442046.83304769 0 0 0 0 0 117828779.3126495 7347894.944430664 7347894.944430664 11191921.86486346 0 0 0 0 0 117188179.3760574 6924827.535008278 6924827.535008278 9401199.673764858 0 0 0 0 0 116610351.3306723 6846630.458462665 6846630.458462665 9227296.534112189 0 0 0 0 0 115977444.6318709 6688693.682361716 6688693.682361716 8202967.586859421 0 0 0 0 0 116467542.4963939 7027094.10375243 7027094.10375243 8983919.673581729 0 0 0 0 0 115462601.6574575 6604437.848613627 6604437.848613627 8064720.842671322 0 0 0 0 0 114971393.1521038 6517073.738342232 6517073.738342232 7927878.785586029 0 0 0 0 0 114502791.2332804 6427183.1593048 6427183.1593048 7792999.184672279 0 0 0 0 0 114054544.3283844 6335401.197269289 6335401.197269289 7660511.409079643 0 0 0 0 0 113586628.6501367 6163830.530542095 6163830.530542095 6832012.049401438 0 0 0 0 0 113989019.7296211 6444000.045023344 6444000.045023344 7480194.65028064 0 0 0 0 0 113183297.2578272 6073173.009851651 6073173.009851651 6728509.328675062 0 0 0 0 0 112797010.3878012 5981824.497835473 5981824.497835473 6626482.00576623 0 0 0 0 0 112426724.5102001 5890103.022112804 5890103.022112804 6525884.124265777 0 0 0 0 0 112071706.8417558 5798239.810603924 5798239.810603924 6426736.914108856 0 0 0 0 0 111731075.9721007 5706560.322245132 5706560.322245132 6329120.439382528 0 0 0 0 0 111709824.4702427 5767438.869856313 5767438.869856313 6203074.647269029 0 0 0 0 0 111077478.3905005 5454628.276998593 5454628.276998593 5603333.815793323 0 0 0 0 0 111388204.1654942 5672469.826172229 5672469.826172229 6109609.129712099 0 0 0 0 0 110778982.6594553 5367527.395363449 5367527.395363449 5527307.253312508 0 0 0 0 0 110489384.476411 5280095.745742805 5280095.745742805 5451132.71230437 0 0 0 0 0 110227965.3066751 5201500.248140226 5201500.248140226 5390246.69843648 0 0 0 0 0 109987859.6164967 5127130.942061676 5127130.942061676 5295359.727818756 0 0 0 0 0 109635618.6245284 4946152.206169995 4946152.206169995 4893284.697681452 0 0 0 0 0 109869154.273915 5093166.904507861 5093166.904507861 5238722.108309114 0 0 0 0 0 117284964.7481658 6977992.611015054 6977992.611015054 10349812.01523116 0 0 0 0 0 257394979.7039414 -46313292.89372107 -46313292.89372107 9767858.408247069 0 0 0 0 0 244220565.2727929 -41437302.01384854 -41437302.01384854 18820361.68273899 0 0 0 0 0 228857840.6640826 -34273475.72736102 -34273475.72736102 22333215.33991108 0 0 0 0 0 222733720.6484632 -34986176.47925633 -34986176.47925633 26335690.96872236 0 0 0 0 0 197192267.7052799 -20766395.70825841 -20766395.70825841 27736253.90571761 0 0 0 0 0 210920859.4121612 -27956893.3315243 -27956893.3315243 28229769.4276574 0 0 0 0 0 178680082.6923449 -12478500.38206608 -12478500.38206608 29540316.76406774 0 0 0 0 0 189046616.173358 -15799030.75923532 -15799030.75923532 28608330.98733353 0 0 0 0 0 181866885.6420498 -11697050.31058218 -11697050.31058218 29103336.07025064 0 0 0 0 0 172581997.243231 -9115373.294497892 -9115373.294497892 29328966.51441802 0 0 0 0 0 167164332.7434755 -6310734.048327176 -6310734.048327176 28992651.52825745 0 0 0 0 0 162326254.7316576 -3968283.456492561 -3968283.456492561 28563381.02814677 0 0 0 0 0 157986816.9454463 -2010183.205918344 -2010183.205918344 28063651.78568535 0 0 0 0 0 154083574.5594266 -372603.1456163201 -372603.1456163201 27509947.13937803 0 0 0 0 0 150562050.2883823 996504.9467796101 996504.9467796101 26919441.65709114 0 0 0 0 0 147374782.1614218 2139635.591879925 2139635.591879925 26303328.97737113 0 0 0 0 0 144479872.0611656 3092905.861707143 3092905.861707143 25672120.46724634 0 0 0 0 0 142082898.2150448 4952281.724118904 4952281.724118904 24362139.85069359 0 0 0 0 0 140611286.5132287 4224646.231137678 4224646.231137678 23142207.71496965 0 0 0 0 0 138369478.748145 4857877.647064025 4857877.647064025 22541731.47356495 0 0 0 0 0 136308344.8273925 5379052.741272786 5379052.741272786 21949579.92641579 0 0 0 0 0 134409368.1220844 5805166.01328878 5805166.01328878 21367676.28300994 0 0 0 0 0 131983490.0477328 6342255.23168275 6342255.23168275 19085031.10781015 0 0 0 0 0 133087221.3738063 6976363.256870436 6976363.256870436 20343204.13004573 0 0 0 0 0 130444459.0136858 6602706.830593158 6602706.830593158 18591554.64735241 0 0 0 0 0 129012134.087714 6807212.336623908 6807212.336623908 18112708.73023187 0 0 0 0 0 127681167.4831181 6963305.226115762 6963305.226115762 17641509.08852192 0 0 0 0 0 126438196.809698 7077835.091960147 7077835.091960147 17183268.93091162 0 0 0 0 0 125277069.4181689 7156568.638448124 7156568.638448124 16735371.80717519 0 0 0 0 0 124192431.8060671 7205918.478346733 7205918.478346733 16298568.94471374 0 0 0 0 0 123690934.2456831 7786462.225839074 7786462.225839074 15625280.80107575 0 0 0 0 0 122928704.7482223 7298711.39230563 7298711.39230563 14563511.30822793 0 0 0 0 0 122006684.5484451 7296614.194154579 7296614.194154579 14208037.09319688 0 0 0 0 0 121139017.6446514 7276601.342053744 7276601.342053744 13862882.59123533 0 0 0 0 0 120322749.117469 7241367.946882247 7241367.946882247 13527689.0423182 0 0 0 0 0 119545378.4729625 7193159.020974884 7193159.020974884 13210754.80139011 0 0 0 0 0 118811765.0870267 7133725.850055932 7133725.850055932 12903036.96290732 0 0 0 0 0 118587312.8031553 7461033.278580968 7461033.278580968 12446563.06195577 0 0 0 0 0 118014366.6185586 7076023.435017428 7076023.435017428 11577463.13183458 0 0 0 0 0 117376834.9079401 7000333.125468101 7000333.125468101 11319751.38656798 0 0 0 0 0 117126504.2930463 7201001.690617727 7201001.690617727 10040012.36134342 0 0 0 0 0 116553137.6433509 7104524.971306629 7104524.971306629 9842667.188400451 0 0 0 0 0 115934837.5232638 6931006.028867546 6931006.028867546 8816936.606921703 0 0 0 0 0 116056935.7115268 6762907.444675832 6762907.444675832 9056832.082481878 0 0 0 0 0 115426251.2076224 6832054.436226316 6832054.436226316 8653977.867401902 0 0 0 0 0 114940531.8954265 6730824.923196718 6730824.923196718 8493939.524560025 0 0 0 0 0 114476606.1447901 6628542.592513626 6628542.592513626 8337917.376536032 0 0 0 0 0 114032621.4661564 6524840.035189718 6524840.035189718 8184588.958832597 0 0 0 0 0 113571207.8745591 6343610.747044242 6343610.747044242 7354782.751500522 0 0 0 0 0 113626372.6495565 6242156.615972139 6242156.615972139 7530478.895637841 0 0 0 0 0 113170925.57568 6242863.664914449 6242863.664914449 7231573.350570564 0 0 0 0 0 112787335.9489425 6142183.908054119 6142183.908054119 7110733.606230188 0 0 0 0 0 112419471.0361057 6041691.01235136 6041691.01235136 6992078.472120892 0 0 0 0 0 112066482.4812675 5941673.505104455 5941673.505104455 6875621.922094558 0 0 0 0 0 111727705.1378697 5842405.284690716 5842405.284690716 6761348.196934137 0 0 0 0 0 111404013.7616094 5615182.19260909 5615182.19260909 6232886.379517293 0 0 0 0 0 111079214.415371 5578237.405852576 5578237.405852576 6017395.908600294 0 0 0 0 0 111089628.338684 5524273.026049202 5524273.026049202 6138364.630999145 0 0 0 0 0 110782053.5959319 5484693.374244655 5484693.374244655 5925794.122917701 0 0 0 0 0 110493950.9496758 5391244.121960619 5391244.121960619 5836307.361198396 0 0 0 0 0 110237442.443142 5306730.580077359 5306730.580077359 5649234.508270057 0 0 0 0 0 110004487.7430758 5200634.061627189 5200634.061627189 5375759.777802366 0 0 0 0 0 109843334.7503733 5106221.729091561 5106221.729091561 5121207.786576726 0 0 0 0 0 117216539.4582659 7253550.447738581 7253550.447738581 10949260.73320857 0 0 0 0 0 283538414.0710778 -44437093.10321224 -44437093.10321224 15256138.8356155 0 0 0 0 0 262872287.5898889 -39424845.3285353 -39424845.3285353 19244063.8302257 0 0 0 0 0 241104368.8871287 -32983675.49694005 -32983675.49694005 19886788.66505487 0 0 0 0 0 232982267.3562325 -34415993.07147714 -34415993.07147714 23440598.2165251 0 0 0 0 0 216624547.2586893 -27096179.099038 -27096179.099038 25357097.13476122 0 0 0 0 0 200609640.3769487 -22054161.39369329 -22054161.39369329 29427218.29510891 0 0 0 0 0 205661831.7463863 -21129801.63624696 -21129801.63624696 27511164.73989238 0 0 0 0 0 175510264.6474558 -8298593.774762528 -8298593.774762528 29309488.79909844 0 0 0 0 0 191639739.6634023 -17161783.64426006 -17161783.64426006 30152816.93107836 0 0 0 0 0 183808295.8641582 -13096640.06478484 -13096640.06478484 30517193.34985531 0 0 0 0 0 169858674.9014751 -5476169.501132172 -5476169.501132172 29294787.36740663 0 0 0 0 0 164811488.379098 -3128513.946454172 -3128513.946454172 29111092.44942262 0 0 0 0 0 160289189.2222473 -1173980.338027578 -1173980.338027578 28798077.2236392 0 0 0 0 0 156220009.9342115 452618.2539426743 452618.2539426743 28384337.38889455 0 0 0 0 0 152546626.5805063 1805620.857734844 1805620.857734844 27897020.08928294 0 0 0 0 0 149220093.2106818 2928600.686105154 2928600.686105154 27354684.63510271 0 0 0 0 0 146199312.3284941 3859047.406205874 3859047.406205874 26772698.75312882 0 0 0 0 0 143448300.7247185 4628074.712969695 4628074.712969695 26164702.26358191 0 0 0 0 0 141844656.8402387 3885701.97511376 3885701.97511376 25031022.48243149 0 0 0 0 0 139755966.7870073 5564314.650081248 5564314.650081248 23772007.63322334 0 0 0 0 0 137615593.3645897 6062938.414025836 6062938.414025836 23178609.12722804 0 0 0 0 0 135642732.9703141 6465901.192973122 6465901.192973122 22587277.08274047 0 0 0 0 0 133821502.1699626 6787266.944266427 6787266.944266427 22002609.52801595 0 0 0 0 0 131493568.3703507 7215595.808367102 7215595.808367102 19826761.93077224 0 0 0 0 0 132658415.3451406 6149569.257726217 6149569.257726217 20795809.04795918 0 0 0 0 0 130010606.0974223 7398075.964124983 7398075.964124983 19316928.23551495 0 0 0 0 0 128630847.319593 7531856.400147973 7531856.400147973 18812225.56964261 0 0 0 0 0 127342357.7904623 7625521.171398235 7625521.171398235 18322711.18415181 0 0 0 0 0 126140181.5303852 7684416.322939187 7684416.322939187 17842432.69240843 0 0 0 0 0 125014576.1859848 7714538.697659476 7714538.697659476 17375858.57216576 0 0 0 0 0 123958412.8569274 7718992.718885317 7718992.718885317 16921502.29965069 0 0 0 0 0 123176792.7387579 7230678.446508475 7230678.446508475 15878693.06407338 0 0 0 0 0 122734613.992093 7765676.320193532 7765676.320193532 15234470.96778527 0 0 0 0 0 121833241.8493437 7727220.995392248 7727220.995392248 14854299.8535793 0 0 0 0 0 120985044.2113046 7675017.81221803 7675017.81221803 14488037.39238337 0 0 0 0 0 120175903.8347894 7609432.00947747 7609432.00947747 14140934.04920029 0 0 0 0 0 119415160.5132856 7534268.645621262 7534268.645621262 13800619.19826638 0 0 0 0 0 118696601.565833 7449952.198252626 7449952.198252626 13464905.57825999 0 0 0 0 0 118120586.3007449 7066316.215937118 7066316.215937118 12604103.49716373 0 0 0 0 0 117926009.7497754 7371050.212909399 7371050.212909399 12159224.51407235 0 0 0 0 0 117299027.8672322 7275650.664538516 7275650.664538516 11879898.88961918 0 0 0 0 0 116694559.6124095 6897342.944841296 6897342.944841296 10136128.25019308 0 0 0 0 0 116131943.7547295 6811609.112004029 6811609.112004029 9932534.379282134 0 0 0 0 0 115530006.7279532 6675399.843632624 6675399.843632624 8892713.96512391 0 0 0 0 0 116007448.1083787 7004889.920922547 7004889.920922547 9648672.276628863 0 0 0 0 0 115028854.0103018 6584965.241183232 6584965.241183232 8726396.163144434 0 0 0 0 0 114551624.5499906 6491901.861920241 6491901.861920241 8562570.131666087 0 0 0 0 0 114095093.6288779 6397044.410739047 6397044.410739047 8403445.560223293 0 0 0 0 0 113659977.4386701 6300831.042093717 6300831.042093717 8247307.729621856 0 0 0 0 0 113216800.5106634 6147946.781228719 6147946.781228719 7402771.959781014 0 0 0 0 0 113608036.4335666 6420671.384559844 6420671.384559844 8034506.35114542 0 0 0 0 0 112824888.4980383 6053146.506397213 6053146.506397213 7277532.786767536 0 0 0 0 0 112449331.7731734 5958080.51970141 5958080.51970141 7154843.729754251 0 0 0 0 0 112089611.9940815 5863010.605052475 5863010.605052475 7034463.045859307 0 0 0 0 0 111744852.4476545 5768254.074110935 5768254.074110935 6916418.592984185 0 0 0 0 0 111414244.4111626 5673952.069333154 5673952.069333154 6800538.747425922 0 0 0 0 0 111402205.2894911 5743961.221528875 5743961.221528875 6649541.856917612 0 0 0 0 0 110786934.4183033 5433800.378137136 5433800.378137136 6045361.326725191 0 0 0 0 0 111089329.5735516 5646431.806016343 5646431.806016343 6540532.643156093 0 0 0 0 0 110495246.7909702 5343144.205823024 5343144.205823024 5953231.49315419 0 0 0 0 0 110206757.2682131 5252176.449789161 5252176.449789161 5861990.202020189 0 0 0 0 0 109945100.0899875 5165654.198220763 5165654.198220763 5806246.793652607 0 0 0 0 0 109766716.0298632 5097473.067024663 5097473.067024663 5637495.200310673 0 0 0 0 0 109574363.9055013 5001974.045242767 5001974.045242767 5403444.641045099 0 0 0 0 0 116772120.9445923 6918660.320596586 6918660.320596586 11069376.04507453 0 0 0 0 0 262417353.9317194 -37341272.50549386 -37341272.50549386 6179528.880469323 0 0 0 0 0 246247832.9625562 -34018267.83351544 -34018267.83351544 12874073.3100627 0 0 0 0 0 247284135.6564196 -33838422.88023278 -33838422.88023278 21936723.88245605 0 0 0 0 0 227276741.9056854 -26320693.71357137 -26320693.71357137 24203714.09855028 0 0 0 0 0 219864386.3306738 -27786266.9849419 -27786266.9849419 26600345.32027584 0 0 0 0 0 196135195.992764 -16206286.74816738 -16206286.74816738 28964038.85331349 0 0 0 0 0 208147853.566644 -22143083.83820264 -22143083.83820264 28793073.70233745 0 0 0 0 0 176933371.602521 -9707271.929260857 -9707271.929260857 30605681.39404804 0 0 0 0 0 187822188.1992857 -12133023.87064972 -12133023.87064972 29884355.07575585 0 0 0 0 0 180538880.2973936 -8748287.218495831 -8748287.218495831 30403027.85548819 0 0 0 0 0 170870312.0662023 -6875411.478121798 -6875411.478121798 30484021.47969527 0 0 0 0 0 165494808.5911917 -4505857.057148496 -4505857.057148496 30205053.37971628 0 0 0 0 0 160705903.3951149 -2520664.657107077 -2520664.657107077 29806270.8432156 0 0 0 0 0 156417616.8465818 -855967.5400047239 -855967.5400047239 29317590.79823187 0 0 0 0 0 152568139.277483 538191.8320336876 538191.8320336876 28761500.27289753 0 0 0 0 0 149102903.5749857 1705461.581047752 1705461.581047752 28156696.46131213 0 0 0 0 0 145971838.2292247 2681858.058798186 2681858.058798186 27519090.33491604 0 0 0 0 0 143134682.4006066 3496379.845355598 3496379.845355598 26858888.56942021 0 0 0 0 0 140936345.0790356 5260903.479158579 5260903.479158579 25540910.19145742 0 0 0 0 0 139439148.3431807 4543521.727307396 4543521.727307396 24388753.35648603 0 0 0 0 0 137236857.5155121 5086943.187371898 5086943.187371898 23750535.75614086 0 0 0 0 0 135216224.9793821 5532937.136282429 5532937.136282429 23118569.10719147 0 0 0 0 0 133357404.9001505 5895763.788116248 5895763.788116248 22496229.20659103 0 0 0 0 0 131036056.0907187 6425744.411432938 6425744.411432938 20242196.4536242 0 0 0 0 0 132134507.5326526 7040129.229389077 7040129.229389077 21428654.161598 0 0 0 0 0 129531410.0162594 6643891.213622663 6643891.213622663 19703519.42035224 0 0 0 0 0 128129277.1856771 6811620.854240678 6811620.854240678 19181194.583451 0 0 0 0 0 126827373.975331 6936100.208872369 6936100.208872369 18667339.85363039 0 0 0 0 0 125614630.6747602 7024824.209847728 7024824.209847728 18167412.74404566 0 0 0 0 0 124484697.8018132 7081756.473635005 7081756.473635005 17678084.34001773 0 0 0 0 0 123427088.57998 7113918.602054156 7113918.602054156 17209081.89997062 0 0 0 0 0 122964750.6049594 7702487.40965033 7702487.40965033 16483415.04540533 0 0 0 0 0 122222021.1642696 7233721.870881047 7233721.870881047 15474103.7662581 0 0 0 0 0 121326278.7929649 7218121.487593482 7218121.487593482 15079366.16997733 0 0 0 0 0 120481563.1921807 7186532.372650536 7186532.372650536 14697956.56676164 0 0 0 0 0 119689167.2522611 7142291.709751454 7142291.709751454 14328954.59354806 0 0 0 0 0 118936814.5039961 7085782.005610138 7085782.005610138 13977740.42476149 0 0 0 0 0 118226783.774433 7021416.591069961 7021416.591069961 13640345.32851274 0 0 0 0 0 118018206.9036502 7359856.04248047 7359856.04248047 13137551.52537351 0 0 0 0 0 117467317.5811541 6991033.92993524 6991033.92993524 12306880.56893793 0 0 0 0 0 116847542.7692843 6909606.988468629 6909606.988468629 12020311.79233251 0 0 0 0 0 116632786.218352 7154852.309092158 7154852.309092158 10718305.66693584 0 0 0 0 0 116073165.3279165 7052149.941597153 7052149.941597153 10494225.86835029 0 0 0 0 0 115487780.7103084 6902079.824903361 6902079.824903361 9456213.621403024 0 0 0 0 0 115593102.0227254 6721823.836819771 6721823.836819771 9736683.114384521 0 0 0 0 0 114992906.4689601 6797470.28802645 6797470.28802645 9266914.478680458 0 0 0 0 0 114520385.8049925 6692041.630320093 6692041.630320093 9084756.043806186 0 0 0 0 0 114068922.8951154 6585082.285160919 6585082.285160919 8904686.026577886 0 0 0 0 0 113637646.8913652 6477928.184401492 6477928.184401492 8729365.326057218 0 0 0 0 0 113201552.7715152 6316204.782194736 6316204.782194736 7887493.068690935 0 0 0 0 0 113244267.0619346 6203906.007675173 6203906.007675173 8094737.728781885 0 0 0 0 0 112812321.1922561 6212006.481882575 6212006.481882575 7744269.812814151 0 0 0 0 0 112439381.0463871 6108106.044603538 6108106.044603538 7603972.19431734 0 0 0 0 0 112081938.2791812 6004882.151474669 6004882.151474669 7466732.564478807 0 0 0 0 0 111739250.0923431 5902492.646290641 5902492.646290641 7332561.874307247 0 0 0 0 0 111410165.6152083 5801116.572769742 5801116.572769742 7201543.249925755 0 0 0 0 0 111096840.7505452 5580482.518541894 5580482.518541894 6687192.250763401 0 0 0 0 0 110788534.6556621 5549622.625876541 5549622.625876541 6434422.31071127 0 0 0 0 0 110791778.211248 5487941.502627944 5487941.502627944 6576298.545517742 0 0 0 0 0 110497653.8760948 5454885.072333975 5454885.072333975 6331355.245080445 0 0 0 0 0 110203212.0586075 5362967.425053171 5362967.425053171 6210520.231754127 0 0 0 0 0 109943915.493911 5240794.840056078 5240794.840056078 5868808.615338916 0 0 0 0 0 109758088.2059221 5139176.413817827 5139176.413817827 5608537.382484506 0 0 0 0 0 116703867.3546337 7176243.559237276 7176243.559237276 11610154.57445085 0 0 0 0 0 290610897.6101374 -35100711.90033378 -35100711.90033378 12187129.38318907 0 0 0 0 0 267848490.0030297 -32754571.0181337 -32754571.0181337 18311834.45461412 0 0 0 0 0 238007220.0166887 -25294709.48901347 -25294709.48901347 21637744.43187281 0 0 0 0 0 229540207.2254704 -27254011.69770909 -27254011.69770909 25321515.27113442 0 0 0 0 0 214708319.2403349 -20777790.36051298 -20777790.36051298 26941325.03932806 0 0 0 0 0 197986721.4603611 -17397666.74882353 -17397666.74882353 30213962.98679687 0 0 0 0 0 203688832.7669525 -16121480.60516665 -16121480.60516665 28953046.23799564 0 0 0 0 0 174120602.0899642 -5929477.58744844 -5929477.58744844 30615810.54918867 0 0 0 0 0 189180797.1304603 -13429438.36780185 -13429438.36780185 31086673.73389323 0 0 0 0 0 181491920.7863592 -10101483.87277309 -10101483.87277309 31548856.38248311 0 0 0 0 0 168435431.8237842 -3579006.649788284 -3579006.649788284 30596345.39691712 0 0 0 0 0 163378451.891151 -1616609.090712298 -1616609.090712298 30396918.04975925 0 0 0 0 0 158861165.2722468 20349.17341992149 20349.17341992149 30057146.57259981 0 0 0 0 0 154806181.204246 1387068.940504133 1387068.940504133 29615936.08984607 0 0 0 0 0 151160884.9631628 2524751.16174907 2524751.16174907 29093707.41989686 0 0 0 0 0 147867942.4532333 3470755.740875195 3470755.740875195 28514965.31613339 0 0 0 0 0 144885236.7840203 4254994.830867397 4254994.830867397 27895265.00774718 0 0 0 0 0 142175455.0545918 4902967.681440332 4902967.681440332 27248472.95456682 0 0 0 0 0 140555736.3888505 4174621.364491552 4174621.364491552 26186964.22179203 0 0 0 0 0 138636984.3397864 5778447.704353415 5778447.704353415 24908154.31157396 0 0 0 0 0 136526713.605729 6198499.004888142 6198499.004888142 24272960.24116788 0 0 0 0 0 134586131.6339664 6535687.696813527 6535687.696813527 23640074.22245453 0 0 0 0 0 132799416.7322502 6803010.807583045 6803010.807583045 23013270.27196296 0 0 0 0 0 130566854.4869279 7234302.43921704 7234302.43921704 20865492.5331089 0 0 0 0 0 131645908.3643739 6188108.508110189 6188108.508110189 21884312.87640008 0 0 0 0 0 129108072.7159322 7378362.71942595 7378362.71942595 20312950.82183338 0 0 0 0 0 127755972.1132286 7481592.855089463 7481592.855089463 19771593.4780396 0 0 0 0 0 126498232.7654098 7550090.396070298 7550090.396070298 19242062.48856884 0 0 0 0 0 125323932.2761087 7587131.807411981 7587131.807411981 18723878.09745923 0 0 0 0 0 124222949.2695552 7598730.955079197 7598730.955079197 18222614.28945301 0 0 0 0 0 123195164.3296575 7588920.16923465 7588920.16923465 17734152.38606562 0 0 0 0 0 122439222.4563408 7123148.568492331 7123148.568492331 16751007.29988183 0 0 0 0 0 122032732.5888423 7667821.530530406 7667821.530530406 16053758.31187528 0 0 0 0 0 121155067.324437 7618989.76483751 7618989.76483751 15641300.78232087 0 0 0 0 0 120329661.126421 7557504.186192409 7557504.186192409 15241685.79001678 0 0 0 0 0 119546731.7181161 7485057.267922864 7485057.267922864 14861623.85635001 0 0 0 0 0 118805571.0362887 7402647.066364911 7402647.066364911 14487821.77505596 0 0 0 0 0 118109697.8970968 7314397.228741337 7314397.228741337 14123426.38477925 0 0 0 0 0 117556485.4905246 6947964.99190835 6947964.99190835 13306246.14896189 0 0 0 0 0 117375659.6372156 7264887.815689635 7264887.815689635 12823135.8395861 0 0 0 0 0 116767418.3256673 7166323.044334825 7166323.044334825 12518847.10399434 0 0 0 0 0 116197519.409566 6832052.678421983 6832052.678421983 10826909.16972266 0 0 0 0 0 115651494.2302922 6741482.181882816 6741482.181882816 10595844.98196804 0 0 0 0 0 115080562.8172257 6628687.161170195 6628687.161170195 9542231.676677775 0 0 0 0 0 115542347.1323657 6947043.900527375 6947043.900527375 10273532.76311365 0 0 0 0 0 114594156.7000111 6533522.532603659 6533522.532603659 9350648.927944044 0 0 0 0 0 114130024.1553257 6436597.139732617 6436597.139732617 9162798.518162552 0 0 0 0 0 113688077.4008335 6338557.365818581 6338557.365818581 8980526.67805469 0 0 0 0 0 113266246.6083479 6239686.039499155 6239686.039499155 8801933.887024207 0 0 0 0 0 112846810.4618534 6106471.639772621 6106471.639772621 7945213.184827963 0 0 0 0 0 113225379.8430791 6370737.747330145 6370737.747330145 8557824.487723079 0 0 0 0 0 112466224.9389314 6008783.935886881 6008783.935886881 7799340.825604478 0 0 0 0 0 112101982.4061113 5911209.920120724 5911209.920120724 7656889.2393932 0 0 0 0 0 111753107.6276169 5814006.310116916 5814006.310116916 7517692.940081421 0 0 0 0 0 111418785.7817663 5717360.919885809 5717360.919885809 7381568.730938626 0 0 0 0 0 111098289.7935771 5621553.610767841 5621553.610767841 7248577.183707316 0 0 0 0 0 111094010.1572857 5701008.620615525 5701008.620615525 7073283.951083813 0 0 0 0 0 110498395.1417918 5396663.629063514 5396663.629063514 6468379.116839001 0 0 0 0 0 110790222.5197292 5602380.449292499 5602380.449292499 6947775.8753288 0 0 0 0 0 110221702.6441277 5308498.108814854 5308498.108814854 6364413.552800754 0 0 0 0 0 109970056.7023933 5223759.350499911 5223759.350499911 6253451.943365387 0 0 0 0 0 109686364.3409187 5135694.652949007 5135694.652949007 6170950.434853788 0 0 0 0 0 109495098.5448845 5040462.865351577 5040462.865351577 5878332.934757857 0 0 0 0 0 116259258.7479787 6823369.523325932 6823369.523325932 11742383.11392603 0 0 0 0 0 268891686.3295095 -28602023.73732839 -28602023.73732839 3980473.131675594 0 0 0 0 0 250048758.6246384 -27836881.59107155 -27836881.59107155 12431613.3999142 0 0 0 0 0 237090583.5865966 -24770550.60539661 -24770550.60539661 21086809.674583 0 0 0 0 0 223777797.2191185 -20057025.61414875 -20057025.61414875 25555410.31380396 0 0 0 0 0 215959305.4553968 -21665204.12204573 -21665204.12204573 27842084.78972896 0 0 0 0 0 194149493.4051352 -12227664.60550005 -12227664.60550005 30330696.19897037 0 0 0 0 0 204516781.2528659 -17145038.67218521 -17145038.67218521 29844235.43141958 0 0 0 0 0 174745982.4277035 -7307164.717098547 -7307164.717098547 31699757.14597235 0 0 0 0 0 185866449.1304339 -8961606.014688548 -8961606.014688548 31204643.7281171 0 0 0 0 0 178629188.3931631 -6221667.629216868 -6221667.629216868 31685611.33675593 0 0 0 0 0 168800070.1630652 -4957893.165325955 -4957893.165325955 31615583.05586674 0 0 0 0 0 163543355.7822903 -2983259.962826329 -2983259.962826329 31355255.70484855 0 0 0 0 0 158855413.9314888 -1320459.735519309 -1320459.735519309 30963087.27478359 0 0 0 0 0 154665081.7853992 76760.63157794547 76760.63157794547 30466039.45325554 0 0 0 0 0 150906616.2344505 1251528.712631738 1251528.712631738 29896093.30015419 0 0 0 0 0 147527510.1473654 2238067.224610816 2238067.224610816 29270144.66147664 0 0 0 0 0 144478343.4197471 3065442.047875169 3065442.047875169 28605717.459321 0 0 0 0 0 141717833.5798786 3757680.698528527 3757680.698528527 27917003.31908573 0 0 0 0 0 139706084.3230667 5435798.362034065 5435798.362034065 26585598.1175979 0 0 0 0 0 138204208.0621467 4737344.952617171 4737344.952617171 25511598.7664818 0 0 0 0 0 136054729.1739009 5201476.555423429 5201476.555423429 24837158.08213663 0 0 0 0 0 134084682.2788134 5581774.375011384 5581774.375011384 24168495.78381524 0 0 0 0 0 132274122.6371292 5890474.729426056 5890474.729426056 23508329.55140876 0 0 0 0 0 130061130.8214546 6420623.330205784 6420623.330205784 21289472.30532696 0 0 0 0 0 131142783.9952451 7010635.148125959 7010635.148125959 22399938.36135677 0 0 0 0 0 128593809.0451601 6601894.196484507 6601894.196484507 20710563.70009393 0 0 0 0 0 127229612.1114489 6737841.054904151 6737841.054904151 20143421.76348425 0 0 0 0 0 125960756.9462589 6837379.037936532 6837379.037936532 19595226.06644943 0 0 0 0 0 124783305.5351875 6905482.388679109 6905482.388679109 19058055.75779604 0 0 0 0 0 123686268.4026318 6947054.009605871 6947054.009605871 18536992.2756143 0 0 0 0 0 122661792.6890446 6964746.394746742 6964746.394746742 18030746.03470415 0 0 0 0 0 122230862.270449 7560986.761002786 7560986.761002786 17260375.56798875 0 0 0 0 0 121512545.0141713 7114107.29277249 7114107.29277249 16309775.47911669 0 0 0 0 0 120643214.4460751 7088400.17182682 7088400.17182682 15878792.06598143 0 0 0 0 0 119825326.8695629 7049245.801052436 7049245.801052436 15464493.8013598 0 0 0 0 0 119057033.9123591 6998201.325450569 6998201.325450569 15064169.13462537 0 0 0 0 0 118330833.1824818 6938589.514675586 6938589.514675586 14683977.78862432 0 0 0 0 0 117644939.9416739 6869998.561932792 6869998.561932792 14312193.60645535 0 0 0 0 0 117451286.8019876 7220878.516338849 7220878.516338849 13772825.66539685 0 0 0 0 0 116921455.0846245 6867754.259299477 6867754.259299477 12981200.72266557 0 0 0 0 0 116318411.332568 6782487.042185656 6782487.042185656 12669454.2641973 0 0 0 0 0 116136263.3923552 7072847.716893706 7072847.716893706 11352913.91721929 0 0 0 0 0 115593776.8219612 6966263.240831764 6966263.240831764 11102748.98556362 0 0 0 0 0 115038319.0922232 6840175.694687128 6840175.694687128 10056181.15379277 0 0 0 0 0 115129017.8014451 6647267.119661043 6647267.119661043 10371637.54524597 0 0 0 0 0 114557869.0661682 6732577.589085542 6732577.589085542 9846065.83078493 0 0 0 0 0 114099022.2626584 6623571.631989152 6623571.631989152 9638922.353997724 0 0 0 0 0 113661120.6478072 6514314.722248387 6514314.722248387 9437164.906015117 0 0 0 0 0 113242710.8552346 6405143.301714468 6405143.301714468 9241548.391992318 0 0 0 0 0 112830727.9541913 6263789.661182193 6263789.661182193 8391384.886962639 0 0 0 0 0 112863104.5602342 6140469.370959079 6140469.370959079 8628353.107138649 0 0 0 0 0 112453004.5852768 6157271.426678596 6157271.426678596 8228849.519375984 0 0 0 0 0 112091208.5547598 6051497.640372497 6051497.640372497 8070413.312236117 0 0 0 0 0 111744557.5837007 5946641.327159728 5946641.327159728 7915873.352032942 0 0 0 0 0 111412218.8903749 5842952.399383975 5842952.399383975 7765104.362357417 0 0 0 0 0 111093417.2768771 5740539.527136751 5740539.527136751 7617958.725209968 0 0 0 0 0 110790895.6945394 5526771.948755783 5526771.948755783 7118683.422773629 0 0 0 0 0 110498320.4734848 5504893.612226467 5504893.612226467 6826762.017632727 0 0 0 0 0 110495517.3139265 5433299.180738864 5433299.180738864 6991802.230685915 0 0 0 0 0 110225646.4218479 5406902.087782195 5406902.087782195 6713736.277633317 0 0 0 0 0 109912236.2655711 5303075.616547453 5303075.616547453 6584382.923540475 0 0 0 0 0 109799306.3010548 5239906.724918443 5239906.724918443 6284004.56274581 0 0 0 0 0 109660496.3566009 5168930.767372855 5168930.767372855 6070076.982850551 0 0 0 0 0 116190319.7515522 7062967.07953528 7062967.07953528 12221325.66645363 0 0 0 0 0 296546526.2877826 -25297443.86624651 -25297443.86624651 10709456.06504339 0 0 0 0 0 273737181.7527982 -25392048.70410023 -25392048.70410023 17306015.20436043 0 0 0 0 0 252892046.3019181 -22570571.73702121 -22570571.73702121 20741395.94322586 0 0 0 0 0 234308421.8942903 -17751614.6881156 -17751614.6881156 24647720.69440297 0 0 0 0 0 223797046.1150071 -20230247.76291495 -20230247.76291495 25668644.08246987 0 0 0 0 0 211526112.5315764 -15534189.67202407 -15534189.67202407 28470419.57189007 0 0 0 0 0 194710548.5285908 -13393621.18991484 -13393621.18991484 31252451.97553456 0 0 0 0 0 200743630.3872061 -11915312.28220056 -11915312.28220056 30417495.49639606 0 0 0 0 0 172265098.7178152 -3924818.371802255 -3924818.371802255 31861877.73921135 0 0 0 0 0 186201540.6321735 -10227704.84817042 -10227704.84817042 32140015.89853352 0 0 0 0 0 178758368.3937578 -7549956.96022481 -7549956.96022481 32617848.74041311 0 0 0 0 0 166640952.8062211 -1997361.643870408 -1997361.643870408 31806184.40921036 0 0 0 0 0 161645559.0636718 -383941.2841005777 -383941.2841005777 31568074.42139631 0 0 0 0 0 157185906.9386829 970436.3398055186 970436.3398055186 31192423.09937784 0 0 0 0 0 153197648.6123314 2104279.589532844 2104279.589532844 30712191.52082779 0 0 0 0 0 149617898.71704 3052219.141391314 3052219.141391314 30152153.84311558 0 0 0 0 0 146391554.1018718 3841644.378763525 3841644.378763525 29533802.45389197 0 0 0 0 0 143472253.4203337 4497430.466829286 4497430.466829286 28876543.58815426 0 0 0 0 0 140824333.7499354 5040393.133651338 5040393.133651338 28192946.65119727 0 0 0 0 0 139210871.568981 4335201.469695451 4335201.469695451 27214240.11335506 0 0 0 0 0 137450359.4704186 5870941.598397539 5870941.598397539 25914132.00933665 0 0 0 0 0 135384669.7671361 6223074.118895937 6223074.118895937 25240465.50569426 0 0 0 0 0 133488172.520955 6504830.347469321 6504830.347469321 24569694.71865803 0 0 0 0 0 131742508.4494421 6726902.535773776 6726902.535773776 23906265.04524616 0 0 0 0 0 129610654.1206029 7167739.560446235 7167739.560446235 21797797.93868031 0 0 0 0 0 130607502.7558886 6138550.940267899 6138550.940267899 22859556.23221125 0 0 0 0 0 128189160.4972401 7281712.377847213 7281712.377847213 21207813.76190028 0 0 0 0 0 126868660.0342851 7359998.937035474 7359998.937035474 20633429.49954885 0 0 0 0 0 125643453.8765303 7406764.746813362 7406764.746813362 20065437.52155344 0 0 0 0 0 124498632.9254416 7427561.247047134 7427561.247047134 19515850.87816831 0 0 0 0 0 123430715.5524596 7425656.882980867 7425656.882980867 18980814.36930009 0 0 0 0 0 122431603.2238816 7405412.866424466 7405412.866424466 18462419.19576215 0 0 0 0 0 121703697.7201753 6963677.803577928 6963677.803577928 17542124.42332479 0 0 0 0 0 121326173.4230035 7517743.591332351 7517743.591332351 16799664.31257777 0 0 0 0 0 120474927.7853554 7461517.655370363 7461517.655370363 16355862.72174827 0 0 0 0 0 119674399.7454538 7394209.946844275 7394209.946844275 15927305.62521784 0 0 0 0 0 118915889.1248203 7317462.720549279 7317462.720549279 15515388.66318907 0 0 0 0 0 118201378.606405 7233080.12132795 7233080.12132795 15112287.94672601 0 0 0 0 0 117528410.9725906 7142939.945230822 7142939.945230822 14722012.19578769 0 0 0 0 0 116998564.9786544 6794381.303633477 6794381.303633477 13948805.45038643 0 0 0 0 0 116827634.8176822 7123583.831212586 7123583.831212586 13437247.91610824 0 0 0 0 0 116238915.3197047 7021861.549196662 7021861.549196662 13104291.58802881 0 0 0 0 0 115703703.4010734 6733059.296764739 6733059.296764739 11471967.51477059 0 0 0 0 0 115174368.4473158 6639449.760336922 6639449.760336922 11214952.76662726 0 0 0 0 0 114632331.8032217 6551077.284595523 6551077.284595523 10152886.71682516 0 0 0 0 0 115078511.8936729 6857984.055141848 6857984.055141848 10858013.86514521 0 0 0 0 0 114160345.8473403 6452790.352600171 6452790.352600171 9937221.6547217 0 0 0 0 0 113711228.7761893 6353834.321309612 6353834.321309612 9728627.58272172 0 0 0 0 0 113283215.0953671 6254022.238340324 6254022.238340324 9523848.505134203 0 0 0 0 0 112874833.9921496 6153857.892517664 6153857.892517664 9324085.287573075 0 0 0 0 0 112477868.3180753 6040978.976535542 6040978.976535542 8458027.744053802 0 0 0 0 0 112843097.7619914 6296270.020277064 6296270.020277064 9050435.911207074 0 0 0 0 0 112109200.1252855 5941718.307329473 5941718.307329473 8292893.202578679 0 0 0 0 0 111756390.4901973 5842841.66370585 5842841.66370585 8131914.411316917 0 0 0 0 0 111418522.455676 5744553.060602228 5744553.060602228 7974985.992979086 0 0 0 0 0 111094761.6040197 5647058.158142807 5647058.158142807 7822076.504721148 0 0 0 0 0 110784456.4730604 5550503.675699007 5550503.675699007 7672837.447980217 0 0 0 0 0 110787002.8267196 5639569.025569856 5639569.025569856 7473908.964239428 0 0 0 0 0 110210025.0984253 5341324.013776945 5341324.013776945 6867789.969780402 0 0 0 0 0 110492268.8864615 5540522.01404477 5540522.01404477 7332111.301652015 0 0 0 0 0 109942670.6836502 5252955.442207898 5252955.442207898 6751347.941437964 0 0 0 0 0 109734579.9912668 5192137.665221069 5192137.665221069 6646028.600739009 0 0 0 0 0 109568668.6365761 5133964.348317901 5133964.348317901 6578169.152080111 0 0 0 0 0 109409108.7235734 5059143.091975793 5059143.091975793 6352736.142467532 0 0 0 0 0 115751097.031237 6694339.511725851 6694339.511725851 12365466.38257161 0 0 0 0 0 272117654.4760312 -18713065.99487551 -18713065.99487551 2175651.879291649 0 0 0 0 0 255436479.9913738 -20102671.63883903 -20102671.63883903 10570917.92042228 0 0 0 0 0 241865808.5151412 -20292691.3560081 -20292691.3560081 16965325.09440259 0 0 0 0 0 231011062.9335128 -17997104.32040474 -17997104.32040474 23952568.60116939 0 0 0 0 0 219766874.1604635 -14022340.79911872 -14022340.79911872 27863937.50070028 0 0 0 0 0 211057447.1246432 -16196941.78070966 -16196941.78070966 28807936.12897604 0 0 0 0 0 191435208.3279561 -8871752.291739674 -8871752.291739674 31700338.17629211 0 0 0 0 0 200294185.4227348 -12877408.91330558 -12877408.91330558 30958754.62740449 0 0 0 0 0 172226856.9487448 -5283568.568363571 -5283568.568363571 32774904.39024654 0 0 0 0 0 183338323.7073361 -6296399.523262642 -6296399.523262642 32491634.96203871 0 0 0 0 0 176263080.4698945 -4120191.289249133 -4120191.289249133 32895089.53749007 0 0 0 0 0 166467360.565671 -3366218.16385566 -3366218.16385566 32688325.34522105 0 0 0 0 0 161363783.8294159 -1740813.883705877 -1740813.883705877 32419751.59680505 0 0 0 0 0 156830259.8063865 -367620.2618206525 -367620.2618206525 32008270.74607831 0 0 0 0 0 152777519.1239358 794478.4364778531 794478.4364778531 31491960.91535836 0 0 0 0 0 149141634.8821914 1775527.445791466 1775527.445791466 30899397.50629954 0 0 0 0 0 145871449.618503 2603429.354169056 2603429.354169056 30249672.87913857 0 0 0 0 0 142923432.2234937 3300824.439700711 3300824.439700711 29557328.33192543 0 0 0 0 0 140255259.1812381 3886853.887470587 3886853.887470587 28839741.2835829 0 0 0 0 0 138415336.7453979 5487217.642160144 5487217.642160144 27493916.30744921 0 0 0 0 0 136927178.2547899 4814780.008580926 4814780.008580926 26506014.99861663 0 0 0 0 0 134841009.8314361 5210802.276539609 5210802.276539609 25798598.38752219 0 0 0 0 0 132930321.4590762 5535300.45674151 5535300.45674151 25096239.53200151 0 0 0 0 0 131175774.0707616 5798549.321236216 5798549.321236216 24402326.49108078 0 0 0 0 0 129069814.5634825 6334488.149254326 6334488.149254326 22227157.36376901 0 0 0 0 0 130130790.2537607 6897974.807107883 6897974.807107883 23257473.83882552 0 0 0 0 0 127648179.6403802 6485124.235674434 6485124.235674434 21609678.37909655 0 0 0 0 0 126326433.7956084 6596786.127878484 6596786.127878484 21007796.83880977 0 0 0 0 0 125093275.7921289 6676186.850122512 6676186.850122512 20429972.53632292 0 0 0 0 0 123951898.0446761 6727890.490205871 6727890.490205871 19860166.85224908 0 0 0 0 0 122890657.8298352 6756421.228918244 6756421.228918244 19306812.09089736 0 0 0 0 0 121900082.8084635 6765097.575748976 6765097.575748976 18770349.18834985 0 0 0 0 0 121497185.8582938 7369315.293799475 7369315.293799475 17958379.57937296 0 0 0 0 0 120806390.2282184 6945385.375854633 6945385.375854633 17066815.25656114 0 0 0 0 0 119964419.945223 6913305.805708501 6913305.805708501 16607035.93217876 0 0 0 0 0 119173164.5749492 6868707.847769123 6868707.847769123 16162761.16590605 0 0 0 0 0 118429458.5983619 6814947.877408439 6814947.877408439 15736152.6138824 0 0 0 0 0 117728676.0908534 6752259.570805945 6752259.570805945 15324165.90241041 0 0 0 0 0 117065950.9626406 6682145.5248103 6682145.5248103 14923900.70431117 0 0 0 0 0 116891211.7372736 7048382.709662306 7048382.709662306 14353118.71186357 0 0 0 0 0 116384144.2125062 6711675.739931774 6711675.739931774 13598274.90079832 0 0 0 0 0 115798718.8236343 6625097.414063463 6625097.414063463 13267984.07176492 0 0 0 0 0 115640622.6823314 6957362.064103076 6957362.064103076 11940079.22975186 0 0 0 0 0 115114285.6371153 6848820.607228586 6848820.607228586 11667749.94197718 0 0 0 0 0 114589624.4338164 6748843.88153074 6748843.88153074 10619291.98227314 0 0 0 0 0 114667642.902206 6542775.181334913 6542775.181334913 10967071.49136923 0 0 0 0 0 114123012.4822507 6638636.910528222 6638636.910528222 10384748.09237916 0 0 0 0 0 113678324.8744434 6528147.725128066 6528147.725128066 10156609.66853605 0 0 0 0 0 113254370.7984331 6417975.115912941 6417975.115912941 9935104.143603122 0 0 0 0 0 112849699.4509447 6308206.887374632 6308206.887374632 9720205.289845034 0 0 0 0 0 112460711.6843344 6188011.489687219 6188011.489687219 8865273.881958686 0 0 0 0 0 112484619.6214598 6053438.786653774 6053438.786653774 9129947.803402659 0 0 0 0 0 112094717.6123006 6080468.165292968 6080468.165292968 8684997.929808576 0 0 0 0 0 111744318.4538321 5973913.266500572 5973913.266500572 8509664.329330493 0 0 0 0 0 111408624.5534451 5868535.029646753 5868535.029646753 8339206.478980439 0 0 0 0 0 111086871.554146 5764416.745049027 5764416.745049027 8173030.958881893 0 0 0 0 0 110778221.4920999 5661852.596250141 5661852.596250141 8011174.357934772 0 0 0 0 0 110486510.5925933 5455045.495447907 5455045.495447907 7527277.180154819 0 0 0 0 0 110211755.8630069 5441746.893097315 5441746.893097315 7202669.935653036 0 0 0 0 0 110199933.7570439 5360564.154511629 5360564.154511629 7384667.333622198 0 0 0 0 0 109945560.2966682 5348014.931596083 5348014.931596083 7029652.470084845 0 0 0 0 0 109755809.3139352 5259082.826246869 5259082.826246869 6824130.590016237 0 0 0 0 0 109558326.8156587 5180705.9450033 5180705.9450033 6553067.441489324 0 0 0 0 0 115680313.6480035 6918606.549703741 6918606.549703741 12786129.28080618 0 0 0 0 0 297163607.3164877 -16323824.00434751 -16323824.00434751 7851500.009943842 0 0 0 0 0 276117260.4445227 -17941141.58524552 -17941141.58524552 15800756.4319701 0 0 0 0 0 259194035.135995 -17721284.08746996 -17721284.08746996 20651487.86681373 0 0 0 0 0 241677549.0113801 -15007754.91895248 -15007754.91895248 22627358.94829845 0 0 0 0 0 227669694.2273059 -11794356.32665125 -11794356.32665125 27055283.05747121 0 0 0 0 0 217514862.7756606 -14632392.56748583 -14632392.56748583 27709276.14455128 0 0 0 0 0 207543614.0506659 -11028497.26739848 -11028497.26739848 30240901.43427205 0 0 0 0 0 190978687.4894407 -10011782.3459203 -10011782.3459203 32360094.17910867 0 0 0 0 0 197160872.4897047 -8385553.881069358 -8385553.881069358 31917217.70561424 0 0 0 0 0 170041538.2085529 -2279417.094053602 -2279417.094053602 33009578.01271652 0 0 0 0 0 182845880.5719033 -7546619.768103126 -7546619.768103126 33215648.17526654 0 0 0 0 0 175731182.7790583 -5435115.394421091 -5435115.394421091 33659984.06977365 0 0 0 0 0 164554957.9460869 -727486.3217650221 -727486.3217650221 32896808.19220899 0 0 0 0 0 159679114.8950576 584460.4456377444 584460.4456377444 32608869.53575429 0 0 0 0 0 155333123.9219445 1688777.381816078 1688777.381816078 32185533.40676649 0 0 0 0 0 151445899.7537115 2619137.792227441 2619137.792227441 31663941.9255162 0 0 0 0 0 147961807.9149028 3399950.719671907 3399950.719671907 31063452.83237283 0 0 0 0 0 144825495.5139187 4053347.883162933 4053347.883162933 30405633.10517639 0 0 0 0 0 141990685.7679499 4599048.809926041 4599048.809926041 29712852.9057571 0 0 0 0 0 139421575.6951995 5052457.603488097 5052457.603488097 28995784.2723591 0 0 0 0 0 137832535.3933291 4377502.150119663 4377502.150119663 28107756.47063816 0 0 0 0 0 136217513.184958 5852086.863254222 5852086.863254222 26787376.37513895 0 0 0 0 0 134206903.4477292 6147190.297004984 6147190.297004984 26079866.34607469 0 0 0 0 0 132362385.1298699 6382783.370451747 6382783.370451747 25376610.65217833 0 0 0 0 0 130666283.171765 6567265.854370169 6567265.854370169 24682568.13130995 0 0 0 0 0 128640819.9425941 7024042.048768281 7024042.048768281 22618938.32926243 0 0 0 0 0 129561539.5124644 6008904.465263251 6008904.465263251 23719838.32642609 0 0 0 0 0 127257805.4624923 7113809.708899388 7113809.708899388 21998874.13336807 0 0 0 0 0 125971032.6618931 7171295.324258648 7171295.324258648 21394391.13979591 0 0 0 0 0 124780505.1943965 7201853.346908806 7201853.346908806 20796002.75306975 0 0 0 0 0 123672388.1556804 7210208.184074736 7210208.184074736 20215371.36747967 0 0 0 0 0 122638584.6195938 7200098.443394291 7200098.443394291 19653128.69904405 0 0 0 0 0 121672478.7918803 7173399.891780592 7173399.891780592 19107936.61942224 0 0 0 0 0 120973968.607303 6756456.776839998 6756456.776839998 18251611.8407523 0 0 0 0 0 120619771.2894323 7320104.397274333 7320104.397274333 17471247.97499716 0 0 0 0 0 119796453.2489057 7259576.208662618 7259576.208662618 16999784.80479473 0 0 0 0 0 119021295.3437178 7189957.909946743 7189957.909946743 16544669.76568149 0 0 0 0 0 118291405.8721188 7112179.294616493 7112179.294616493 16105064.26174249 0 0 0 0 0 117601909.9919975 7027734.640133866 7027734.640133866 15678581.81864491 0 0 0 0 0 116952694.9576765 6938504.907707271 6938504.907707271 15273107.76894678 0 0 0 0 0 116440066.0104741 6604699.577621702 6604699.577621702 14535874.0819327 0 0 0 0 0 116283145.4810844 6948453.669777147 6948453.669777147 13995322.08350734 0 0 0 0 0 115712847.8765782 6847296.291549624 6847296.291549624 13643470.42305249 0 0 0 0 0 115211790.8899105 6602539.983373976 6602539.983373976 12070785.49175872 0 0 0 0 0 114700754.2503363 6507445.543150595 6507445.543150595 11789840.28178473 0 0 0 0 0 114186893.9209024 6444131.970450805 6444131.970450805 10724293.03765907 0 0 0 0 0 114615977.3510557 6738944.143657957 6738944.143657957 11401675.12384463 0 0 0 0 0 113730164.9123881 6345313.597815258 6345313.597815258 10488823.68036648 0 0 0 0 0 113296012.3070799 6245502.409198008 6245502.409198008 10256906.91702824 0 0 0 0 0 112882234.5928523 6145329.935101765 6145329.935101765 10031207.8121751 0 0 0 0 0 112487273.0985339 6045048.492295336 6045048.492295336 9812252.38957919 0 0 0 0 0 112111738.6949519 5953318.540513884 5953318.540513884 8941116.079094246 0 0 0 0 0 112462744.5852861 6198955.479745387 6198955.479745387 9511492.104843415 0 0 0 0 0 111755129.0230397 5853601.0512846 5853601.0512846 8757708.605000218 0 0 0 0 0 111413857.6447838 5754511.249998511 5754511.249998511 8579415.014692267 0 0 0 0 0 111087081.606114 5656211.305712094 5656211.305712094 8406092.409041446 0 0 0 0 0 110774028.2744963 5558887.392122924 5558887.392122924 8237604.472057807 0 0 0 0 0 110474073.5561861 5462721.587761943 5462721.587761943 8073596.182718459 0 0 0 0 0 110481703.805459 5560770.790262067 5560770.790262067 7853763.94503722 0 0 0 0 0 109915739.0014381 5267152.701785276 5267152.701785276 7244273.693172881 0 0 0 0 0 110194820.0614283 5462163.114366045 5462163.114366045 7696412.196098692 0 0 0 0 0 109679949.9705041 5192079.099305975 5192079.099305975 7141852.538164646 0 0 0 0 0 109485126.8254661 5127426.113475238 5127426.113475238 7001031.695040056 0 0 0 0 0 109314653.582923 5051518.685441726 5051518.685441726 6817807.157905742 0 0 0 0 0 115246851.9352109 6535413.011313003 6535413.011313003 12941567.70726717 0 0 0 0 0 276443382.9021648 -10822580.19324045 -10822580.19324045 -599232.276751071 0 0 0 0 0 255233970.8287681 -12236843.64873959 -12236843.64873959 11916943.22759124 0 0 0 0 0 243556244.3638742 -13257436.10897258 -13257436.10897258 17742369.61374556 0 0 0 0 0 240859022.3339674 -15360994.56871258 -15360994.56871258 22530103.61645439 0 0 0 0 0 223710802.0562839 -12477211.80749126 -12477211.80749126 26451425.75245195 0 0 0 0 0 214224462.5113262 -9645936.632932242 -9645936.632932242 29618385.73121332 0 0 0 0 0 205799362.7987669 -11836497.0494327 -11836497.0494327 30364899.15827295 0 0 0 0 0 188196024.3590261 -6091728.267760402 -6091728.267760402 33032666.8924484 0 0 0 0 0 195712257.9508609 -9389720.784638086 -9389720.784638086 32246334.33106067 0 0 0 0 0 169469137.1649262 -3627979.539971527 -3627979.539971527 33786414.98626299 0 0 0 0 0 180388569.037764 -4121153.193479662 -4121153.193479662 33690344.00445977 0 0 0 0 0 173560086.293492 -2426475.522570961 -2426475.522570961 33995562.63760211 0 0 0 0 0 163940643.412523 -2084187.671907 -2084187.671907 33670321.08431199 0 0 0 0 0 159044344.7430949 -768553.5975092041 -768553.5975092041 33369850.60444183 0 0 0 0 0 154687900.0314113 354584.1856653342 354584.1856653342 32931564.94290487 0 0 0 0 0 150800845.1316238 1309165.015026164 1309165.015026164 32385796.64859012 0 0 0 0 0 147308731.6791203 2122792.911763528 2122792.911763528 31765866.71376899 0 0 0 0 0 144167410.9537498 2814321.927406949 2814321.927406949 31088700.32780342 0 0 0 0 0 141334715.8743015 3400296.001781737 3400296.001781737 30368906.38061116 0 0 0 0 0 138769481.0128994 3895979.073778301 3895979.073778301 29624545.83391393 0 0 0 0 0 137086009.2309245 5426626.718124731 5426626.718124731 28264906.83309273 0 0 0 0 0 135626384.4998228 4786236.640672018 4786236.640672018 27369997.36582937 0 0 0 0 0 133611770.0093578 5124584.703273659 5124584.703273659 26632726.8079438 0 0 0 0 0 131767011.5858833 5402394.471455377 5402394.471455377 25900973.96446631 0 0 0 0 0 130073405.5373137 5627699.579862269 5627699.579862269 25178567.0961283 0 0 0 0 0 128071776.798135 6174181.053243344 6174181.053243344 23055383.44987708 0 0 0 0 0 129104047.1358663 6707389.418902339 6707389.418902339 24000133.59255814 0 0 0 0 0 126693996.6051482 6299431.921660279 6299431.921660279 22406371.48799265 0 0 0 0 0 125415380.4607216 6391911.738804303 6391911.738804303 21776020.00035351 0 0 0 0 0 124227304.5262705 6456289.767669932 6456289.767669932 21165843.96745459 0 0 0 0 0 123127782.3117555 6497428.141234268 6497428.141234268 20568576.58355487 0 0 0 0 0 122103186.533125 6517796.24507899 6517796.24507899 19988385.63796642 0 0 0 0 0 121147524.1217842 6520356.971350978 6520356.971350978 19426377.52773566 0 0 0 0 0 120768287.9118428 7132920.784800135 7132920.784800135 18579010.58442247 0 0 0 0 0 120107014.5557619 6733117.926627753 6733117.926627753 17748635.89259312 0 0 0 0 0 119293962.1200658 6697303.726460169 6697303.726460169 17262587.09402237 0 0 0 0 0 118530227.8756937 6651042.980890482 6651042.980890482 16793096.14323989 0 0 0 0 0 117812083.6482124 6595883.379499851 6595883.379499851 16340139.13851202 0 0 0 0 0 117136186.2310402 6533496.395009235 6533496.395009235 15903573.41021542 0 0 0 0 0 116497899.0403143 6463021.382019684 6463021.382019684 15477082.51442333 0 0 0 0 0 116336864.7077695 6844537.89698678 6844537.89698678 14881998.87674782 0 0 0 0 0 115847280.9409077 6522782.22761042 6522782.22761042 14167150.93098599 0 0 0 0 0 115282123.5664721 6436198.878720518 6436198.878720518 13811689.63290987 0 0 0 0 0 115148293.9685312 6811697.283217103 6811697.283217103 12483242.85653255 0 0 0 0 0 114640090.8809232 6703171.920095814 6703171.920095814 12187811.62701417 0 0 0 0 0 114141818.9836094 6628900.526878141 6628900.526878141 11140679.20155294 0 0 0 0 0 114209894.4917215 6409389.820792699 6409389.820792699 11517956.68261121 0 0 0 0 0 113690505.5251787 6518223.266758929 6518223.266758929 10884894.97035411 0 0 0 0 0 113261095.0298664 6408116.304032186 6408116.304032186 10637664.04649236 0 0 0 0 0 112851327.8606889 6298381.736784132 6298381.736784132 10398196.91354337 0 0 0 0 0 112460018.5161576 6189137.086050414 6189137.086050414 10165895.33683397 0 0 0 0 0 112092856.8568511 6090579.041961386 6090579.041961386 9308960.120548096 0 0 0 0 0 112110193.2746269 5944896.594717077 5944896.594717077 9599637.264448771 0 0 0 0 0 111738909.5248462 5983194.195080608 5983194.195080608 9112363.832988746 0 0 0 0 0 111400052.77476 5876980.802090416 5876980.802090416 8921614.754000362 0 0 0 0 0 111075443.8238984 5772076.821578232 5772076.821578232 8736171.853211742 0 0 0 0 0 110764379.5668083 5668667.008767819 5668667.008767819 8556123.535424273 0 0 0 0 0 110465907.4131481 5567051.61310446 5567051.61310446 8380563.118361562 0 0 0 0 0 110185908.1205228 5368068.830219676 5368068.830219676 7913861.248044875 0 0 0 0 0 109915213.771741 5363208.132139074 5363208.132139074 7527824.420988788 0 0 0 0 0 109911847.6866044 5274244.906023883 5274244.906023883 7756237.404948122 0 0 0 0 0 109693093.3283025 5278444.862645167 5278444.862645167 7316438.521888256 0 0 0 0 0 109489305.4121521 5178774.039043998 5178774.039043998 7032770.071866506 0 0 0 0 0 115174293.3144046 6742999.464301167 6742999.464301167 13299979.13894462 0 0 0 0 0 303569049.3331168 -7613439.482551789 -7613439.482551789 7603529.386457753 0 0 0 0 0 276547301.2375097 -6634479.92345454 -6634479.92345454 11590832.50390239 0 0 0 0 0 256767509.1978255 -12239428.70924268 -12239428.70924268 21405719.60524085 0 0 0 0 0 264512551.2633682 -11097517.60969163 -11097517.60969163 14895771.85186045 0 0 0 0 0 234533690.8810635 -8850239.406123117 -8850239.406123117 25617326.62355639 0 0 0 0 0 220814755.1636743 -8015938.196487516 -8015938.196487516 28454400.00416746 0 0 0 0 0 211587583.3049371 -10333300.81408306 -10333300.81408306 29446988.98787318 0 0 0 0 0 202891813.4606017 -7481233.302697138 -7481233.302697138 31842492.42023676 0 0 0 0 0 186914151.6291595 -7237210.567264068 -7237210.567264068 33496663.20428442 0 0 0 0 0 193112380.0865199 -5556822.75681197 -5556822.75681197 33318893.1549614 0 0 0 0 0 167553413.2241244 -981771.7999595975 -981771.7999595975 34027559.98176838 0 0 0 0 0 179248295.0702123 -5365333.580835904 -5365333.580835904 34256051.28999334 0 0 0 0 0 172508057.1781697 -3737093.474483451 -3737093.474483451 34630580.81313352 0 0 0 0 0 162246097.877455 249831.8266433174 249831.8266433174 33845728.47073873 0 0 0 0 0 157540207.6777242 1296963.796824003 1296963.796824003 33499518.91215312 0 0 0 0 0 153344587.7326257 2188883.283734723 2188883.283734723 33029217.10579082 0 0 0 0 0 149594168.4332907 2943615.295335531 2943615.295335531 32462091.56314886 0 0 0 0 0 146229997.1016359 3581689.555575362 3581689.555575362 31820273.28533429 0 0 0 0 0 143201968.510606 4120060.258053389 4120060.258053389 31127554.34583764 0 0 0 0 0 140467598.890417 4573357.462809318 4573357.462809318 30403056.22809989 0 0 0 0 0 137989473.1381055 4951976.515953775 4951976.515953775 29657049.10130041 0 0 0 0 0 136439946.148925 4313181.212580658 4313181.212580658 28866169.70327057 0 0 0 0 0 134956591.544881 5732836.39864173 5732836.39864173 27528038.67137353 0 0 0 0 0 133009771.6761037 5980848.790224914 5980848.790224914 26791879.31807707 0 0 0 0 0 131224846.4646295 6178759.701174954 6178759.701174954 26062227.33085496 0 0 0 0 0 129584412.705672 6333176.309314688 6333176.309314688 25342223.04049405 0 0 0 0 0 127660165.8560783 6811155.146333737 6811155.146333737 23339109.2502529 0 0 0 0 0 128515421.8104648 5808152.966393902 5808152.966393902 24469839.16494977 0 0 0 0 0 126322429.8386384 6882622.808886074 6882622.808886074 22691525.22077527 0 0 0 0 0 125078023.9856493 6924601.640255827 6924601.640255827 22055740.94806339 0 0 0 0 0 123924823.6194744 6943255.458951815 6943255.458951815 21429702.29401756 0 0 0 0 0 122853128.4370113 6944416.671058603 6944416.671058603 20826284.54541125 0 0 0 0 0 121854091.6965504 6928696.610825687 6928696.610825687 20240628.68012297 0 0 0 0 0 120921479.8936168 6898761.024000628 6898761.024000628 19672633.45718154 0 0 0 0 0 120254467.0414255 6507655.850019118 6507655.850019118 18882233.89025982 0 0 0 0 0 119920821.5347762 7080888.790964293 7080888.790964293 18067560.59420359 0 0 0 0 0 119124823.7074091 7019239.100817277 7019239.100817277 17573459.40099486 0 0 0 0 0 118376584.4707201 6949228.490137565 6949228.490137565 17095681.21059772 0 0 0 0 0 117672494.2973649 6872481.421266268 6872481.421266268 16633778.77305023 0 0 0 0 0 117009781.0980403 6789990.64600042 6789990.64600042 16188712.29932851 0 0 0 0 0 116382377.5420343 6702713.955984666 6702713.955984666 15765556.7335117 0 0 0 0 0 115893487.4545088 6387026.810806585 6387026.810806585 15073127.56325037 0 0 0 0 0 115751097.1417223 6746567.977929387 6746567.977929387 14503700.61212653 0 0 0 0 0 115198571.6424754 6644332.879540083 6644332.879540083 14125983.19757405 0 0 0 0 0 114728183.3007649 6443045.20406296 6443045.20406296 12622214.36721367 0 0 0 0 0 114233057.8660671 6348505.530274995 6348505.530274995 12321467.10811239 0 0 0 0 0 113745174.4873739 6311197.120615746 6311197.120615746 11257598.79978623 0 0 0 0 0 114156820.5589081 6593500.978416852 6593500.978416852 11903005.19859975 0 0 0 0 0 113305171.2026403 6212817.068203395 6212817.068203395 10999464.5768902 0 0 0 0 0 112885873.8198208 6113702.627951155 6113702.627951155 10747618.61693037 0 0 0 0 0 112486136.7183265 6014461.585584315 6014461.585584315 10503432.06775259 0 0 0 0 0 112105014.0465192 5915299.999773057 5915299.999773057 10266716.70508703 0 0 0 0 0 111749869.3271854 5845204.642246796 5845204.642246796 9393424.029040607 0 0 0 0 0 112086182.8223924 6080745.751722739 6080745.751722739 9940681.916495981 0 0 0 0 0 111405356.5877261 5746160.69886046 5746160.69886046 9193293.416940678 0 0 0 0 0 111075686.4535871 5647866.674312736 5647866.674312736 8999015.315323438 0 0 0 0 0 110760009.4428681 5550556.11532171 5550556.11532171 8810788.355229845 0 0 0 0 0 110457628.9907361 5454417.233238564 5454417.233238564 8627912.168143824 0 0 0 0 0 110169137.718838 5359792.190954367 5359792.190954367 8450211.550344413 0 0 0 0 0 110180207.6230198 5466536.706746892 5466536.706746892 8212399.514471973 0 0 0 0 0 109642916.712737 5188660.586026097 5188660.586026097 7604237.764831332 0 0 0 0 0 109901234.2825937 5368134.304228052 5368134.304228052 8038009.065444476 0 0 0 0 0 109413853.1912908 5107513.532483702 5107513.532483702 7479907.690705297 0 0 0 0 0 109219919.6187457 5038442.728558053 5038442.728558053 7297590.941883183 0 0 0 0 0 114753922.2680646 6349107.441207406 6349107.441207406 13465395.21613838 0 0 0 0 0 280046459.241317 -485513.4230794034 -485513.4230794034 5317521.347122466 0 0 0 0 0 275634394.3075871 -6164392.36417364 -6164392.36417364 11282639.94254806 0 0 0 0 0 242001234.3622319 -9808933.098849747 -9808933.098849747 17917396.24990699 0 0 0 0 0 255502585.0899788 -5844318.34997708 -5844318.34997708 18583184.37820486 0 0 0 0 0 228434684.6207491 -8557684.912461698 -8557684.912461698 23843261.69703448 0 0 0 0 0 216336232.7953406 -7645882.082009627 -7645882.082009627 27223436.82271123 0 0 0 0 0 208181899.582569 -6304609.368296878 -6304609.368296878 30999406.28641156 0 0 0 0 0 200358590.5542714 -8307386.801196137 -8307386.801196137 31793088.90167872 0 0 0 0 0 184576319.4967657 -3883882.314474016 -3883882.314474016 34240352.95450004 0 0 0 0 0 190887191.4187014 -6576116.991884578 -6576116.991884578 33478381.95956606 0 0 0 0 0 166558188.4056395 -2322228.159393359 -2322228.159393359 34699042.4526855 0 0 0 0 0 177141679.39072 -2398684.538150817 -2398684.538150817 34766329.04277919 0 0 0 0 0 170621489.4566511 -1117815.200604097 -1117815.200604097 34947612.01426155 0 0 0 0 0 161300579.798927 -1101320.815108533 -1101320.815108533 34535014.71522551 0 0 0 0 0 156634475.4074793 -47967.09934537762 -47967.09934537762 34193018.10930527 0 0 0 0 0 152486837.2006649 856470.5045252142 856470.5045252142 33715304.34280185 0 0 0 0 0 148775966.355932 1636951.42397094 1636951.42397094 33139280.32997146 0 0 0 0 0 145442989.1512333 2308143.173063092 2308143.173063092 32489875.78646659 0 0 0 0 0 142445017.2399451 2884443.668929084 2884443.668929084 31783184.82222202 0 0 0 0 0 139735224.1341621 3377899.132987721 3377899.132987721 31038323.52950166 0 0 0 0 0 137279810.9132423 3797972.600659729 3797972.600659729 30270461.04311786 0 0 0 0 0 135737092.175936 5265965.815276406 5265965.815276406 28899107.45446848 0 0 0 0 0 134318673.201442 4662534.420061354 4662534.420061354 28102457.11184123 0 0 0 0 0 132381250.3538842 4953235.355742767 4953235.355742767 27339955.92017243 0 0 0 0 0 130606814.7624521 5192792.169464205 5192792.169464205 26583688.89656315 0 0 0 0 0 128978479.848882 5388114.091479951 5388114.091479951 25838563.71809385 0 0 0 0 0 127076945.1806949 5947405.549769545 5947405.549769545 23772775.81351177 0 0 0 0 0 128074400.7249671 6450879.735995601 6450879.735995601 24638777.21716991 0 0 0 0 0 125745770.5296663 6053400.129706294 6053400.129706294 23100573.94885362 0 0 0 0 0 124515388.4461924 6132317.025846862 6132317.025846862 22446234.0018223 0 0 0 0 0 123374420.6985414 6187573.784057781 6187573.784057781 21811181.71278322 0 0 0 0 0 122314791.6142059 6221143.633753926 6221143.633753926 21188534.93594528 0 0 0 0 0 121328367.5009999 6236468.790023832 6236468.790023832 20584974.47462457 0 0 0 0 0 120408342.2780894 6236148.221020465 6236148.221020465 20000679.66444612 0 0 0 0 0 120048945.4251541 6856927.259373652 6856927.259373652 19122860.32092546 0 0 0 0 0 119418596.7780813 6482098.901165248 6482098.901165248 18355532.35680618 0 0 0 0 0 118634839.4542844 6445366.077099839 6445366.077099839 17846250.11708539 0 0 0 0 0 117899023.8981704 6399368.402802236 6399368.402802236 17354678.5688816 0 0 0 0 0 117207440.1131606 6345490.856377061 6345490.856377061 16880309.01239478 0 0 0 0 0 116556092.7487171 6284504.914714975 6284504.914714975 16421810.02560172 0 0 0 0 0 115943421.607751 6217627.116237421 6217627.116237421 15978069.15207319 0 0 0 0 0 115787094.756293 6609829.124403678 6609829.124403678 15355705.16762019 0 0 0 0 0 115321477.2009626 6305578.784489046 6305578.784489046 14682867.77902489 0 0 0 0 0 114779560.2574248 6224070.139549801 6224070.139549801 14310939.54287678 0 0 0 0 0 114661076.1586928 6638496.938468012 6638496.938468012 12978377.20686151 0 0 0 0 0 114170377.6244243 6531113.362530448 6531113.362530448 12664998.95063 0 0 0 0 0 113699511.453459 6483778.618124872 6483778.618124872 11620550.61336854 0 0 0 0 0 113760399.0589485 6251895.962224805 6251895.962224805 12027481.89533553 0 0 0 0 0 113263467.3023248 6374362.491540904 6374362.491540904 11347423.45111046 0 0 0 0 0 112848754.0225829 6265687.895466889 6265687.895466889 11083124.77279706 0 0 0 0 0 112453074.1139144 6157370.672373628 6157370.672373628 10826715.85562495 0 0 0 0 0 112075444.8931422 6049938.383153483 6049938.383153483 10578438.42299911 0 0 0 0 0 111728833.7023102 5973387.197846745 5973387.197846745 9722307.885344403 0 0 0 0 0 111741132.5684009 5816551.496126886 5816551.496126886 10037304.0949442 0 0 0 0 0 111387005.7343439 5867202.854957229 5867202.854957229 9510696.540684389 0 0 0 0 0 111059638.5010113 5762311.522176726 5762311.522176726 9305617.220616408 0 0 0 0 0 110746164.7581739 5658927.235245873 5658927.235245873 9106613.444347523 0 0 0 0 0 110446067.9646098 5556999.193123621 5556999.193123621 8913444.565388799 0 0 0 0 0 110157181.3653339 5458735.409527941 5458735.409527941 8722928.556156041 0 0 0 0 0 109890103.2270963 5269751.943770166 5269751.943770166 8280915.998659711 0 0 0 0 0 109626596.3512515 5266431.10923119 5266431.10923119 7866335.008682886 0 0 0 0 0 109658200.1461414 5193237.673962123 5193237.673962123 8121070.885492423 0 0 0 0 0 109403007.1020773 5173542.9029801 5173542.9029801 7518173.614006536 0 0 0 0 0 114678357.2551627 6544007.990356359 6544007.990356359 13768342.88106661 0 0 0 0 0 264155398.7988498 -802805.0743545189 -802805.0743545189 12824066.17536482 0 0 0 0 0 241834637.6962509 -5222053.762499304 -5222053.762499304 23908006.38957384 0 0 0 0 0 255456498.8325513 -5375929.730955985 -5375929.730955985 18447526.73312364 0 0 0 0 0 228742345.7150013 -5357971.102420038 -5357971.102420038 28516813.36655965 0 0 0 0 0 213712365.4879462 -4451579.350633142 -4451579.350633142 29950665.84120275 0 0 0 0 0 207189276.1257274 -7020850.040358886 -7020850.040358886 31105319.31968602 0 0 0 0 0 197959122.8470578 -4616543.034966365 -4616543.034966365 33362066.65278863 0 0 0 0 0 182702974.3251919 -5030439.977808387 -5030439.977808387 34564222.92948864 0 0 0 0 0 188751419.0944214 -3376095.103989904 -3376095.103989904 34540480.07203981 0 0 0 0 0 164874742.2990111 -6713.891073845569 -6713.891073845569 34891151.22928922 0 0 0 0 0 175488174.1997064 -3646183.646861851 -3646183.646861851 35198472.04564063 0 0 0 0 0 169186646.3127756 -2431307.508023331 -2431307.508023331 35493581.95885474 0 0 0 0 0 159795252.9447522 951425.7761712071 951425.7761712071 34636859.43049575 0 0 0 0 0 155286478.6444958 1777741.387241052 1777741.387241052 34232872.55549714 0 0 0 0 0 151273866.2962721 2487031.733716187 2487031.733716187 33712044.03768966 0 0 0 0 0 147678768.3872167 3094503.223153163 3094503.223153163 33101291.9115557 0 0 0 0 0 144454569.8837006 3613036.689356435 3613036.689356435 32419620.98047782 0 0 0 0 0 141550730.6275648 4057913.777417883 4057913.777417883 31698586.70560224 0 0 0 0 0 138926391.6330595 4434937.645059345 4434937.645059345 30948393.32850851 0 0 0 0 0 136547461.2983274 4751960.671366627 4751960.671366627 30178475.62653345 0 0 0 0 0 135050086.4370136 4154086.456013557 4154086.456013557 29489649.70200679 0 0 0 0 0 133684048.5820263 5524457.905974234 5524457.905974234 28137466.99196959 0 0 0 0 0 131807433.103644 5734799.757498742 5734799.757498742 27378772.35833283 0 0 0 0 0 130087254.1360729 5902851.264522021 5902851.264522021 26627447.76992968 0 0 0 0 0 128508003.0284463 6034167.678259846 6034167.678259846 25890101.26277932 0 0 0 0 0 126679169.1534802 6536128.20354872 6536128.20354872 23956090.67815228 0 0 0 0 0 127481658.5333258 5542813.061870076 5542813.061870076 25104070.72780323 0 0 0 0 0 125387115.2105906 6591601.574045021 6591601.574045021 23278255.04349599 0 0 0 0 0 124186767.5203959 6623316.923477582 6623316.923477582 22616606.65532798 0 0 0 0 0 123075826.9173734 6637169.502952722 6637169.502952722 21973339.93243004 0 0 0 0 0 122043290.2868799 6634315.622115294 6634315.622115294 21349462.48892645 0 0 0 0 0 121081118.6861738 6616857.819338613 6616857.819338613 20744569.5626698 0 0 0 0 0 120182838.3000053 6586970.853188223 6586970.853188223 20158508.73307499 0 0 0 0 0 119548750.3088197 6222410.369703273 6222410.369703273 19435122.19955491 0 0 0 0 0 119231610.4555829 6805002.187860901 6805002.187860901 18591090.77441685 0 0 0 0 0 118464436.6126972 6744426.785809242 6744426.785809242 18077123.26121673 0 0 0 0 0 117743555.3859842 6676558.397920079 6676558.397920079 17580399.42424281 0 0 0 0 0 117065676.5146153 6602524.064052714 6602524.064052714 17100199.51233587 0 0 0 0 0 116427448.9236898 6523557.034692229 6523557.034692229 16637230.81407596 0 0 0 0 0 115825204.9840606 6439402.818702588 6439402.818702588 16197900.90867987 0 0 0 0 0 115364590.1677166 6144330.639837803 6144330.639837803 15551790.61860706 0 0 0 0 0 115220987.9384267 6513540.287767915 6513540.287767915 14953185.04656949 0 0 0 0 0 114690186.092828 6417455.454389321 6417455.454389321 14563950.08602113 0 0 0 0 0 114252025.6287555 6258850.416078146 6258850.416078146 13126831.85506291 0 0 0 0 0 113773119.7843159 6165803.352688495 6165803.352688495 12806725.05987951 0 0 0 0 0 113310288.4441224 6154760.938355706 6154760.938355706 11748792.74202446 0 0 0 0 0 113702709.4527312 6423176.089611407 6423176.089611407 12361635.33665905 0 0 0 0 0 112886785.7888146 6057813.790308584 6057813.790308584 11471293.72918001 0 0 0 0 0 112482154.7690669 5960634.151222209 5960634.151222209 11201852.6715911 0 0 0 0 0 112096940.6719812 5863476.351359149 5863476.351359149 10940831.88901723 0 0 0 0 0 111729488.4512645 5766621.837081561 5766621.837081561 10687943.78816201 0 0 0 0 0 111393427.8506852 5718409.368073693 5718409.368073693 9814985.344630526 0 0 0 0 0 111714727.6840661 5943497.078503544 5943497.078503544 10338043.2589488 0 0 0 0 0 111060871.4545387 5620985.054773874 5620985.054773874 9599481.326064719 0 0 0 0 0 110742771.9434067 5524413.209843853 5524413.209843853 9390646.872254143 0 0 0 0 0 110437987.0156004 5428810.690189661 5428810.690189661 9188296.400689919 0 0 0 0 0 110146220.4639819 5334658.15114926 5334658.15114926 8992413.183050867 0 0 0 0 0 109874019.2301645 5242890.057729634 5242890.057729634 8801587.048850575 0 0 0 0 0 109884313.0228809 5358644.607660852 5358644.607660852 8529973.131450983 0 0 0 0 0 109438192.9073189 5113054.709774015 5113054.709774015 7900291.730446935 0 0 0 0 0 109655882.9342996 5262139.703919288 5262139.703919288 8325427.194285638 0 0 0 0 0 109141739.971659 5019001.313339654 5019001.313339654 7844768.886131264 0 0 0 0 0 114268913.0264911 6139193.084810911 6139193.084810911 13943699.37271408 0 0 0 0 0 237071982.0626553 -5151078.16379088 -5151078.16379088 22553013.22354184 0 0 0 0 0 246100487.0529712 202187.4051673948 202187.4051673948 19858705.2330194 0 0 0 0 0 217420220.7595576 -3348298.592548314 -3348298.592548314 26927268.75692559 0 0 0 0 0 215753725.0325754 -5582271.283991079 -5582271.283991079 30739558.39316615 0 0 0 0 0 202075443.3819419 -3184473.702674098 -3184473.702674098 32408608.42792473 0 0 0 0 0 195036375.6263282 -5616028.373617033 -5616028.373617033 33337257.08908189 0 0 0 0 0 180724296.3539086 -2173471.938639073 -2173471.938639073 35318584.40955623 0 0 0 0 0 185947317.5734325 -4349984.914998041 -4349984.914998041 34567372.4975946 0 0 0 0 0 163576646.8386137 -1345718.185168455 -1345718.185168455 35488966.77077372 0 0 0 0 0 173695443.0889635 -1098116.5040716 -1098116.5040716 35679112.27231993 0 0 0 0 0 167539618.75273 -155024.4915420745 -155024.4915420745 35726772.3077401 0 0 0 0 0 158605657.3045112 -394972.9998037203 -394972.9998037203 35265396.76701126 0 0 0 0 0 154196911.363407 434499.2975367249 434499.2975367249 34871586.16885114 0 0 0 0 0 150262193.8057207 1161331.66845281 1161331.66845281 34355171.16805054 0 0 0 0 0 146739966.3065575 1795418.558147096 1795418.558147096 33744932.70495019 0 0 0 0 0 143580409.608915 2349160.325300713 2349160.325300713 33065674.42504136 0 0 0 0 0 140725810.0289333 2831930.687063296 2831930.687063296 32332306.93700654 0 0 0 0 0 138142524.2106701 3248338.42035977 3248338.42035977 31565829.32652672 0 0 0 0 0 135803675.4672906 3605541.959443618 3605541.959443618 30778378.29392506 0 0 0 0 0 134385577.5439226 5017678.581409575 5017678.581409575 29398996.90301846 0 0 0 0 0 133018673.859121 4454944.490370242 4454944.490370242 28704445.44185225 0 0 0 0 0 131161179.588644 4707165.21008313 4707165.21008313 27921628.86773039 0 0 0 0 0 129460542.8625709 4916287.070703198 4916287.070703198 27146453.45340803 0 0 0 0 0 127899655.6331678 5086004.169600917 5086004.169600917 26380679.77820801 0 0 0 0 0 126096124.7599386 5662974.887851729 5662974.887851729 24385825.74946437 0 0 0 0 0 127052339.2414978 6133797.782181512 6133797.782181512 25169142.39237079 0 0 0 0 0 124813314.1856143 5756479.865106494 5756479.865106494 23698165.96805944 0 0 0 0 0 123632864.2364046 5826771.162038315 5826771.162038315 23022630.55357851 0 0 0 0 0 122536926.9606878 5875040.993476799 5875040.993476799 22361414.11229878 0 0 0 0 0 121518642.672924 5904789.083546938 5904789.083546938 21719165.18698105 0 0 0 0 0 120570638.667708 5918413.501655823 5918413.501655823 21096850.02210581 0 0 0 0 0 119686424.9019527 5918093.10599995 5918093.10599995 20494368.23772423 0 0 0 0 0 119343046.4242198 6546504.908739433 6546504.908739433 19591117.39488388 0 0 0 0 0 118744333.2984715 6197055.275329077 6197055.275329077 18887902.08047074 0 0 0 0 0 117990117.1422781 6161874.818263229 6161874.818263229 18359299.63980686 0 0 0 0 0 117282272.3762833 6118208.023382978 6118208.023382978 17848913.33904247 0 0 0 0 0 116616958.2385246 6067159.078556004 6067159.078556004 17356060.00272945 0 0 0 0 0 115990400.6586204 6009841.64968529 6009841.64968529 16880135.6694322 0 0 0 0 0 115400195.0519342 5947486.005974191 5947486.005974191 16422224.05411898 0 0 0 0 0 115246482.373384 6351037.146397853 6351037.146397853 15771960.51996313 0 0 0 0 0 114810501.2022953 6068393.084462672 6068393.084462672 15151310.11312459 0 0 0 0 0 114288615.1168497 5988494.976341833 5988494.976341833 14754090.84778938 0 0 0 0 0 114181339.5801685 6441033.583153813 6441033.583153813 13430337.6780141 0 0 0 0 0 113708121.7229028 6336540.856594655 6336540.856594655 13097602.21773868 0 0 0 0 0 113262222.6316873 6315291.686366615 6315291.686366615 12060946.45930717 0 0 0 0 0 113317232.2403588 6071135.409633697 6071135.409633697 12496333.99506693 0 0 0 0 0 112842443.0282076 6208820.655821339 6208820.655821339 11772505.4545686 0 0 0 0 0 112442344.563153 6102453.012014946 6102453.012014946 11491683.75199002 0 0 0 0 0 112060960.5389751 5996961.55389438 5996961.55389438 11220401.47671231 0 0 0 0 0 111696946.2679902 5892381.731035771 5892381.731035771 10957825.67703004 0 0 0 0 0 111369926.5257939 5838207.811875251 5838207.811875251 10105332.92137665 0 0 0 0 0 111378674.0450045 5670295.696889888 5670295.696889888 10443057.82138258 0 0 0 0 0 111040104.1376024 5734126.66216848 5734126.66216848 9880291.273350649 0 0 0 0 0 110724337.1318134 5631443.048647321 5631443.048647321 9662679.728657097 0 0 0 0 0 110421530.6585034 5530133.265273789 5530133.265273789 9449727.432944663 0 0 0 0 0 110133536.2208775 5429990.590199175 5429990.590199175 9244656.66394005 0 0 0 0 0 109851995.8355374 5340565.761715014 5340565.761715014 9025694.847076444 0 0 0 0 0 109587764.5455878 5159191.608398941 5159191.608398941 8622967.663252352 0 0 0 0 0 109355694.9321093 5119660.902403656 5119660.902403656 8310642.725960022 0 0 0 0 0 109409834.5145324 5099001.774759814 5099001.774759814 8490038.299820349 0 0 0 0 0 109239254.5383421 5088494.440346167 5088494.440346167 7931785.497328198 0 0 0 0 0 114190037.3935822 6320763.092248737 6320763.092248737 14188551.99833167 0 0 0 0 0 228894081.13379 357720.1313456047 357720.1313456047 25247222.11538317 0 0 0 0 0 224264823.140008 -3658575.713036785 -3658575.713036785 28529089.83200552 0 0 0 0 0 208041742.909059 -1663800.86739856 -1663800.86739856 30614598.9960905 0 0 0 0 0 203640648.2235927 -4426467.831326216 -4426467.831326216 33231902.88913059 0 0 0 0 0 193034082.289662 -2670173.033813682 -2670173.033813682 34538547.43947367 0 0 0 0 0 178276073.2680669 -3299873.908258006 -3299873.908258006 35475340.96282558 0 0 0 0 0 184181144.3528895 -1785138.315730731 -1785138.315730731 35678137.77521688 0 0 0 0 0 162093024.6974107 676046.7337854622 676046.7337854622 35587556.24313738 0 0 0 0 0 171761566.7005091 -2379158.968429996 -2379158.968429996 36019383.40694808 0 0 0 0 0 165858931.4036386 -1468157.227975133 -1468157.227975133 36212930.82110308 0 0 0 0 0 157261784.5339123 1403210.772957536 1403210.772957536 35258360.53386042 0 0 0 0 0 152981427.6531595 2045602.269777508 2045602.269777508 34799273.54954486 0 0 0 0 0 149160390.7866673 2603188.349701907 2603188.349701907 34229453.88082538 0 0 0 0 0 145737343.7124176 3087343.425270355 3087343.425270355 33573651.86271437 0 0 0 0 0 142665791.7384982 3514217.270024128 3514217.270024128 32865105.56224866 0 0 0 0 0 139893842.7153116 3883487.319386779 3883487.319386779 32122549.38212298 0 0 0 0 0 137385969.5356346 4197391.742648855 4197391.742648855 31351349.04177905 0 0 0 0 0 135113213.6097507 4465429.75207475 4465429.75207475 30561968.91119267 0 0 0 0 0 133678888.9162053 3912720.513220008 3912720.513220008 29979713.58338473 0 0 0 0 0 132414826.8032438 5238880.848198813 5238880.848198813 28619144.76159791 0 0 0 0 0 130612294.3439339 5419333.849308036 5419333.849308036 27843177.24370746 0 0 0 0 0 128961481.5914315 5564260.124624141 5564260.124624141 27077455.07199633 0 0 0 0 0 127444293.3826953 5678539.908424924 5678539.908424924 26329474.95310971 0 0 0 0 0 125704223.4492827 6204302.331318269 6204302.331318269 24464441.50078721 0 0 0 0 0 126460323.1075574 5221876.822477342 5221876.822477342 25630987.59009026 0 0 0 0 0 124460422.9479216 6249941.245044948 6249941.245044948 23762769.79096396 0 0 0 0 0 123310222.4338189 6278741.655024818 6278741.655024818 23085153.65562598 0 0 0 0 0 122242125.8046193 6290264.695604806 6290264.695604806 22426411.9682558 0 0 0 0 0 121249215.0907902 6286905.510869174 6286905.510869174 21787100.21547252 0 0 0 0 0 120324138.3532072 6270670.154526034 6270670.154526034 21167362.05382992 0 0 0 0 0 119460589.2700993 6243379.013755942 6243379.013755942 20567138.37385998 0 0 0 0 0 118860221.8506947 5905749.240415766 5905749.240415766 19911484.95480978 0 0 0 0 0 118556005.5616885 6497027.36139502 6497027.36139502 19042836.46120055 0 0 0 0 0 117817800.3941091 6439753.625410315 6439753.625410315 18512754.81358924 0 0 0 0 0 117124508.7597468 6375838.774477017 6375838.774477017 18000585.60413259 0 0 0 0 0 116472217.922744 6306419.597241569 6306419.597241569 17506050.4599123 0 0 0 0 0 115858095.2931469 6232642.053114047 6232642.053114047 17030446.92959202 0 0 0 0 0 115280957.5948461 6155485.901924659 6155485.901924659 16572129.08917759 0 0 0 0 0 114844579.3551128 5880049.661213446 5880049.661213446 15981743.10325949 0 0 0 0 0 114705916.4452558 6260417.742737724 6260417.742737724 15353315.26360191 0 0 0 0 0 114194183.9755744 6169435.461036902 6169435.461036902 14951736.54393445 0 0 0 0 0 113785345.5671035 6051717.833900137 6051717.833900137 13585993.80624772 0 0 0 0 0 113323380.3144805 5961378.181913177 5961378.181913177 13248995.82235359 0 0 0 0 0 112884851.9982271 5976756.3830623 5976756.3830623 12197838.80885738 0 0 0 0 0 113258407.0708727 6231093.578432855 6231093.578432855 12777938.9522076 0 0 0 0 0 112476262.7793109 5882562.661370952 5882562.661370952 11904341.05964305 0 0 0 0 0 112086702.7578115 5788489.364977608 5788489.364977608 11619591.66667961 0 0 0 0 0 111715605.0368666 5694512.199128653 5694512.199128653 11343030.81964804 0 0 0 0 0 111361883.4980282 5600910.113085605 5600910.113085605 11075426.78627861 0 0 0 0 0 111043449.3651635 5574681.588599239 5574681.588599239 10205935.65668884 0 0 0 0 0 111349373.7826988 5788947.208164597 5788947.208164597 10703790.90697519 0 0 0 0 0 110722692.4301533 5479784.957071406 5479784.957071406 9976283.599686209 0 0 0 0 0 110415555.5042342 5385434.074257748 5385434.074257748 9754132.81104688 0 0 0 0 0 110120826.0438431 5291447.237844442 5291447.237844442 9538790.094281645 0 0 0 0 0 109829624.6198701 5196708.780389914 5196708.780389914 9330616.271519804 0 0 0 0 0 109571833.7256262 5113461.787940286 5113461.787940286 9151639.736269386 0 0 0 0 0 109580668.1139493 5232453.011779898 5232453.011779898 8782350.083551986 0 0 0 0 0 109357911.2721432 5119595.176206957 5119595.176206957 8311154.318842795 0 0 0 0 0 109045127.9863329 4985328.03861116 4985328.03861116 8339119.708657796 0 0 0 0 0 113794809.9263418 5907665.189970451 5907665.189970451 14372898.39629974 0 0 0 0 0 214883337.8325242 259715.0624867829 259715.0624867829 28820978.95444007 0 0 0 0 0 210897121.6383226 -2749549.037416868 -2749549.037416868 31559267.88003967 0 0 0 0 0 196521175.1720006 -1255993.784388513 -1255993.784388513 33108043.10645771 0 0 0 0 0 188929868.4915711 -3072724.787787721 -3072724.787787721 34338650.95795488 0 0 0 0 0 176664282.9036008 -902170.5913060443 -902170.5913060443 36213468.04713158 0 0 0 0 0 181410591.3466378 -2770284.560725681 -2770284.560725681 35609911.05569305 0 0 0 0 0 160545155.1963805 -648404.4961510593 -648404.4961510593 36125780.8009703 0 0 0 0 0 170211427.7408043 -184295.6019608273 -184295.6019608273 36384397.10510634 0 0 0 0 0 164399740.4653437 483293.7368995455 483293.7368995455 36337658.48899684 0 0 0 0 0 155911768.0437959 62439.90294379844 62439.90294379844 35839374.45150439 0 0 0 0 0 151754304.3664648 714798.6816567748 714798.6816567748 35395841.92828777 0 0 0 0 0 148041518.7852341 1290792.150351585 1290792.150351585 34840758.41352867 0 0 0 0 0 144731364.8538026 1805473.489353048 1805473.489353048 34197174.98807151 0 0 0 0 0 141737043.2334657 2267806.809199821 2267806.809199821 33489051.7197357 0 0 0 0 0 139023708.3039862 2673217.366382842 2673217.366382842 32735367.36424715 0 0 0 0 0 136574229.009879 3024509.049622085 3024509.049622085 31952734.00254851 0 0 0 0 0 134362002.1796014 3332530.041943436 3332530.041943436 31150616.15827156 0 0 0 0 0 133047275.9679441 4695912.089905187 4695912.089905187 29770401.10555328 0 0 0 0 0 131736261.4742392 4175357.937546726 4175357.937546726 29178640.99223016 0 0 0 0 0 129961937.7488388 4396695.699236833 4396695.699236833 28380997.85675836 0 0 0 0 0 128335571.1130004 4581844.966828631 4581844.966828631 27591100.5590358 0 0 0 0 0 126842093.9303429 4731421.597492345 4731421.597492345 26808961.96389479 0 0 0 0 0 125131430.670513 5330270.488666653 5330270.488666653 24898723.492424 0 0 0 0 0 126044664.5345089 5765581.523709392 5765581.523709392 25591253.64677509 0 0 0 0 0 123904451.4235443 5416249.440694563 5416249.440694563 24193403.70890234 0 0 0 0 0 122770989.6042036 5480330.343471273 5480330.343471273 23497530.15744339 0 0 0 0 0 121720098.8548971 5525686.020396715 5525686.020396715 22820295.55153053 0 0 0 0 0 120743085.6424201 5554699.957163991 5554699.957163991 22163097.8815001 0 0 0 0 0 119833323.2424787 5569327.392434459 5569327.392434459 21526268.42854289 0 0 0 0 0 118984693.2818479 5571464.295141415 5571464.295141415 20909750.03741851 0 0 0 0 0 118653147.2585454 6206633.673676436 6206633.673676436 19986377.12327929 0 0 0 0 0 118087092.7394534 5883011.332964288 5883011.332964288 19347697.1320184 0 0 0 0 0 117362496.7795577 5851316.483310034 5851316.483310034 18803159.0239522 0 0 0 0 0 116682438.9740836 5811906.785654394 5811906.785654394 18277467.92060527 0 0 0 0 0 116043492.6874769 5765928.87648287 5765928.87648287 17770278.74123074 0 0 0 0 0 115442006.0748069 5714484.356318132 5714484.356318132 17280686.62759656 0 0 0 0 0 114875336.1767066 5658315.165011537 5658315.165011537 16808636.60505157 0 0 0 0 0 114727217.3289829 6073410.991084575 6073410.991084575 16132973.17524672 0 0 0 0 0 114312167.1698215 5807831.3594219 5807831.3594219 15556813.79711875 0 0 0 0 0 113809209.3141223 5733445.113502922 5733445.113502922 15145939.17154471 0 0 0 0 0 113711134.6209951 6221728.590478623 6221728.590478623 13834042.66117363 0 0 0 0 0 113254864.6605735 6120459.077424679 6120459.077424679 13488529.72703082 0 0 0 0 0 112833505.080649 6126863.248671832 6126863.248671832 12463730.29252719 0 0 0 0 0 112885325.0822242 5870853.336171572 5870853.336171572 12921214.51520978 0 0 0 0 0 112428893.0591243 6023564.740587462 6023564.740587462 12158878.86671132 0 0 0 0 0 112043576.5305082 5920969.991914887 5920969.991914887 11864334.07733817 0 0 0 0 0 111676394.1323946 5819177.537807714 5819177.537807714 11579503.48106564 0 0 0 0 0 111326078.3021243 5718519.52612457 5718519.52612457 11304173.0811448 0 0 0 0 0 111017132.6616108 5686713.611911959 5686713.611911959 10458225.796728 0 0 0 0 0 111024016.947163 5507990.65195538 5507990.65195538 10816552.56693084 0 0 0 0 0 110699297.9368351 5585659.990706342 5585659.990706342 10221960.06333022 0 0 0 0 0 110394924.950779 5485636.981434288 5485636.981434288 9993978.191662721 0 0 0 0 0 110100244.0005877 5387843.065084206 5387843.065084206 9770324.979321562 0 0 0 0 0 109811708.8715692 5294006.070884151 5294006.070884151 9542018.212610891 0 0 0 0 0 109554667.3904725 5173503.020171803 5173503.020171803 9177106.938251715 0 0 0 0 0 109339438.7316653 5018901.382342066 5018901.382342066 8878119.150354434 0 0 0 0 0 109206562.5984019 5060395.698203547 5060395.698203547 8773788.158797717 0 0 0 0 0 109082832.4102289 5021475.468539736 5021475.468539736 8385541.210217165 0 0 0 0 0 113712856.1067567 6077000.204518653 6077000.204518653 14561699.3716001 0 0 0 0 0 204028864.4373615 371617.1706301565 371617.1706301565 31813442.81220178 0 0 0 0 0 195431367.8196185 -3194556.437692346 -3194556.437692346 34670591.42555399 0 0 0 0 0 200199841.5956873 -2534596.564787949 -2534596.564787949 34128730.01601507 0 0 0 0 0 187483359.3299957 -1345469.574927435 -1345469.574927435 35697985.38889281 0 0 0 0 0 174534291.4766411 -2200527.924573365 -2200527.924573365 36358663.41075655 0 0 0 0 0 179299815.1695102 -610755.0954217684 -610755.0954217684 36394218.90429363 0 0 0 0 0 159240208.7415955 1075953.838997236 1075953.838997236 36107662.72431221 0 0 0 0 0 168263128.8940197 -1517954.53063045 -1517954.53063045 36813861.67215802 0 0 0 0 0 162593669.0537012 -858872.2688227006 -858872.2688227006 36833281.93771739 0 0 0 0 0 154710954.5226254 1634610.80534529 1634610.80534529 35707914.48203483 0 0 0 0 0 150659984.8684121 2123818.921776033 2123818.921776033 35199894.02434078 0 0 0 0 0 147039028.4593762 2551666.089898616 2551666.089898616 34568906.40122622 0 0 0 0 0 143806567.7475536 2951570.525872163 2951570.525872163 33888549.76944272 0 0 0 0 0 140888185.9292908 3307188.367370358 3307188.367370358 33164469.806484 0 0 0 0 0 138248867.2467158 3610905.472191647 3610905.472191647 32403007.54470642 0 0 0 0 0 135864100.2537391 3872822.383656874 3872822.383656874 31610638.23234145 0 0 0 0 0 133705121.5512604 4112477.875961264 4112477.875961264 30820162.8531072 0 0 0 0 0 132330974.4611771 3603022.793327034 3603022.793327034 30340376.52320359 0 0 0 0 0 131160038.6537786 4886608.496961925 4886608.496961925 28976853.1215898 0 0 0 0 0 129435349.8030502 5044493.498327505 5044493.498327505 28188835.61295833 0 0 0 0 0 127855564.0584636 5173467.380972108 5173467.380972108 27417331.8373469 0 0 0 0 0 126397563.4654207 5275928.354616064 5275928.354616064 26663478.93566794 0 0 0 0 0 124749370.2128114 5826379.21446269 5826379.21446269 24864019.9089159 0 0 0 0 0 125459721.3978269 4854460.555920907 4854460.555920907 26052066.69632833 0 0 0 0 0 123556618.7239009 5869909.790178995 5869909.790178995 24153103.25043972 0 0 0 0 0 122452671.9004979 5896978.971173122 5896978.971173122 23462687.45737658 0 0 0 0 0 121427860.7305305 5909254.244546065 5909254.244546065 22792600.34567405 0 0 0 0 0 120474789.3569592 5908253.519661353 5908253.519661353 22142293.65930399 0 0 0 0 0 119586772.9437368 5895750.996350949 5895750.996350949 21511863.30291747 0 0 0 0 0 118757837.9065067 5873308.557189118 5873308.557189118 20901451.71204333 0 0 0 0 0 118191680.5872663 5562697.548255493 5562697.548255493 20313283.9144696 0 0 0 0 0 117896932.4950232 6161676.650541276 6161676.650541276 19424844.19266126 0 0 0 0 0 117187710.8238224 6109676.070916223 6109676.070916223 18882170.66607502 0 0 0 0 0 116521644.5470192 6051707.599758959 6051707.599758959 18358248.18177595 0 0 0 0 0 115895073.1500819 5988816.853905603 5988816.853905603 17851198.58330115 0 0 0 0 0 115305711.32104 5922137.639051255 5922137.639051255 17361887.40954874 0 0 0 0 0 114749941.6201338 5851497.82380321 5851497.82380321 16891682.64464888 0 0 0 0 0 114340178.5526601 5596286.031131005 5596286.031131005 16349808.84767849 0 0 0 0 0 114206027.1972061 5989281.97046936 5989281.97046936 15705045.96463149 0 0 0 0 0 113711849.0913912 5902990.061189274 5902990.061189274 15291646.77838328 0 0 0 0 0 113330209.7963573 5824306.060691525 5824306.060691525 13998775.57174566 0 0 0 0 0 112885542.5582287 5738552.415533585 5738552.415533585 13645612.36037141 0 0 0 0 0 112469267.9946353 5779725.293751572 5779725.293751572 12607305.62530802 0 0 0 0 0 112823206.5849331 6019843.076891379 6019843.076891379 13154183.57111005 0 0 0 0 0 112075525.2972721 5689541.447339301 5689541.447339301 12300521.53534947 0 0 0 0 0 111700363.5913116 5599371.831393632 5599371.831393632 12000471.82064528 0 0 0 0 0 111343604.6762646 5509431.021576181 5509431.021576181 11710126.6910512 0 0 0 0 0 111003148.7868204 5420049.388046524 5420049.388046524 11429442.6063532 0 0 0 0 0 110701059.3239652 5415868.506943178 5415868.506943178 10566249.2811389 0 0 0 0 0 110991409.7245259 5619024.905658356 5619024.905658356 11037983.84596027 0 0 0 0 0 110392169.944012 5324441.015719772 5324441.015719772 10323884.90211743 0 0 0 0 0 110097355.6939911 5234496.047059049 5234496.047059049 10091384.13598687 0 0 0 0 0 109821148.2907703 5146477.841912847 5146477.841912847 9864627.063836582 0 0 0 0 0 109557272.5596649 5058697.225087799 5058697.225087799 9628944.428246422 0 0 0 0 0 109326932.5282378 5031478.526799031 5031478.526799031 9473257.841340123 0 0 0 0 0 109278722.5879983 5086636.627338995 5086636.627338995 9159726.68119598 0 0 0 0 0 109093362.8185589 4961113.066669779 4961113.066669779 8732583.996372752 0 0 0 0 0 108916499.8357756 4906830.872866586 4906830.872866586 8731612.833540201 0 0 0 0 0 113333854.100304 5657822.194404789 5657822.194404789 14752818.90714362 0 0 0 0 0 189622756.6406844 -898342.4843657636 -898342.4843657636 34818968.1029124 0 0 0 0 0 194112882.4570636 573404.6665148711 573404.6665148711 34083627.18883108 0 0 0 0 0 185364900.1441859 -2216961.550477259 -2216961.550477259 35435992.68994483 0 0 0 0 0 172564083.8028585 -55359.16019944956 -55359.16019944956 36760534.66376939 0 0 0 0 0 177767936.6042122 -1951989.662445021 -1951989.662445021 36427155.59609867 0 0 0 0 0 157616501.0659374 -228393.5064794637 -228393.5064794637 36572010.51435712 0 0 0 0 0 166736967.1007436 397920.8794878279 397920.8794878279 36906949.18951432 0 0 0 0 0 161231692.9215845 739690.7804668806 739690.7804668806 36619551.93404951 0 0 0 0 0 153239515.923384 314053.2409343492 314053.2409343492 36246217.52490199 0 0 0 0 0 149316449.2272024 811577.8284360655 811577.8284360655 35760853.91871589 0 0 0 0 0 145894183.5857943 1261799.696616682 1261799.696616682 35165236.74669676 0 0 0 0 0 142755880.6076173 1694484.742179411 1694484.742179411 34490108.2209693 0 0 0 0 0 139918523.0686677 2075650.965802185 2075650.965802185 33768010.09442439 0 0 0 0 0 137364166.628306 2418702.390836168 2418702.390836168 32998649.44440969 0 0 0 0 0 135074302.5794762 2725092.341358938 2725092.341358938 32201086.59277494 0 0 0 0 0 132941538.7895622 2997379.405644433 2997379.405644433 31393249.66848968 0 0 0 0 0 131730413.4694745 4309696.012430783 4309696.012430783 30016329.42967263 0 0 0 0 0 130482877.5212301 3833941.354340503 3833941.354340503 29529194.37107476 0 0 0 0 0 128791873.8209183 4032253.250957594 4032253.250957594 28721921.62760942 0 0 0 0 0 127243048.3488953 4198171.989710998 4198171.989710998 27919252.38534118 0 0 0 0 0 125816038.0740987 4334735.62235146 4334735.62235146 27128384.29024521 0 0 0 0 0 124192232.6849621 4957301.54042509 4957301.54042509 25311698.04523104 0 0 0 0 0 125056962.0151533 5352223.799314898 5352223.799314898 25901980.65937233 0 0 0 0 0 123019242.8077672 5038209.231536256 5038209.231536256 24586727.58760351 0 0 0 0 0 121934259.958082 5100434.829998717 5100434.829998717 23879280.42287746 0 0 0 0 0 120927491.5419854 5145902.207435736 5145902.207435736 23190998.86599493 0 0 0 0 0 119991322.0722889 5176719.959292558 5176719.959292558 22523105.39328668 0 0 0 0 0 119119307.7052813 5194672.383434476 5194672.383434476 21875994.67311599 0 0 0 0 0 118305690.5892666 5201314.117158355 5201314.117158355 21249465.67323708 0 0 0 0 0 117982737.16344 5842226.98141276 5842226.98141276 20310828.93713813 0 0 0 0 0 117449517.1828635 5544502.719263427 5544502.719263427 19736788.86961243 0 0 0 0 0 116753958.2508405 5518149.930261515 5518149.930261515 19180055.53958514 0 0 0 0 0 116101394.4649462 5484761.49786274 5484761.49786274 18642509.85303345 0 0 0 0 0 115488020.1798829 5445401.443400151 5445401.443400151 18123915.75143642 0 0 0 0 0 114910171.6210925 5400932.226667233 5400932.226667233 17622694.20398341 0 0 0 0 0 114367061.8016827 5351748.201156135 5351748.201156135 17137973.18892279 0 0 0 0 0 114219067.8809917 5777883.817263452 5777883.817263452 16449783.00310669 0 0 0 0 0 113826495.1008992 5529411.434966151 5529411.434966151 15913525.10677209 0 0 0 0 0 113342142.3517063 5460994.95599154 5460994.95599154 15492940.77941709 0 0 0 0 0 113251841.7987779 5982857.777774228 5982857.777774228 14196700.41792434 0 0 0 0 0 112813904.8489982 5886992.216970797 5886992.216970797 13839696.53082067 0 0 0 0 0 112413523.9033304 5919905.212886617 5919905.212886617 12826064.48611222 0 0 0 0 0 112463647.79813 5651659.098058736 5651659.098058736 13306268.96715637 0 0 0 0 0 112024085.7623068 5821071.747585783 5821071.747585783 12507736.31764922 0 0 0 0 0 111653555.8911555 5722967.565781586 5722967.565781586 12200729.86200053 0 0 0 0 0 111300653.0646592 5626079.93357658 5626079.93357658 11904529.75086832 0 0 0 0 0 110963749.8657202 5530183.843505278 5530183.843505278 11618042.56357317 0 0 0 0 0 110671634.7844274 5520685.906294897 5520685.906294897 10781125.05554175 0 0 0 0 0 110677902.2852382 5331331.812575961 5331331.812575961 11158089.06539387 0 0 0 0 0 110365306.3543262 5423528.739448784 5423528.739448784 10533184.42963455 0 0 0 0 0 110073339.608302 5327178.807981323 5327178.807981323 10290747.41930178 0 0 0 0 0 109795464.3187105 5231044.540527198 5231044.540527198 10057398.4366676 0 0 0 0 0 109506775.9813242 5132228.173605597 5132228.173605597 9845559.65566951 0 0 0 0 0 109355046.5792441 5039123.081523652 5039123.081523652 9485370.286732154 0 0 0 0 0 109220445.4428605 5010481.52777206 5010481.52777206 9112235.526519159 0 0 0 0 0 109077815.210658 5022720.975993613 5022720.975993613 8952918.409946445 0 0 0 0 0 113248310.4928559 5815877.736565168 5815877.736565168 14889329.00022021 0 0 0 0 0 190085044.5872938 -1818547.443863043 -1818547.443863043 35017184.5804978 0 0 0 0 0 181965957.830041 -318570.5429245706 -318570.5429245706 36112612.08142634 0 0 0 0 0 171031287.7518534 -1550638.594306808 -1550638.594306808 36938156.06037311 0 0 0 0 0 175132117.1393372 167008.2897185565 167008.2897185565 36848423.18935008 0 0 0 0 0 156378961.0780476 1260579.843792378 1260579.843792378 36461994.2745841 0 0 0 0 0 164294904.2247676 -803094.3599937774 -803094.3599937774 37317935.43832231 0 0 0 0 0 159346102.8599346 -319561.2760194593 -319561.2760194593 37015785.27711729 0 0 0 0 0 152166334.6718593 1680197.70328419 1680197.70328419 36002869.35175659 0 0 0 0 0 148340251.5625187 2009606.224037496 2009606.224037496 35395421.33445404 0 0 0 0 0 144963295.3797478 2383879.171235032 2383879.171235032 34751453.96141827 0 0 0 0 0 141894791.8941024 2719250.977212719 2719250.977212719 34072684.99599992 0 0 0 0 0 139140862.6160368 2998664.882953587 2998664.882953587 33307885.47067551 0 0 0 0 0 136640515.0540271 3244265.2912021 3244265.2912021 32515404.01148751 0 0 0 0 0 134382182.9080575 3498392.506536582 3498392.506536582 31767850.87404782 0 0 0 0 0 132321676.638219 3693607.424331275 3693607.424331275 30950596.56469897 0 0 0 0 0 131022390.3324157 3232775.602806374 3232775.602806374 30577681.92195769 0 0 0 0 0 129930465.291682 4478940.439924032 4478940.439924032 29214902.30007192 0 0 0 0 0 128284766.4625927 4620822.777859164 4620822.777859164 28421769.99617428 0 0 0 0 0 126776102.4182817 4738716.646066436 4738716.646066436 27647606.16880684 0 0 0 0 0 125377703.4943605 4832312.815237328 4832312.815237328 26882533.36894684 0 0 0 0 0 123819947.6400004 5412766.736168296 5412766.736168296 25167661.37417736 0 0 0 0 0 124495689.5215911 4453414.678480706 4453414.678480706 26373199.08771793 0 0 0 0 0 122676941.0971075 5456032.768735137 5456032.768735137 24449889.96820507 0 0 0 0 0 121618997.6048591 5484903.132568293 5484903.132568293 23752913.76902556 0 0 0 0 0 120636922.4086266 5500422.202568955 5500422.202568955 23075627.19101851 0 0 0 0 0 119723370.8323307 5504118.118107801 5504118.118107801 22418424.61458329 0 0 0 0 0 118872033.7067743 5497439.196172713 5497439.196172713 21781289.1616067 0 0 0 0 0 118077268.6167631 5481730.493007096 5481730.493007096 21164330.27079358 0 0 0 0 0 117545289.9625271 5198068.981225495 5198068.981225495 20643443.79429363 0 0 0 0 0 117256900.0255376 5803680.297135998 5803680.297135998 19739778.44696406 0 0 0 0 0 116576403.1068193 5758672.549126722 5758672.549126722 19187599.17190202 0 0 0 0 0 115937396.8972194 5708321.231121479 5708321.231121479 18654098.85025888 0 0 0 0 0 115335801.5763459 5653688.993210624 5653688.993210624 18139393.47197549 0 0 0 0 0 114770002.3498223 5594534.121705648 5594534.121705648 17641161.75434874 0 0 0 0 0 114238363.4390969 5533755.233070165 5533755.233070165 17171594.46727459 0 0 0 0 0 113849357.2357609 5294395.709656621 5294395.709656621 16665084.41052053 0 0 0 0 0 113716923.3745545 5699551.376422726 5699551.376422726 16009209.61933765 0 0 0 0 0 113242857.5055528 5619090.270662338 5619090.270662338 15584325.31313157 0 0 0 0 0 112888477.0926451 5580229.031646515 5580229.031646515 14367246.59690422 0 0 0 0 0 112463611.7281689 5499684.482911316 5499684.482911316 14000580.61774626 0 0 0 0 0 112064185.9915915 5565756.113422735 5565756.113422735 12978337.0834504 0 0 0 0 0 112398520.6686832 5791352.981448111 5791352.981448111 13490738.49688224 0 0 0 0 0 111685496.0960162 5480713.400200685 5480713.400200685 12657191.77581476 0 0 0 0 0 111324917.4814684 5395582.593587491 5395582.593587491 12344059.18318953 0 0 0 0 0 110981471.6018605 5310337.970572489 5310337.970572489 12042189.7159842 0 0 0 0 0 110653884.5487735 5225795.512348881 5225795.512348881 11750268.3565303 0 0 0 0 0 110366952.8324947 5243165.627137451 5243165.627137451 10895486.98047652 0 0 0 0 0 110641871.317541 5435216.314992476 5435216.314992476 11341111.83603203 0 0 0 0 0 110069925.8899499 5155533.495851932 5155533.495851932 10641639.18852651 0 0 0 0 0 109785167.3421837 5068315.999261244 5068315.999261244 10397120.04762571 0 0 0 0 0 109519431.0935698 4982819.173462345 4982819.173462345 10161945.95585555 0 0 0 0 0 109300414.5070228 4933153.416292706 4933153.416292706 9966379.577133793 0 0 0 0 0 109159659.9705127 4929596.974469907 4929596.974469907 9843974.625636498 0 0 0 0 0 108998682.8144261 4892185.662604078 4892185.662604078 9530038.950602977 0 0 0 0 0 108794749.8636618 4809747.424152201 4809747.424152201 9148013.03201196 0 0 0 0 0 112888185.647715 5391692.120050956 5391692.120050956 15087838.57831147 0 0 0 0 0 185751449.5087484 645669.0741027206 645669.0741027206 35468337.6441639 0 0 0 0 0 181997802.3980563 -1481195.159076721 -1481195.159076721 36076387.10005738 0 0 0 0 0 168870093.6488715 430673.2914830316 430673.2914830316 37075621.47072258 0 0 0 0 0 174605955.9038926 -1229089.946466644 -1229089.946466644 36899672.80241276 0 0 0 0 0 154862904.0937218 -56822.83644267452 -56822.83644267452 36791497.53726961 0 0 0 0 0 163680337.7440248 274524.5971820715 274524.5971820715 37152124.84231329 0 0 0 0 0 157822481.6885841 965880.8302487739 965880.8302487739 36898652.13212945 0 0 0 0 0 150552262.9326193 387585.0624730419 387585.0624730419 36492204.94308364 0 0 0 0 0 147060129.9644339 761289.6296792148 761289.6296792148 35935925.02928659 0 0 0 0 0 143806955.3289919 1133225.932040229 1133225.932040229 35319886.27052262 0 0 0 0 0 140896304.3655933 1483362.337513484 1483362.337513484 34623931.56283175 0 0 0 0 0 138202257.7990836 1815826.784169868 1815826.784169868 33926600.94023336 0 0 0 0 0 135834686.851234 2102156.021980366 2102156.021980366 33139150.4557202 0 0 0 0 0 133571167.1693589 2365087.726668482 2365087.726668482 32307862.68975571 0 0 0 0 0 131576542.3072828 2601368.898736153 2601368.898736153 31513061.00499825 0 0 0 0 0 130447334.2950258 3871588.092795074 3871588.092795074 30143449.15962207 0 0 0 0 0 129265720.7014048 3441051.33160125 3441051.33160125 29760072.64522441 0 0 0 0 0 127657496.4914556 3621778.62244703 3621778.62244703 28947530.844882 0 0 0 0 0 126182194.3952203 3773836.726089153 3773836.726089153 28139862.92475519 0 0 0 0 0 124820273.3012696 3906572.392956616 3906572.392956616 27352323.24235599 0 0 0 0 0 123282714.3258296 4551014.648933266 4551014.648933266 25621015.50196778 0 0 0 0 0 124096668.3284912 4907880.607814251 4907880.607814251 26119479.81610464 0 0 0 0 0 122162809.0792287 4630509.656608996 4630509.656608996 24887502.31188846 0 0 0 0 0 121125301.445875 4693378.733340554 4693378.733340554 24171954.06460864 0 0 0 0 0 120161886.9959793 4741396.514218449 4741396.514218449 23476977.79999752 0 0 0 0 0 119265705.8597405 4776289.823613043 4776289.823613043 22802652.20269541 0 0 0 0 0 118430768.3897607 4799550.275033124 4799550.275033124 22149212.98859544 0 0 0 0 0 117651343.0130887 4812552.674977083 4812552.674977083 21516584.16191869 0 0 0 0 0 117334098.1705929 5458093.956268468 5458093.956268468 20567475.74919112 0 0 0 0 0 116833538.3164809 5186098.413727256 5186098.413727256 20057636.43159081 0 0 0 0 0 116166413.3744398 5166632.41171049 5166632.41171049 19492067.01816183 0 0 0 0 0 115540194.9688033 5140680.736642307 5140680.736642307 18945849.68643879 0 0 0 0 0 114951539.2519299 5108577.804124467 5108577.804124467 18417453.60260765 0 0 0 0 0 114397186.3719655 5071877.428257009 5071877.428257009 17908648.86038759 0 0 0 0 0 113870368.6077874 5026899.111520387 5026899.111520387 17413679.16320868 0 0 0 0 0 113726766.5221081 5466163.308795812 5466163.308795812 16720652.79917291 0 0 0 0 0 113353974.9232188 5233800.006187285 5233800.006187285 16224169.11113193 0 0 0 0 0 112892861.6617757 5173458.106071346 5173458.106071346 15793626.89936693 0 0 0 0 0 112808210.5894198 5728045.586561354 5728045.586561354 14512708.1335234 0 0 0 0 0 112385702.2557757 5638426.664755684 5638426.664755684 14146041.73322355 0 0 0 0 0 112004763.3915838 5697064.923102154 5697064.923102154 13148484.63786974 0 0 0 0 0 112056355.9802911 5418313.269445851 5418313.269445851 13650165.25369981 0 0 0 0 0 111630209.5410125 5603692.591511278 5603692.591511278 12818257.92549277 0 0 0 0 0 111273784.5497468 5511193.015720034 5511193.015720034 12502343.03332006 0 0 0 0 0 110934779.5387726 5419718.912046106 5419718.912046106 12196523.15750444 0 0 0 0 0 110610808.8573371 5329116.530301784 5329116.530301784 11900398.56428915 0 0 0 0 0 110334237.9518964 5341098.446874381 5341098.446874381 11073965.99259426 0 0 0 0 0 110340507.7064743 5141715.757675491 5141715.757675491 11467894.20644757 0 0 0 0 0 110039551.2467279 5247557.669808843 5247557.669808843 10815016.38661843 0 0 0 0 0 109758910.6584068 5153782.019005132 5153782.019005132 10565230.92624032 0 0 0 0 0 109490246.6320569 5068322.815218139 5068322.815218139 10292429.47909138 0 0 0 0 0 109273330.4817234 4984916.578331408 4984916.578331408 9935317.831732458 0 0 0 0 0 109101634.567099 4956103.04280642 4956103.04280642 9628127.538496267 0 0 0 0 0 108943556.1766908 4912501.465526569 4912501.465526569 9324764.285157198 0 0 0 0 0 112797774.8756163 5539563.797698874 5539563.797698874 15171734.50554183 0 0 0 0 0 178149112.4918748 696728.7218202357 696728.7218202357 36427496.59228052 0 0 0 0 0 168015474.374984 -1070886.083849951 -1070886.083849951 37391958.16890316 0 0 0 0 0 171358953.7419884 847105.9788702428 847105.9788702428 36946041.72892857 0 0 0 0 0 153735960.5296816 1340653.158507392 1340653.158507392 36717305.50215794 0 0 0 0 0 159604168.3510916 542112.6030562831 542112.6030562831 37330126.12430054 0 0 0 0 0 159044001.4968815 -380931.0730526237 -380931.0730526237 37207875.71506424 0 0 0 0 0 149659727.0552256 1432576.351984321 1432576.351984321 35993479.69345234 0 0 0 0 0 146081324.7269642 1820641.931519259 1820641.931519259 35483149.73418947 0 0 0 0 0 142938227.2777551 2113834.026931341 2113834.026931341 34770237.75602472 0 0 0 0 0 140055210.4037767 2391321.888468016 2391321.888468016 34090326.62716263 0 0 0 0 0 137432762.1976933 2581109.577395685 2581109.577395685 33305908.17161988 0 0 0 0 0 135061237.968996 2856927.567768876 2856927.567768876 32588271.55582038 0 0 0 0 0 132938379.4945713 3050919.071113873 3050919.071113873 31774140.34536567 0 0 0 0 0 130984584.3779864 3229305.652921658 3229305.652921658 30968666.36229038 0 0 0 0 0 129756421.1801987 2814459.238108226 2814459.238108226 30695248.27613787 0 0 0 0 0 128734420.0810631 4025225.127463917 4025225.127463917 29339361.80163226 0 0 0 0 0 127168248.9645087 4158335.391708961 4158335.391708961 28552067.13244912 0 0 0 0 0 125727529.8092257 4268891.681916959 4268891.681916959 27771391.36769354 0 0 0 0 0 124396663.4525096 4361516.767152982 4361516.767152982 27003181.71900029 0 0 0 0 0 122915842.3598374 4968663.722244547 4968663.722244547 25379318.19544201 0 0 0 0 0 123562275.5503709 4020778.05102749 4020778.05102749 26587012.93129311 0 0 0 0 0 121824248.9994535 5015230.194315496 5015230.194315496 24659306.85371953 0 0 0 0 0 120812303.216723 5048437.778127533 5048437.778127533 23959697.30057492 0 0 0 0 0 119872370.5716091 5069521.010117029 5069521.010117029 23279394.91191363 0 0 0 0 0 118997698.3872987 5079842.908828528 5079842.908828528 22619028.25534154 0 0 0 0 0 118182381.4473796 5080851.438672676 5080851.438672676 21978943.51490141 0 0 0 0 0 117421038.4214196 5073474.789168508 5073474.789168508 21359179.268071 0 0 0 0 0 116922653.5348939 4816332.10786967 4816332.10786967 20904554.16274151 0 0 0 0 0 116638092.0615385 5427497.482979397 5427497.482979397 19990190.85936392 0 0 0 0 0 115985490.5150687 5391052.50792129 5391052.50792129 19431987.99482784 0 0 0 0 0 115372724.8696682 5349469.255871591 5349469.255871591 18893049.47684511 0 0 0 0 0 114796024.2239151 5303312.859087187 5303312.859087187 18372116.29345039 0 0 0 0 0 114254357.5091176 5254564.346651402 5254564.346651402 17879132.52480209 0 0 0 0 0 113741731.6721296 5198915.248443702 5198915.248443702 17400048.43791511 0 0 0 0 0 113373115.081705 4976124.208883937 4976124.208883937 16937008.19456886 0 0 0 0 0 113242746.9689341 5392631.080629773 5392631.080629773 16263648.23494203 0 0 0 0 0 112790094.5476339 5322179.23591979 5322179.23591979 15829633.00839714 0 0 0 0 0 112459688.1165924 5320776.858659462 5320776.858659462 14692222.10483628 0 0 0 0 0 112053058.2279078 5247541.847976931 5247541.847976931 14315202.32833055 0 0 0 0 0 111670856.4095286 5337913.7457685 5337913.7457685 13311615.00255358 0 0 0 0 0 111984452.8274327 5548580.596518312 5548580.596518312 13786265.66470087 0 0 0 0 0 111308102.2911059 5259132.401280342 5259132.401280342 12977525.62575724 0 0 0 0 0 110961944.5714972 5179491.063513534 5179491.063513534 12650715.44508702 0 0 0 0 0 110629635.3174943 5099313.583348974 5099313.583348974 12339450.61085354 0 0 0 0 0 110313727.0071834 5019843.669556438 5019843.669556438 12038956.3795415 0 0 0 0 0 110040874.6081579 5057899.829241547 5057899.829241547 11194829.38319064 0 0 0 0 0 110301042.9805974 5239091.842720586 5239091.842720586 11614351.1989529 0 0 0 0 0 109754774.7404727 4974389.692842893 4974389.692842893 10931166.75195028 0 0 0 0 0 109478349.4165348 4890376.531125333 4890376.531125333 10674955.08006594 0 0 0 0 0 109243096.0982434 4827224.723931329 4827224.723931329 10461014.33800978 0 0 0 0 0 109050807.9496276 4805055.500466048 4805055.500466048 10252702.50878781 0 0 0 0 0 108869146.4693486 4757397.522242687 4757397.522242687 9945421.669321723 0 0 0 0 0 108698797.653134 4715101.471037181 4715101.471037181 9647392.919354094 0 0 0 0 0 112458045.8684533 5112792.395071392 5112792.395071392 15379174.33550472 0 0 0 0 0 164539506.4449341 921791.5383742567 921791.5383742567 37464926.71039747 0 0 0 0 0 151371756.047833 150484.1391329614 150484.1391329614 37039377.95716466 0 0 0 0 0 162898921.6905351 -734312.0259130278 -734312.0259130278 37466493.85459086 0 0 0 0 0 155086564.5063212 560153.021615199 560153.021615199 37295427.87036454 0 0 0 0 0 148263194.7860782 513950.7330550553 513950.7330550553 36481976.375779 0 0 0 0 0 145172153.6074134 619440.5701633079 619440.5701633079 35875381.83039824 0 0 0 0 0 141879918.4223489 870295.5275129165 870295.5275129165 35349983.25920907 0 0 0 0 0 138986293.1703039 1216037.381471732 1216037.381471732 34692938.22499021 0 0 0 0 0 136561291.4404785 1600862.810233356 1600862.810233356 33907059.12464259 0 0 0 0 0 134446949.2008939 1675462.220045247 1675462.220045247 33038073.92643857 0 0 0 0 0 132136386.0095794 1947056.942816394 1947056.942816394 32330315.99018259 0 0 0 0 0 130246861.7484775 2164278.718845587 2164278.718845587 31514871.25801695 0 0 0 0 0 129204520.8594425 3390061.334128265 3390061.334128265 30153635.34348579 0 0 0 0 0 128094062.2447098 3006865.858058647 3006865.858058647 29876476.38038667 0 0 0 0 0 126566142.5159069 3175322.795615406 3175322.795615406 29060364.01919444 0 0 0 0 0 125161449.8101603 3323222.760255612 3323222.760255612 28260431.80568134 0 0 0 0 0 123866829.4546727 3451252.649609671 3451252.649609671 27470662.29856135 0 0 0 0 0 122407899.9577231 4118178.519465939 4118178.519465939 25832704.53437149 0 0 0 0 0 123173782.4746939 4438316.050835361 4438316.050835361 26240437.91397383 0 0 0 0 0 121338237.7991956 4199350.824867608 4199350.824867608 25096871.44903491 0 0 0 0 0 120346624.9463025 4265207.460639667 4265207.460639667 24379203.22562025 0 0 0 0 0 119425458.6381265 4317734.03298772 4317734.03298772 23682093.76614754 0 0 0 0 0 118568581.4381637 4358651.906797965 4358651.906797965 23005401.42974538 0 0 0 0 0 117769356.3494058 4389014.399843236 4389014.399843236 22349552.16021391 0 0 0 0 0 117022973.0276275 4409695.463885718 4409695.463885718 21714343.93624496 0 0 0 0 0 116708992.809975 5058629.551053119 5058629.551053119 20759325.36468017 0 0 0 0 0 116240521.9907815 4812034.335592953 4812034.335592953 20313045.5323453 0 0 0 0 0 115600977.9713812 4800641.054836537 4800641.054836537 19741508.59815336 0 0 0 0 0 114999954.1682028 4782713.022247184 4782713.022247184 19188850.18315322 0 0 0 0 0 114435778.202477 4759641.862677186 4759641.862677186 18656553.99758822 0 0 0 0 0 113900063.9463611 4726786.326531019 4726786.326531019 18134232.15320332 0 0 0 0 0 113390615.0879635 4688610.465996995 4688610.465996995 17639279.51063867 0 0 0 0 0 113248750.3212567 5137260.684046275 5137260.684046275 16930709.01818745 0 0 0 0 0 112901600.0069111 4926433.850926529 4926433.850926529 16491120.6744361 0 0 0 0 0 112459427.9652175 4875668.030160817 4875668.030160817 16052315.90721342 0 0 0 0 0 112376966.7759385 5459945.395224492 5459945.395224492 14785469.87276513 0 0 0 0 0 111971982.3227314 5377643.229062655 5377643.229062655 14405357.41073043 0 0 0 0 0 111606054.9409219 5459979.047131528 5459979.047131528 13431471.98220916 0 0 0 0 0 111663577.9071456 5173200.412973206 5173200.412973206 13951139.20558286 0 0 0 0 0 111247730.2860976 5373553.528034926 5373553.528034926 13091080.62612704 0 0 0 0 0 110905060.6346194 5287957.495046004 5287957.495046004 12768713.41937582 0 0 0 0 0 110578821.4425192 5202169.753825926 5202169.753825926 12455289.72605242 0 0 0 0 0 110267464.3946882 5117050.717304981 5117050.717304981 12151765.2159653 0 0 0 0 0 110004971.1036214 5149588.954023251 5149588.954023251 11337856.54886185 0 0 0 0 0 110012124.4904154 4940926.550249819 4940926.550249819 11747109.27521321 0 0 0 0 0 109721726.663891 5060527.396077919 5060527.396077919 11070667.86072851 0 0 0 0 0 109446202.1291109 4973969.994544443 4973969.994544443 10811124.99485721 0 0 0 0 0 109199043.1550294 4902468.327415967 4902468.327415967 10440718.39336511 0 0 0 0 0 108996448.7536368 4839123.450878208 4839123.450878208 10087637.37636897 0 0 0 0 0 108819364.2747266 4791689.077075988 4791689.077075988 9774196.772066558 0 0 0 0 0 112362700.6519632 5251577.523751106 5251577.523751106 15413303.14163794 0 0 0 0 0 154953900.4608747 520656.6437127157 520656.6437127157 36860457.60567825 0 0 0 0 0 151116665.7256378 580742.1338556374 580742.1338556374 36303424.42618726 0 0 0 0 0 159193819.1329277 643892.6737372869 643892.6737372869 37450023.24096163 0 0 0 0 0 157879525.3514443 -560286.1369940402 -560286.1369940402 37546508.43967047 0 0 0 0 0 147222364.8260587 1319309.364760903 1319309.364760903 36133048.72332543 0 0 0 0 0 143901114.9649074 1534503.583138483 1534503.583138483 35536009.97512 0 0 0 0 0 140911133.6737798 1769901.126359268 1769901.126359268 34696657.23535319 0 0 0 0 0 138446494.4580856 1780093.456181401 1780093.456181401 33848691.77328315 0 0 0 0 0 135724760.6255172 2253623.681665894 2253623.681665894 33455060.95954521 0 0 0 0 0 133598444.592194 2387692.078317335 2387692.078317335 32515628.87149061 0 0 0 0 0 131536616.4900658 2562357.415672163 2562357.415672163 31665066.71522332 0 0 0 0 0 129689505.3016655 2717794.568719043 2717794.568719043 30872784.6605366 0 0 0 0 0 128553841.2481068 2353991.821774603 2353991.821774603 30699582.89155369 0 0 0 0 0 127580858.0790246 3537050.680992343 3537050.680992343 29357159.07327558 0 0 0 0 0 126089813.9274978 3664491.095696164 3664491.095696164 28575456.02736513 0 0 0 0 0 124716364.8897165 3773859.992697578 3773859.992697578 27796975.5345583 0 0 0 0 0 123448518.6987362 3868665.597162833 3868665.597162833 27032450.1643243 0 0 0 0 0 122046370.2971442 4503013.336802611 4503013.336802611 25503750.40729449 0 0 0 0 0 122669074.4290912 3566555.452309063 3566555.452309063 26709106.22974763 0 0 0 0 0 121002957.3248353 4554421.469254822 4554421.469254822 24786304.80459576 0 0 0 0 0 120035365.2155103 4593593.131206802 4593593.131206802 24087921.73476418 0 0 0 0 0 119136539.4235054 4621765.670598643 4621765.670598643 23407504.52572539 0 0 0 0 0 118299839.1210392 4640711.423803815 4640711.423803815 22748171.59470191 0 0 0 0 0 117519494.8374411 4650796.176439663 4650796.176439663 22108812.78411231 0 0 0 0 0 116790552.3572302 4652878.299391626 4652878.299391626 21489401.92954111 0 0 0 0 0 116325095.5280058 4421742.468805507 4421742.468805507 21099774.23903136 0 0 0 0 0 116042136.7895087 5037317.110120782 5037317.110120782 20179054.72837675 0 0 0 0 0 115416685.1463489 5010361.493265757 5010361.493265757 19617974.52661215 0 0 0 0 0 114828671.4007768 4978207.750159021 4978207.750159021 19076403.52653076 0 0 0 0 0 114278160.1076381 4942153.983598338 4942153.983598338 18557797.90607873 0 0 0 0 0 113754275.2664274 4899777.58952008 4899777.58952008 18062291.48439289 0 0 0 0 0 113256740.263258 4850682.569496912 4850682.569496912 17575236.75966481 0 0 0 0 0 112915964.6362561 4650206.551922184 4650206.551922184 17168355.95729673 0 0 0 0 0 112785139.6109437 5075788.717023592 5075788.717023592 16473899.39465455 0 0 0 0 0 112352215.0997111 5014576.353146736 5014576.353146736 16032847.93801535 0 0 0 0 0 112046226.7450454 5049165.887152424 5049165.887152424 14972345.51083897 0 0 0 0 0 111655706.9104196 4983789.106314956 4983789.106314956 14587376.84087913 0 0 0 0 0 111294284.4094857 5100483.987150827 5100483.987150827 13601538.34689589 0 0 0 0 0 111586304.2537498 5295036.727488479 5295036.727488479 14034863.33139428 0 0 0 0 0 110944334.9580662 5028152.571338826 5028152.571338826 13258328.97420532 0 0 0 0 0 110610675.9886097 4953335.657920212 4953335.657920212 12920785.03662052 0 0 0 0 0 110288363.4276886 4878261.640838614 4878261.640838614 12600598.57292329 0 0 0 0 0 109983717.9865716 4804175.059645485 4804175.059645485 12294246.83557331 0 0 0 0 0 109723306.312215 4861841.943754888 4861841.943754888 11464967.62581402 0 0 0 0 0 109969210.824113 5032342.484770077 5032342.484770077 11858114.92783436 0 0 0 0 0 109445413.7076028 4782232.887450417 4782232.887450417 11192396.53396525 0 0 0 0 0 109175891.390344 4706249.425345224 4706249.425345224 10935220.12647361 0 0 0 0 0 108956562.6060662 4658160.185358997 4658160.185358997 10734170.85387424 0 0 0 0 0 108764743.6451743 4628052.356318555 4628052.356318555 10425991.52806501 0 0 0 0 0 108587759.4783318 4598458.830634617 4598458.830634617 10089395.3610087 0 0 0 0 0 112042960.6884456 4822830.020514524 4822830.020514524 15625944.45954216 0 0 0 0 0 152720918.8970298 -492795.3675848859 -492795.3675848859 37002842.92183693 0 0 0 0 0 148419675.0370551 947134.1648389196 947134.1648389196 36789587.49003464 0 0 0 0 0 155086040.014096 609003.8314441892 609003.8314441892 37071060.92471261 0 0 0 0 0 146998583.0563035 103277.1991400249 103277.1991400249 36332044.23204877 0 0 0 0 0 143520049.7804624 258646.7179400586 258646.7179400586 35866509.83541647 0 0 0 0 0 140544156.8489517 352368.7421564402 352368.7421564402 35191971.19212487 0 0 0 0 0 136743538.0685941 1631348.452344058 1631348.452344058 34416997.66065889 0 0 0 0 0 136221231.6026169 1188961.596141428 1188961.596141428 33454628.16682935 0 0 0 0 0 132705812.1521775 1320883.198872255 1320883.198872255 33025963.76748079 0 0 0 0 0 130742829.0927043 1502964.538486829 1502964.538486829 32172979.07913874 0 0 0 0 0 128996692.1102673 1696181.695687252 1696181.695687252 31395565.79483935 0 0 0 0 0 128014217.3863731 2879995.217395471 2879995.217395471 30050541.95048016 0 0 0 0 0 126969305.0911059 2543531.077140757 2543531.077140757 29883187.63982853 0 0 0 0 0 125518998.9816087 2705100.281114312 2705100.281114312 29073780.26366068 0 0 0 0 0 124187274.8981862 2848354.450034564 2848354.450034564 28280344.04875537 0 0 0 0 0 122956206.8430402 2979052.407916449 2979052.407916449 27498455.7327883 0 0 0 0 0 121567704.130838 3666412.040028136 3666412.040028136 25957180.02058009 0 0 0 0 0 122285512.2973952 3950314.053348396 3950314.053348396 26276959.31028222 0 0 0 0 0 120546702.1853385 3750715.522060915 3750715.522060915 25222212.11502336 0 0 0 0 0 119600272.7229096 3821157.703757177 3821157.703757177 24505996.31142946 0 0 0 0 0 118720536.5473229 3880415.90499348 3880415.90499348 23810984.56186678 0 0 0 0 0 117900930.6936277 3928939.72722635 3928939.72722635 23135422.80505117 0 0 0 0 0 117136012.6942441 3967476.196679907 3967476.196679907 22480582.1095635 0 0 0 0 0 116421709.1845612 3996870.340761245 3996870.340761245 21846231.67830331 0 0 0 0 0 116108763.8219029 4647923.898474983 4647923.898474983 20889722.61596275 0 0 0 0 0 115671582.404232 4426100.271261605 4426100.271261605 20505428.47706068 0 0 0 0 0 115058382.5018038 4423556.710848601 4423556.710848601 19930845.26356872 0 0 0 0 0 114481230.5074394 4414794.421131081 4414794.421131081 19375485.9621447 0 0 0 0 0 113936620.4122185 4396391.517570902 4396391.517570902 18834854.22413519 0 0 0 0 0 113418972.2938269 4371414.009765326 4371414.009765326 18312380.38651888 0 0 0 0 0 112932756.6905671 4344523.186268828 4344523.186268828 17820713.18928886 0 0 0 0 0 112787564.4765541 4800060.049185097 4800060.049185097 17096395.29820816 0 0 0 0 0 112466489.492742 4609830.779128066 4609830.779128066 16708641.1523941 0 0 0 0 0 112044192.9075261 4568856.716970564 4568856.716970564 16263248.52471065 0 0 0 0 0 111958457.8893428 5179690.376611369 5179690.376611369 15016155.63878768 0 0 0 0 0 111569365.8551932 5106445.140211248 5106445.140211248 14625912.65748756 0 0 0 0 0 111222490.4173963 5214388.599233295 5214388.599233295 13674360.7509639 0 0 0 0 0 111282101.2972998 4918742.91106854 4918742.91106854 14214264.96469342 0 0 0 0 0 110877827.5293487 5134677.966326994 5134677.966326994 13329627.7606849 0 0 0 0 0 110548394.4835836 5055547.545428775 5055547.545428775 13001749.40552215 0 0 0 0 0 110233788.5803089 4975150.185646784 4975150.185646784 12684756.35610442 0 0 0 0 0 109933979.8994498 4895329.84971999 4895329.84971999 12372159.55411821 0 0 0 0 0 109684146.8618833 4948336.405904084 4948336.405904084 11576749.84050587 0 0 0 0 0 109694652.2527412 4731228.13490892 4731228.13490892 11996405.55411895 0 0 0 0 0 109408259.5760432 4867218.148379929 4867218.148379929 11306386.53417451 0 0 0 0 0 109137501.3098875 4792020.230070357 4792020.230070357 11023925.35862982 0 0 0 0 0 108891392.6692065 4700519.002180113 4700519.002180113 10546226.94628725 0 0 0 0 0 108694056.6796525 4659708.162804295 4659708.162804295 10191814.31945419 0 0 0 0 0 111942824.1877849 4953643.908987569 4953643.908987569 15611022.6157111 0 0 0 0 0 150930277.0555525 719129.8433076421 719129.8433076421 36786482.00934026 0 0 0 0 0 149170525.5983146 -318602.4391435021 -318602.4391435021 36644416.01049077 0 0 0 0 0 145256120.4967685 1065901.602539247 1065901.602539247 36033952.74312135 0 0 0 0 0 141962137.8798707 1243108.026328129 1243108.026328129 35392369.92763072 0 0 0 0 0 138968249.193753 1311368.231101941 1311368.231101941 34855298.08781232 0 0 0 0 0 138091075.074799 558650.2344391185 558650.2344391185 34253433.9775083 0 0 0 0 0 134591890.7810885 1462982.897921115 1462982.897921115 33872554.23065381 0 0 0 0 0 132124948.4361191 1925494.717552063 1925494.717552063 32282714.71102191 0 0 0 0 0 134294426.741639 1476006.005560631 1476006.005560631 32864798.35812525 0 0 0 0 0 130207927.1818468 2024528.563703698 2024528.563703698 31430514.90564296 0 0 0 0 0 128454928.4388661 2191149.661127513 2191149.661127513 30703899.90536029 0 0 0 0 0 127414167.3273375 1870080.042035996 1870080.042035996 30591461.47570263 0 0 0 0 0 126472294.2442506 3025724.028007597 3025724.028007597 29277213.78223167 0 0 0 0 0 125054422.980122 3149538.47537127 3149538.47537127 28503801.28091363 0 0 0 0 0 123750420.9104572 3261221.367053814 3261221.367053814 27731149.63391011 0 0 0 0 0 122546135.0607197 3363765.842894228 3363765.842894228 26976941.14063669 0 0 0 0 0 121210381.3938225 4020878.990241735 4020878.990241735 25547443.2814291 0 0 0 0 0 121815550.985187 3097511.370763456 3097511.370763456 26741593.7983922 0 0 0 0 0 120214314.4265872 4078438.508019904 4078438.508019904 24835428.48442138 0 0 0 0 0 119290229.4404285 4125329.446419252 4125329.446419252 24140703.54696374 0 0 0 0 0 118431382.88307 4162892.753392844 4162892.753392844 23465364.24281013 0 0 0 0 0 117631309.9789167 4191514.356314499 4191514.356314499 22810258.83195155 0 0 0 0 0 116884590.3054821 4211470.627777237 4211470.627777237 22174577.9075546 0 0 0 0 0 116187046.1321457 4223977.011447399 4223977.011447399 21558568.34503882 0 0 0 0 0 115753525.8767053 4018120.170408161 4018120.170408161 21232192.35447873 0 0 0 0 0 115470037.8742799 4636789.709648554 4636789.709648554 20309614.30573906 0 0 0 0 0 114870372.4445666 4620267.552360139 4620267.552360139 19748659.5808207 0 0 0 0 0 114307602.0980186 4597709.836914479 4597709.836914479 19211692.56457207 0 0 0 0 0 113776388.5057149 4570065.908340615 4570065.908340615 18693635.6844963 0 0 0 0 0 113269906.6314842 4534437.483538787 4534437.483538787 18190025.89974864 0 0 0 0 0 112794638.6482619 4495303.868622946 4495303.868622946 17695197.02167048 0 0 0 0 0 112479477.2037406 4316765.530782095 4316765.530782095 17346516.79870059 0 0 0 0 0 112346433.0499655 4749913.6326422 4749913.6326422 16636254.86796323 0 0 0 0 0 111931617.2773363 4700047.709280183 4700047.709280183 16194771.33253631 0 0 0 0 0 111647706.6870928 4768162.143701178 4768162.143701178 15214021.46790561 0 0 0 0 0 111273187.3262236 4711819.757092536 4711819.757092536 14819639.00063513 0 0 0 0 0 110930194.1061749 4854404.235084585 4854404.235084585 13852360.66357992 0 0 0 0 0 111201896.4245199 5033092.729981053 5033092.729981053 14244512.69215449 0 0 0 0 0 110595468.3529231 4788558.357568383 4788558.357568383 13495434.575225 0 0 0 0 0 110270643.0300173 4719038.102564999 4719038.102564999 13153084.34589537 0 0 0 0 0 109958461.8655238 4648190.855815441 4648190.855815441 12827887.32566882 0 0 0 0 0 109666029.4981694 4579884.293729356 4579884.293729356 12519781.27151048 0 0 0 0 0 109417141.5342826 4658857.913201447 4658857.913201447 11707307.71707803 0 0 0 0 0 109647547.3296534 4817545.754201476 4817545.754201476 12072089.69388097 0 0 0 0 0 109156089.6649815 4588249.45457449 4588249.45457449 11429483.57539287 0 0 0 0 0 108906020.6060233 4512236.904508036 4512236.904508036 11139306.11737936 0 0 0 0 0 108653378.9294149 4500760.62342023 4500760.62342023 10924436.26912363 0 0 0 0 0 108482437.8567504 4469348.403815719 4469348.403815719 10539224.67987785 0 0 0 0 0 111644152.7803835 4525448.516987577 4525448.516987577 15830871.27593566 0 0 0 0 0 147054218.0063944 696897.2317389457 696897.2317389457 36415656.71300822 0 0 0 0 0 145513821.4604039 -238085.630232203 -238085.630232203 36155568.5710494 0 0 0 0 0 142278176.4424364 -211938.5820545226 -211938.5820545226 35658471.68155659 0 0 0 0 0 139378853.5036644 -166680.833238073 -166680.833238073 35057689.42582211 0 0 0 0 0 136374605.7844549 1185210.465172644 1185210.465172644 34313927.2522526 0 0 0 0 0 135575897.2710077 566428.3899109027 566428.3899109027 33586656.3695831 0 0 0 0 0 131100088.3716619 805556.8438054379 805556.8438054379 32665134.91175274 0 0 0 0 0 133213581.180665 589203.744246403 589203.744246403 33313074.6138159 0 0 0 0 0 129374084.0707681 1125633.806031969 1125633.806031969 31986954.63618669 0 0 0 0 0 127905821.0506062 1268684.490465091 1268684.490465091 31100078.32593857 0 0 0 0 0 126879111.7372949 2358629.28142206 2358629.28142206 29838836.40864992 0 0 0 0 0 125883849.6525275 2065470.253212765 2065470.253212765 29785735.41636309 0 0 0 0 0 124525275.171355 2216461.74968029 2216461.74968029 28993608.17269379 0 0 0 0 0 123271655.4399047 2359584.11284015 2359584.11284015 28209393.25006676 0 0 0 0 0 122092499.6297747 2495897.197041158 2495897.197041158 27439030.52135444 0 0 0 0 0 120762913.3475036 3200965.443274416 3200965.443274416 25996873.49118331 0 0 0 0 0 121436756.7573273 3451498.408994052 3451498.408994052 26235140.01112112 0 0 0 0 0 119790500.3738129 3289481.228164028 3289481.228164028 25267581.50610428 0 0 0 0 0 118888044.2639707 3366894.337979369 3366894.337979369 24557864.78131631 0 0 0 0 0 118047627.8443482 3434221.462989508 3434221.462989508 23867422.98838223 0 0 0 0 0 117263116.4628741 3491392.189867897 3491392.189867897 23196794.75334592 0 0 0 0 0 116531832.9446675 3538878.031315448 3538878.031315448 22546333.02026392 0 0 0 0 0 115848295.0874725 3577884.311818699 3577884.311818699 21915850.89875467 0 0 0 0 0 115534383.7189472 4229791.211813018 4229791.211813018 20962186.03432263 0 0 0 0 0 115127446.9755703 4031988.676560348 4031988.676560348 20638114.38596586 0 0 0 0 0 114540209.9406 4039414.480460921 4039414.480460921 20063710.37668724 0 0 0 0 0 113984281.7437025 4036832.53170545 4036832.53170545 19501248.22856701 0 0 0 0 0 113456708.5410239 4024970.972474438 4024970.972474438 18962417.38745893 0 0 0 0 0 112961095.30367 4011762.848993321 4011762.848993321 18446875.4350886 0 0 0 0 0 112499563.6843596 3996620.905460656 3996620.905460656 17954069.09999898 0 0 0 0 0 112346086.6012026 4457594.800358817 4457594.800358817 17217897.82018669 0 0 0 0 0 112051115.2408458 4287915.524963135 4287915.524963135 16881051.80732536 0 0 0 0 0 111645882.2502678 4256433.331814415 4256433.331814415 16431157.7252228 0 0 0 0 0 111554824.6595301 4891130.345727169 4891130.345727169 15206848.50362625 0 0 0 0 0 111182454.4827781 4826981.412098921 4826981.412098921 14810760.68692974 0 0 0 0 0 110855703.5183391 4960937.303184972 4960937.303184972 13875953.96995199 0 0 0 0 0 110915493.4395272 4655269.191898555 4655269.191898555 14436555.99005548 0 0 0 0 0 110524062.2328735 4890221.063683111 4890221.063683111 13539850.46544644 0 0 0 0 0 110204404.5927095 4815146.358923021 4815146.358923021 13207843.05823732 0 0 0 0 0 109900078.6579649 4739030.214100243 4739030.214100243 12881212.72298178 0 0 0 0 0 109612260.30169 4666108.980173821 4666108.980173821 12563568.27985863 0 0 0 0 0 109373131.5245555 4740512.03874923 4740512.03874923 11782350.58015549 0 0 0 0 0 109388041.5046375 4513513.412010041 4513513.412010041 12215431.75410718 0 0 0 0 0 109116556.448216 4663860.296099025 4663860.296099025 11505577.81708536 0 0 0 0 0 108862280.481319 4578279.960062223 4578279.960062223 11335170.60615113 0 0 0 0 0 108709109.3236721 4491786.991409875 4491786.991409875 10923023.36263459 0 0 0 0 0 108558160.3221826 4509159.139111441 4509159.139111441 10603191.4830217 0 0 0 0 0 111538769.4551386 4648780.535473368 4648780.535473368 15771009.04950335 0 0 0 0 0 143602030.6322651 657473.9571041166 657473.9571041166 35885982.07775374 0 0 0 0 0 140662769.4108586 658435.7351354755 658435.7351354755 35310917.14119223 0 0 0 0 0 137965981.9477345 672576.0295259855 672576.0295259855 34693561.54767317 0 0 0 0 0 136748465.2453922 -72859.00608991917 -72859.00608991917 34295388.87377968 0 0 0 0 0 134418129.3917944 1131383.409040475 1131383.409040475 33564393.63442698 0 0 0 0 0 130687532.8383796 1198937.027309436 1198937.027309436 31752093.96100814 0 0 0 0 0 132486434.2649666 1217136.599119947 1217136.599119947 32725077.76472067 0 0 0 0 0 128969274.7733058 1450360.548436675 1450360.548436675 31043475.65853396 0 0 0 0 0 127227492.6172861 1755100.184469594 1755100.184469594 30645681.56172758 0 0 0 0 0 126399283.3638655 1352695.896203467 1352695.896203467 30406147.85050694 0 0 0 0 0 125410636.8247813 2495369.217579836 2495369.217579836 29111112.18637406 0 0 0 0 0 124071615.2699695 2621635.214336065 2621635.214336065 28341795.91085171 0 0 0 0 0 122833464.0323145 2743049.115913651 2743049.115913651 27589380.35899156 0 0 0 0 0 121685138.7150947 2853344.163817012 2853344.163817012 26846352.46195851 0 0 0 0 0 120410242.529454 3527187.056102031 3527187.056102031 25514763.73193758 0 0 0 0 0 120995535.4352313 2620320.589287899 2620320.589287899 26693457.25900524 0 0 0 0 0 119460299.879055 3592860.530398443 3592860.530398443 24811342.07470854 0 0 0 0 0 118578965.8962676 3649487.08796683 3649487.08796683 24124072.67014499 0 0 0 0 0 117758214.6138145 3697588.167094329 3697588.167094329 23457533.8328296 0 0 0 0 0 116992735.9652318 3736005.364641224 3736005.364641224 22809088.64567144 0 0 0 0 0 116278661.3592194 3766851.960664669 3766851.960664669 22180159.33900692 0 0 0 0 0 115611301.2767124 3790546.054887589 3790546.054887589 21570677.54904338 0 0 0 0 0 115208381.0268021 3608973.691991223 3608973.691991223 21305162.87932517 0 0 0 0 0 114922621.3854244 4229536.33325885 4229536.33325885 20384679.52000882 0 0 0 0 0 114349286.499778 4223190.756037938 4223190.756037938 19826541.02809659 0 0 0 0 0 113805810.0707095 4210822.486420194 4210822.486420194 19303020.45486547 0 0 0 0 0 113292193.4128409 4189159.358926536 4189159.358926536 18774343.44580707 0 0 0 0 0 112806810.9986249 4163611.599943092 4163611.599943092 18267146.0866513 0 0 0 0 0 112353316.7922269 4138311.477680733 4138311.477680733 17774236.43733156 0 0 0 0 0 112065505.9711558 3980768.314817628 3980768.314817628 17476629.25300891 0 0 0 0 0 111925938.6835257 4419834.407356423 4419834.407356423 16759889.46721034 0 0 0 0 0 111528608.288845 4380167.79448486 4380167.79448486 16318336.16283202 0 0 0 0 0 111264356.6256841 4479436.477018612 4479436.477018612 15413312.5135261 0 0 0 0 0 110904785.8406025 4432376.616266713 4432376.616266713 15014366.53139362 0 0 0 0 0 110577271.0739791 4599800.365633777 4599800.365633777 14068120.06619635 0 0 0 0 0 110830294.4643538 4763272.416370652 4763272.416370652 14426044.63441122 0 0 0 0 0 110253949.9945408 4538449.029919638 4538449.029919638 13699079.16429329 0 0 0 0 0 109940492.8322451 4474179.990611371 4474179.990611371 13355895.39502664 0 0 0 0 0 109643600.9361395 4410831.886960082 4410831.886960082 13027107.71827133 0 0 0 0 0 109359843.2089176 4349276.950844199 4349276.950844199 12713502.05616836 0 0 0 0 0 109120613.6959516 4446773.875005411 4446773.875005411 11918983.8579506 0 0 0 0 0 109336981.7288239 4594900.54189654 4594900.54189654 12257978.85035003 0 0 0 0 0 108865089.1730002 4380272.327399385 4380272.327399385 11638617.51675812 0 0 0 0 0 108637623.1062469 4324762.906716819 4324762.906716819 11363609.22290334 0 0 0 0 0 108512477.3657407 4335430.968914224 4335430.968914224 11291270.03703741 0 0 0 0 0 108379311.1674082 4319230.381538415 4319230.381538415 10980973.0125883 0 0 0 0 0 111261641.49585 4221710.695091421 4221710.695091421 15994579.34448638 0 0 0 0 0 135451503.6829389 639167.8116662239 639167.8116662239 34013981.16117311 0 0 0 0 0 134362117.9185756 -14785.75087170919 -14785.75087170919 33602308.09640831 0 0 0 0 0 129447348.5709423 649200.3042238721 649200.3042238721 32314292.30596459 0 0 0 0 0 132179320.8787035 1874.781301622468 1874.781301622468 32833144.06968238 0 0 0 0 0 127945216.7900595 969416.7291662435 969416.7291662435 31542721.90877796 0 0 0 0 0 127621308.4645381 821255.3851978135 821255.3851978135 30582918.05696467 0 0 0 0 0 125821225.9914394 1797654.011341949 1797654.011341949 29606923.46856868 0 0 0 0 0 124924267.7167735 1537384.499011675 1537384.499011675 29642613.25882385 0 0 0 0 0 123619896.9090198 1714950.244653906 1714950.244653906 28839742.60824464 0 0 0 0 0 122389872.419621 1871980.986065551 1871980.986065551 28056262.85284178 0 0 0 0 0 121258472.5148132 2007577.165926424 2007577.165926424 27293063.59245672 0 0 0 0 0 119997774.3903365 2726238.917598819 2726238.917598819 25958506.88810024 0 0 0 0 0 120624181.7774654 2943293.372247324 2943293.372247324 26118304.35106349 0 0 0 0 0 119072918.0118895 2821555.521789218 2821555.521789218 25238809.90348493 0 0 0 0 0 118210806.2944468 2907613.067041324 2907613.067041324 24539043.41024135 0 0 0 0 0 117405374.074603 2983646.038603309 2983646.038603309 23856786.58976433 0 0 0 0 0 116656670.4903802 3049641.366498825 3049641.366498825 23194216.09009255 0 0 0 0 0 115957445.1628103 3107034.487764717 3107034.487764717 22550799.35257661 0 0 0 0 0 115303026.5873457 3156220.402710662 3156220.402710662 21926815.09462385 0 0 0 0 0 114986484.5887526 3807561.18478267 3807561.18478267 20980135.55173769 0 0 0 0 0 114608654.717666 3632942.834083227 3632942.834083227 20714290.48451067 0 0 0 0 0 114044504.2446064 3649952.722043177 3649952.722043177 20142323.5505401 0 0 0 0 0 113507164.0581792 3651404.112411004 3651404.112411004 19572198.30223547 0 0 0 0 0 112998504.6132531 3649888.795845992 3649888.795845992 19048563.64008094 0 0 0 0 0 112530271.0405664 3650216.205355552 3650216.205355552 18536931.31781484 0 0 0 0 0 112088708.9114738 3648385.775805904 3648385.775805904 18043673.58627651 0 0 0 0 0 111927088.6519491 4113494.320347661 4113494.320347661 17301145.81172292 0 0 0 0 0 111654738.0861329 3961802.842646034 3961802.842646034 17009397.70730203 0 0 0 0 0 111265388.8289519 3939454.093435256 3939454.093435256 16557032.05542556 0 0 0 0 0 111166338.5453187 4595348.620723091 4595348.620723091 15360138.41147703 0 0 0 0 0 110811134.948914 4541251.406403971 4541251.406403971 14961561.56511914 0 0 0 0 0 110500991.4168476 4700825.47297267 4700825.47297267 14061236.23879225 0 0 0 0 0 110563284.954285 4384994.18772748 4384994.18772748 14625996.14981516 0 0 0 0 0 110182232.7829116 4635591.862313312 4635591.862313312 13717311.60615325 0 0 0 0 0 109873678.8377579 4565437.379179268 4565437.379179268 13376356.17065067 0 0 0 0 0 109579853.3123678 4497515.840944378 4497515.840944378 13047383.2370395 0 0 0 0 0 109301837.2874771 4431547.334857889 4431547.334857889 12726655.63070131 0 0 0 0 0 109071277.9343257 4523725.03312942 4523725.03312942 11958573.04121025 0 0 0 0 0 109089630.3723221 4288817.404788901 4288817.404788901 12405820.11487251 0 0 0 0 0 108823054.4825391 4455269.877026841 4455269.877026841 11653352.15131559 0 0 0 0 0 108635664.9872336 4391667.134190991 4391667.134190991 11383439.86981541 0 0 0 0 0 108423490.28759 4327117.789987932 4327117.789987932 10991655.67371748 0 0 0 0 0 111151692.7417487 4338454.638302165 4338454.638302165 15892824.95775622 0 0 0 0 0 133339967.7510816 636561.1190324421 636561.1190324421 33217608.28726145 0 0 0 0 0 129103089.1129177 765049.0421459693 765049.0421459693 31191715.47552377 0 0 0 0 0 130332857.9787734 84886.77591391049 84886.77591391049 31897260.22316284 0 0 0 0 0 131076436.6897683 609513.1983246806 609513.1983246806 32576837.09745034 0 0 0 0 0 126580401.9911536 988213.7505769379 988213.7505769379 30883232.34124104 0 0 0 0 0 125256604.5027085 970729.6084805005 970729.6084805005 30247336.37704303 0 0 0 0 0 124412599.9868372 1943405.018976704 1943405.018976704 28838040.57890901 0 0 0 0 0 123147695.1378177 2093728.897494419 2093728.897494419 28120913.29318988 0 0 0 0 0 121959258.6260085 2228137.352775554 2228137.352775554 27383819.20705442 0 0 0 0 0 120863113.0953919 2334186.591962601 2334186.591962601 26623979.80307114 0 0 0 0 0 119648429.2236157 3027508.412128545 3027508.412128545 25410227.1747406 0 0 0 0 0 120217283.1356952 2138283.672162198 2138283.672162198 26567109.20776919 0 0 0 0 0 118743521.0346746 3103773.941254609 3103773.941254609 24720643.60555498 0 0 0 0 0 117901785.633531 3171661.5914939 3171661.5914939 24045722.78243395 0 0 0 0 0 117116257.6743295 3228466.40230308 3228466.40230308 23387425.76721301 0 0 0 0 0 116385109.1640817 3278229.23300777 3278229.23300777 22749049.53262892 0 0 0 0 0 115702404.7426415 3320684.544063367 3320684.544063367 22129747.83543165 0 0 0 0 0 115063675.0682662 3356000.918698579 3356000.918698579 21529412.0780112 0 0 0 0 0 114689945.4633925 3197742.309242321 3197742.309242321 21322561.1208811 0 0 0 0 0 114400770.9567713 3818507.023843672 3818507.023843672 20408109.22985714 0 0 0 0 0 113851740.5773976 3823178.076372339 3823178.076372339 19862351.742489 0 0 0 0 0 113324746.0180302 3818285.951241121 3818285.951241121 19345876.18836618 0 0 0 0 0 112830407.6087926 3802585.435039544 3802585.435039544 18800820.49177898 0 0 0 0 0 112370082.4347569 3793531.719721925 3793531.719721925 18300340.24413439 0 0 0 0 0 111937168.7213839 3782396.202797341 3782396.202797341 17815004.89538595 0 0 0 0 0 111670946.0178837 3642544.95254556 3642544.95254556 17562451.91077407 0 0 0 0 0 111524735.742845 4086305.779336838 4086305.779336838 16844127.19033424 0 0 0 0 0 111143281.0663697 4056887.023315952 4056887.023315952 16404905.42556604 0 0 0 0 0 110897163.6157541 4185025.707543996 4185025.707543996 15575035.85877241 0 0 0 0 0 110551972.1756838 4146900.044941742 4146900.044941742 15171184.79248862 0 0 0 0 0 110236896.545551 4334367.235979811 4334367.235979811 14247137.37804064 0 0 0 0 0 110476134.5784486 4486737.737625955 4486737.737625955 14577842.95007169 0 0 0 0 0 109924974.6013601 4279760.312055252 4279760.312055252 13878714.46223648 0 0 0 0 0 109624814.8487909 4224921.323215279 4224921.323215279 13533728.78232344 0 0 0 0 0 109340368.7011909 4168710.745470487 4168710.745470487 13198889.36903399 0 0 0 0 0 109065266.7390853 4114148.065538607 4114148.065538607 12877697.11453038 0 0 0 0 0 108825032.4708156 4224450.017640981 4224450.017640981 12100790.71389252 0 0 0 0 0 109034459.473621 4366672.663080554 4366672.663080554 12416187.17690748 0 0 0 0 0 108590031.9366675 4169885.272663652 4169885.272663652 11820346.92277058 0 0 0 0 0 108381760.2518309 4139216.834218493 4139216.834218493 11563728.51001775 0 0 0 0 0 108270712.0704891 4152527.815375055 4152527.815375055 11384910.69938518 0 0 0 0 0 110895901.1598228 3913974.864265207 3913974.864265207 16120043.92961365 0 0 0 0 0 128347710.3425307 68308.64049089681 68308.64049089681 31586452.45726912 0 0 0 0 0 129299001.4148864 439457.4011290637 439457.4011290637 31844442.24465479 0 0 0 0 0 126802181.7845455 49678.03462095113 49678.03462095113 30687793.94695457 0 0 0 0 0 126255603.9642168 895053.1604945462 895053.1604945462 29840342.91184489 0 0 0 0 0 124808837.5096382 1284106.820173696 1284106.820173696 29266681.42838069 0 0 0 0 0 124077866.246308 1080962.276965833 1080962.276965833 29379662.16336886 0 0 0 0 0 122793420.3718354 1225192.097164365 1225192.097164365 28578243.00601098 0 0 0 0 0 121598565.7786603 1351700.137525559 1351700.137525559 27802419.14911382 0 0 0 0 0 120503643.7703852 1507525.664673436 1507525.664673436 27098952.42525546 0 0 0 0 0 119275984.2104633 2248793.390934062 2248793.390934062 25848960.68014816 0 0 0 0 0 119853996.1701599 2433592.773028558 2433592.773028558 25936538.2024298 0 0 0 0 0 118392468.1229514 2354470.555642612 2354470.555642612 25141927.8363065 0 0 0 0 0 117562538.2788811 2447395.0133984 2447395.0133984 24453947.71039125 0 0 0 0 0 116797622.9285458 2530884.482415327 2530884.482415327 23784067.35581804 0 0 0 0 0 116081863.5590525 2607499.623506225 2607499.623506225 23131415.14432812 0 0 0 0 0 115412995.8361901 2675384.662881422 2675384.662881422 22497737.85841132 0 0 0 0 0 114785945.7683063 2735286.876310803 2735286.876310803 21883094.33721464 0 0 0 0 0 114465448.6951528 3384470.956846997 3384470.956846997 20947115.71295409 0 0 0 0 0 114115448.2021894 3232177.094531507 3232177.094531507 20737541.92580364 0 0 0 0 0 113573825.5099949 3256094.467815035 3256094.467815035 20164729.31753071 0 0 0 0 0 113056855.2166174 3265046.295367504 3265046.295367504 19597752.61816585 0 0 0 0 0 112569542.3531764 3279236.099119059 3279236.099119059 19094655.29874674 0 0 0 0 0 112121002.5533071 3291833.532758711 3291833.532758711 18581633.09934813 0 0 0 0 0 111696531.356388 3299595.533828287 3299595.533828287 18086485.18912373 0 0 0 0 0 111528415.2998279 3768241.427392314 3768241.427392314 17345823.85359495 0 0 0 0 0 111276287.3592291 3633199.075495222 3633199.075495222 17096600.73298178 0 0 0 0 0 110902157.2182084 3619886.603144917 3619886.603144917 16643835.3780052 0 0 0 0 0 110794101.1248255 4294542.027938106 4294542.027938106 15479977.82385856 0 0 0 0 0 110455232.2512719 4249708.888116579 4249708.888116579 15081354.23588815 0 0 0 0 0 110157519.0583576 4431038.679533299 4431038.679533299 14212075.78151652 0 0 0 0 0 110223051.7700439 4106416.564064515 4106416.564064515 14778486.57264956 0 0 0 0 0 109848210.9301174 4371817.881778281 4371817.881778281 13860543.08994048 0 0 0 0 0 109553477.0187058 4310997.463090885 4310997.463090885 13517852.47151938 0 0 0 0 0 109271549.4241663 4251631.53539487 4251631.53539487 13185123.62176431 0 0 0 0 0 109003121.8533454 4192538.432619893 4192538.432619893 12864459.64598017 0 0 0 0 0 108772936.9325477 4297609.403168589 4297609.403168589 12113940.7278899 0 0 0 0 0 108798755.1239587 4056266.166861706 4056266.166861706 12559921.31088905 0 0 0 0 0 108541293.5262099 4244734.98162424 4244734.98162424 11792754.92495635 0 0 0 0 0 108329111.4190415 4167873.227174703 4167873.227174703 11402927.07642719 0 0 0 0 0 110781574.7045688 4024400.673219238 4024400.673219238 15978700.69496702 0 0 0 0 0 127706570.6952386 510873.5855139882 510873.5855139882 31064452.28885486 0 0 0 0 0 126240924.7055226 518695.0054770985 518695.0054770985 30276832.7083649 0 0 0 0 0 125385078.8265734 289583.1024940838 289583.1024940838 30366291.34779814 0 0 0 0 0 124387586.7883869 539676.597500033 539676.597500033 29892184.58170497 0 0 0 0 0 123526875.4398044 1471623.588742943 1471623.588742943 28614597.36715921 0 0 0 0 0 122279544.1862516 1595928.355848475 1595928.355848475 27899215.73323742 0 0 0 0 0 121132893.4226836 1705651.928041673 1705651.928041673 27091214.53568049 0 0 0 0 0 120089758.2522682 1815263.870656712 1815263.870656712 26330094.21400125 0 0 0 0 0 118928993.3284545 2528824.462134591 2528824.462134591 25239643.7063097 0 0 0 0 0 119508214.1284231 1654584.564048432 1654584.564048432 26382341.13235708 0 0 0 0 0 118064150.4171831 2619942.041145784 2619942.041145784 24576841.34845879 0 0 0 0 0 117256234.9419525 2691069.379331377 2691069.379331377 23906049.79928536 0 0 0 0 0 116507635.9203029 2759982.173380445 2759982.173380445 23259198.77766309 0 0 0 0 0 115809127.6174657 2821830.151175423 2821830.151175423 22634278.58938092 0 0 0 0 0 115156085.5700842 2876417.896030587 2876417.896030587 22027145.42478194 0 0 0 0 0 114544404.6065621 2923748.903466549 2923748.903466549 21439491.49934331 0 0 0 0 0 114197412.113899 2787211.410990606 2787211.410990606 21287954.36105664 0 0 0 0 0 113905534.8647571 3406174.047891414 3406174.047891414 20384450.59066731 0 0 0 0 0 113377722.8657621 3420655.690795152 3420655.690795152 19850647.22984836 0 0 0 0 0 112867097.6297884 3423409.298793898 3423409.298793898 19329961.8334169 0 0 0 0 0 112394040.3121765 3422570.480006509 3422570.480006509 18792137.66778572 0 0 0 0 0 111956229.0155356 3427084.250489045 3427084.250489045 18298224.20458094 0 0 0 0 0 111541230.9427858 3426428.041966804 3426428.041966804 17817654.33046619 0 0 0 0 0 111295599.9185466 3303347.372445049 3303347.372445049 17607678.56135271 0 0 0 0 0 111142295.0464684 3751300.87847732 3751300.87847732 16892019.20265791 0 0 0 0 0 110776078.5237723 3731435.927228732 3731435.927228732 16454372.93199264 0 0 0 0 0 110546065.8776701 3886335.020632072 3886335.020632072 15699750.2340471 0 0 0 0 0 110213915.7021392 3856201.751868885 3856201.751868885 15292780.34974432 0 0 0 0 0 109909284.4892295 4063235.589039206 4063235.589039206 14397177.25279855 0 0 0 0 0 110132802.0278658 4203303.308748006 4203303.308748006 14697103.78613135 0 0 0 0 0 109610556.6639476 4019184.097477173 4019184.097477173 14031768.8246525 0 0 0 0 0 109323025.5510058 3972132.160658854 3972132.160658854 13678919.50460131 0 0 0 0 0 109050346.1877793 3923069.347620231 3923069.347620231 13340397.0064252 0 0 0 0 0 108786427.3793696 3876183.390299919 3876183.390299919 13012950.4465629 0 0 0 0 0 108536384.3128299 3993535.058879036 3993535.058879036 12248709.04478555 0 0 0 0 0 108738842.3561765 4129912.44673743 4129912.44673743 12558420.15755082 0 0 0 0 0 108311188.8439472 3942623.418210869 3942623.418210869 11989568.57843092 0 0 0 0 0 108160708.5744119 3970593.217153051 3970593.217153051 11760453.26294371 0 0 0 0 0 110547313.0478141 3603782.162503866 3603782.162503866 16208403.99436458 0 0 0 0 0 125081335.6911049 383443.6949453266 383443.6949453266 29382065.77242312 0 0 0 0 0 123954893.1158241 833527.3600007952 833527.3600007952 28999764.00816601 0 0 0 0 0 123222225.6992457 650690.5554248767 650690.5554248767 29011618.53438923 0 0 0 0 0 122000782.394372 722953.1515392755 722953.1515392755 28236389.94360823 0 0 0 0 0 120889088.6636537 798467.7014086216 798467.7014086216 27541029.16705136 0 0 0 0 0 119773210.0039768 976037.6045887448 976037.6045887448 26900744.60735744 0 0 0 0 0 118605478.2666865 1780329.373910345 1780329.373910345 25680879.00387991 0 0 0 0 0 119137124.6108113 1929513.490182127 1929513.490182127 25709290.29498945 0 0 0 0 0 117731490.8115833 1894082.284842844 1894082.284842844 24974296.11612636 0 0 0 0 0 116952818.0637137 1987912.688477575 1987912.688477575 24308897.58306904 0 0 0 0 0 116223454.348723 2081106.143429195 2081106.143429195 23651653.49119451 0 0 0 0 0 115538159.6066034 2168685.58045099 2168685.58045099 23012111.41938498 0 0 0 0 0 114898320.57434 2246821.69547954 2246821.69547954 22391698.10423911 0 0 0 0 0 114293249.3941802 2316569.849282684 2316569.849282684 21790219.76547648 0 0 0 0 0 113971191.2070906 2962249.821094939 2962249.821094939 20866941.50828962 0 0 0 0 0 113647986.146254 2831129.346590565 2831129.346590565 20710568.99354395 0 0 0 0 0 113127218.32637 2865462.273580515 2865462.273580515 20143738.27189755 0 0 0 0 0 112638588.6864931 2888481.035497229 2888481.035497229 19590512.07714065 0 0 0 0 0 112166694.9377106 2913003.692349508 2913003.692349508 19086530.68550848 0 0 0 0 0 111731975.7287115 2933765.614818624 2933765.614818624 18577791.85142462 0 0 0 0 0 111324614.6330944 2951535.713443785 2951535.713443785 18089633.91298131 0 0 0 0 0 111149120.5895184 3422757.604686805 3422757.604686805 17353484.26442874 0 0 0 0 0 110915992.6601462 3303379.23610314 3303379.23610314 17144250.85407605 0 0 0 0 0 110556290.6812967 3299826.506205564 3299826.506205564 16695175.7429272 0 0 0 0 0 110438879.7046471 3989971.523287675 3989971.523287675 15566578.16697388 0 0 0 0 0 110113004.5867277 3953922.638715079 3953922.638715079 15167695.03902068 0 0 0 0 0 109824596.3899937 4155537.663585977 4155537.663585977 14325998.22659683 0 0 0 0 0 109897403.9036092 3824074.291082242 3824074.291082242 14898936.18134154 0 0 0 0 0 109530299.2589101 4105964.97809211 4105964.97809211 13971047.26805293 0 0 0 0 0 109247965.9292324 4054302.668275032 4054302.668275032 13635050.10093565 0 0 0 0 0 108976940.3496354 4001788.273554573 4001788.273554573 13293737.76980333 0 0 0 0 0 108715371.5487739 3951608.008757913 3951608.008757913 12962734.89798725 0 0 0 0 0 108482512.4337529 4066273.561696162 4066273.561696162 12275730.74003737 0 0 0 0 0 108526001.9017669 3828321.269785129 3828321.269785129 12694722.90145782 0 0 0 0 0 108237756.2776874 3990393.69477732 3990393.69477732 11785484.13646046 0 0 0 0 0 110428824.7761533 3708632.070916006 3708632.070916006 16030519.67187051 0 0 0 0 0 124428145.0793742 448902.3421480768 448902.3421480768 29709840.97755534 0 0 0 0 0 123836366.2102185 83776.50098589911 83776.50098589911 29226360.18940128 0 0 0 0 0 122717165.8762192 1003693.753681154 1003693.753681154 28383577.18556988 0 0 0 0 0 121480512.3397486 1090675.045719081 1090675.045719081 27694131.12617124 0 0 0 0 0 120367116.8167814 1177353.906315836 1177353.906315836 26769473.20940513 0 0 0 0 0 119390924.3025763 1211403.33470383 1211403.33470383 25941102.60977305 0 0 0 0 0 118248015.6672923 2050910.99690987 2050910.99690987 25030890.74913715 0 0 0 0 0 118831226.9804554 1191853.741386077 1191853.741386077 26181180.17500418 0 0 0 0 0 117413834.8381782 2132824.368404401 2132824.368404401 24374370.69975043 0 0 0 0 0 116646601.566954 2215824.713468288 2215824.713468288 23713516.40757063 0 0 0 0 0 115932661.3217978 2296380.417244663 2296380.417244663 23077766.66704692 0 0 0 0 0 115264363.7600713 2370892.039866749 2370892.039866749 22470592.43220073 0 0 0 0 0 114639587.9064331 2438545.983483492 2438545.983483492 21881665.15101829 0 0 0 0 0 114051557.4668318 2491657.50260945 2491657.50260945 21300149.5150298 0 0 0 0 0 113734748.2440193 2378251.712894467 2378251.712894467 21205932.47947085 0 0 0 0 0 113435463.4635335 2995745.19690259 2995745.19690259 20313963.3179613 0 0 0 0 0 112928030.5361316 3021120.410957305 3021120.410957305 19786879.30221162 0 0 0 0 0 112441727.9951175 3039226.371582321 3039226.371582321 19276305.21058489 0 0 0 0 0 111985333.8308602 3050521.749499307 3050521.749499307 18754765.77485385 0 0 0 0 0 111563971.5774581 3062086.597316662 3062086.597316662 18257816.32316079 0 0 0 0 0 111165479.3121146 3072322.231724537 3072322.231724537 17784452.18298059 0 0 0 0 0 110939091.7145822 2965190.081684371 2965190.081684371 17615314.2949593 0 0 0 0 0 110777873.8000677 3415996.685670172 3415996.685670172 16904481.94053429 0 0 0 0 0 110426262.9225891 3405907.152840161 3405907.152840161 16470308.69441897 0 0 0 0 0 110210629.1339881 3584810.40186524 3584810.40186524 15787911.63978908 0 0 0 0 0 109890907.1857052 3563825.281390764 3563825.281390764 15382279.10167531 0 0 0 0 0 109595887.9074993 3790914.997650909 3790914.997650909 14519443.69621672 0 0 0 0 0 109802036.9156971 3917047.405765506 3917047.405765506 14783885.66516265 0 0 0 0 0 109309289.7458484 3755674.651480732 3755674.651480732 14151331.136234 0 0 0 0 0 109035537.7564681 3716017.166940742 3716017.166940742 13792315.78164303 0 0 0 0 0 108786373.5351603 3677559.931524088 3677559.931524088 13455894.2363861 0 0 0 0 0 108526217.3944321 3652510.12507257 3652510.12507257 13131334.15303989 0 0 0 0 0 108291530.4120319 3754142.500671532 3754142.500671532 12338372.02882079 0 0 0 0 0 108474891.4475465 3885337.629107921 3885337.629107921 12691746.8336564 0 0 0 0 0 108070392.9439918 3783074.473048121 3783074.473048121 12173821.99586713 0 0 0 0 0 110215172.813618 3292876.482704615 3292876.482704615 16261781.1333786 0 0 0 0 0 123197121.254914 431512.7087261541 431512.7087261541 28840168.52841162 0 0 0 0 0 122568227.5786714 106771.2226629542 106771.2226629542 28570362.03576225 0 0 0 0 0 121381347.3213544 130883.0710341273 130883.0710341273 27835622.1268722 0 0 0 0 0 120281562.2803826 162108.0943279492 162108.0943279492 27188580.34324201 0 0 0 0 0 118907465.1384746 791521.1020304624 791521.1020304624 26613917.91772832 0 0 0 0 0 117940739.1116316 1325364.496914877 1325364.496914877 25405390.31506168 0 0 0 0 0 118450530.2576312 1457384.51591102 1457384.51591102 25411196.07511939 0 0 0 0 0 117111944.9268511 1447595.375404613 1447595.375404613 24742739.46866516 0 0 0 0 0 116389142.2347477 1538002.433699559 1538002.433699559 24097651.53469651 0 0 0 0 0 115680239.7852499 1646192.710022443 1646192.710022443 23458334.08746711 0 0 0 0 0 115027436.7357974 1740117.178534036 1740117.178534036 22833656.73448268 0 0 0 0 0 114399069.9690572 1822752.938227121 1822752.938227121 22236717.68954882 0 0 0 0 0 113839164.392452 1901398.676830445 1901398.676830445 21658162.49342402 0 0 0 0 0 113504485.8072641 2546374.652269105 2546374.652269105 20744358.82465566 0 0 0 0 0 113202019.5975581 2434074.697129467 2434074.697129467 20638024.9043004 0 0 0 0 0 112703878.2648587 2481177.869290367 2481177.869290367 20088012.73532314 0 0 0 0 0 112231917.4981288 2515546.737794891 2515546.737794891 19544392.28412681 0 0 0 0 0 111784310.0033349 2546722.613135348 2546722.613135348 19029955.01349445 0 0 0 0 0 111364287.7460864 2578769.324127612 2578769.324127612 18536640.23967731 0 0 0 0 0 110972556.9155821 2606462.862472376 2606462.862472376 18055751.23625531 0 0 0 0 0 110788781.4405711 3079211.227949663 3079211.227949663 17326913.43998353 0 0 0 0 0 110573791.1360757 2974844.307456036 2974844.307456036 17156159.88962761 0 0 0 0 0 110227805.3692356 2980663.268075085 2980663.268075085 16711771.26696443 0 0 0 0 0 110099042.9024892 3683706.382820369 3683706.382820369 15620544.23839813 0 0 0 0 0 109785607.9825701 3657194.747788865 3657194.747788865 15223525.72944684 0 0 0 0 0 109506374.8471607 3878314.103371466 3878314.103371466 14412100.15873 0 0 0 0 0 109586822.5520703 3540708.879343471 3540708.879343471 14988307.18168383 0 0 0 0 0 109226279.1241843 3837323.07791898 3837323.07791898 14055301.61598093 0 0 0 0 0 108957209.5432052 3791294.420782928 3791294.420782928 13706990.15613948 0 0 0 0 0 108695938.1718454 3757000.783168349 3757000.783168349 13337435.74531474 0 0 0 0 0 108451890.2973948 3710240.896585177 3710240.896585177 13001170.27926941 0 0 0 0 0 108231986.6889141 3800486.176527656 3800486.176527656 12574337.76620902 0 0 0 0 0 108273174.0536909 3596401.705733001 3596401.705733001 12767781.3201343 0 0 0 0 0 108055279.7201377 3712911.353441684 3712911.353441684 12074537.9694084 0 0 0 0 0 110092530.2349231 3392946.850565267 3392946.850565267 16049973.72062133 0 0 0 0 0 121974781.0279542 469122.0332409521 469122.0332409521 28128738.60961275 0 0 0 0 0 120812936.4235041 492029.1746791812 492029.1746791812 27426702.77957654 0 0 0 0 0 119703056.7312034 520261.5161365041 520261.5161365041 26808571.4991557 0 0 0 0 0 119278966.7257243 198577.470052276 198577.470052276 26165367.31348991 0 0 0 0 0 118612226.8861314 887731.5344939779 887731.5344939779 25689194.64341605 0 0 0 0 0 117602549.6378001 1567100.604071801 1567100.604071801 24713673.87028256 0 0 0 0 0 118095850.2302004 747174.0369706553 747174.0369706553 25662596.28111742 0 0 0 0 0 116809332.2225695 1660561.288711375 1660561.288711375 24140261.9152819 0 0 0 0 0 116078412.7507104 1755733.61530548 1755733.61530548 23469026.60368251 0 0 0 0 0 115390500.8513419 1846859.545351635 1846859.545351635 22855100.49856919 0 0 0 0 0 114752927.5101373 1939449.537391875 1939449.537391875 22283090.90111952 0 0 0 0 0 114146580.1970983 1993399.30382138 1993399.30382138 21681678.30622195 0 0 0 0 0 113590254.4380506 2073190.288067878 2073190.288067878 21125661.16079591 0 0 0 0 0 113292029.3799924 1977867.70943315 1977867.70943315 21079675.33191508 0 0 0 0 0 112986799.94068 2590876.609571951 2590876.609571951 20204509.13139039 0 0 0 0 0 112504957.2006833 2627483.586516181 2627483.586516181 19686790.83674702 0 0 0 0 0 112040389.541601 2655292.343002173 2655292.343002173 19173251.13257706 0 0 0 0 0 111600926.7213115 2680338.471563786 2680338.471563786 18672080.61795225 0 0 0 0 0 111192880.6361896 2701077.37109371 2701077.37109371 18182969.59035958 0 0 0 0 0 110809760.3590143 2722211.360643771 2722211.360643771 17718335.3857225 0 0 0 0 0 110600957.5376772 2629930.370202454 2629930.370202454 17587702.12686782 0 0 0 0 0 110431960.9834794 3082308.941438185 3082308.941438185 16883723.16388967 0 0 0 0 0 110093895.941695 3082072.846074402 3082072.846074402 16454708.93408305 0 0 0 0 0 109891351.5795101 3283169.291042921 3283169.291042921 15843280.61302862 0 0 0 0 0 109583731.0191557 3271176.577002804 3271176.577002804 15439035.34831893 0 0 0 0 0 109296166.2261758 3515840.039872905 3515840.039872905 14608351.70727833 0 0 0 0 0 109487265.234063 3629317.991503558 3629317.991503558 14840135.550893 0 0 0 0 0 109018384.7069258 3487521.646742886 3487521.646742886 14240564.73439435 0 0 0 0 0 108747354.7236539 3456385.364943585 3456385.364943585 13887759.56325192 0 0 0 0 0 108499144.1417081 3432303.229491034 3432303.229491034 13564627.85316185 0 0 0 0 0 108314331.8597957 3457070.401388397 3457070.401388397 13235673.05394437 0 0 0 0 0 108065637.6023477 3533226.679422508 3533226.679422508 12501236.80933358 0 0 0 0 0 108232031.1581384 3639830.460616368 3639830.460616368 12920500.80113672 0 0 0 0 0 107966485.5831308 3571066.185436123 3571066.185436123 12510088.28556184 0 0 0 0 0 109899557.0514018 2983046.974915374 2983046.974915374 16282226.58897055 0 0 0 0 0 118865277.5376053 424627.6623950197 424627.6623950197 26147472.04314873 0 0 0 0 0 118364683.7177764 138258.5776697246 138258.5776697246 25827495.85970544 0 0 0 0 0 117242095.7481125 894973.8359424693 894973.8359424693 25091676.76221526 0 0 0 0 0 117780321.3395281 994577.9941046338 994577.9941046338 25035770.04296548 0 0 0 0 0 116602205.3234268 1038317.898791817 1038317.898791817 24482073.73697418 0 0 0 0 0 115899498.3142356 1127457.842970754 1127457.842970754 23825329.46612766 0 0 0 0 0 115216466.19053 1194741.980877764 1194741.980877764 23214494.34102036 0 0 0 0 0 114530513.8804165 1268166.816285205 1268166.816285205 22620815.72285626 0 0 0 0 0 113969993.7929641 1388651.079769993 1388651.079769993 22089688.20496692 0 0 0 0 0 113393156.9922202 1503263.730238888 1503263.730238888 21471912.89389749 0 0 0 0 0 113060263.4915402 2136536.68826343 2136536.68826343 20580272.23929868 0 0 0 0 0 112781883.0580446 2043907.06165403 2043907.06165403 20524265.57573402 0 0 0 0 0 112303855.5908161 2096458.420972684 2096458.420972684 19974166.30674201 0 0 0 0 0 111848221.7217485 2143377.479716056 2143377.479716056 19450109.41998795 0 0 0 0 0 111417696.8350529 2185281.078342369 2185281.078342369 18945496.05141596 0 0 0 0 0 111017633.9433782 2228062.41134456 2228062.41134456 18462470.80652893 0 0 0 0 0 110638708.4977389 2266116.198960523 2266116.198960523 17987640.9181539 0 0 0 0 0 110447242.06818 2738934.779632451 2738934.779632451 17268264.37029215 0 0 0 0 0 110249441.4390819 2649000.664470793 2649000.664470793 17134771.6251851 0 0 0 0 0 109916338.5712036 2664070.806609254 2664070.806609254 16696037.95410674 0 0 0 0 0 109775545.894655 3377645.319667564 3377645.319667564 15643072.78188428 0 0 0 0 0 109474090.2892695 3360626.860417692 3360626.860417692 15249474.91594847 0 0 0 0 0 109203238.3240474 3599234.852399917 3599234.852399917 14472516.15165644 0 0 0 0 0 109291596.8529009 3257296.465689969 3257296.465689969 15047450.76476319 0 0 0 0 0 108931253.3753638 3567453.034548 3567453.034548 14117492.16506397 0 0 0 0 0 108662190.9527479 3536800.088895977 3536800.088895977 13776426.52702411 0 0 0 0 0 108397596.5163189 3472078.281068341 3472078.281068341 13255300.17971356 0 0 0 0 0 108185371.1303927 3471271.348621779 3471271.348621779 12807904.79122919 0 0 0 0 0 108023336.1077957 3587012.355611419 3587012.355611419 12524037.9061395 0 0 0 0 0 109772962.8624899 3078841.681675481 3078841.681675481 16039082.36799749 0 0 0 0 0 117995175.5522639 426527.0103118509 426527.0103118509 25429334.33547077 0 0 0 0 0 116972454.9886218 991755.7214816117 991755.7214816117 24239458.83485563 0 0 0 0 0 117472661.3968079 168403.2814883106 168403.2814883106 25194294.25424212 0 0 0 0 0 116252552.6969609 1270139.218419794 1270139.218419794 23906406.81271039 0 0 0 0 0 115558403.2532516 1351151.541318147 1351151.541318147 23316639.90754543 0 0 0 0 0 114884275.4512062 1426932.063882475 1426932.063882475 22728273.70705342 0 0 0 0 0 114264958.544292 1432622.832452977 1432622.832452977 21972081.98553178 0 0 0 0 0 113687635.7834626 1567357.601004406 1567357.601004406 21434941.26938473 0 0 0 0 0 113146597.3253924 1661675.384093771 1661675.384093771 20897292.28764705 0 0 0 0 0 112872091.6850573 1587622.246844338 1587622.246844338 20906466.84454857 0 0 0 0 0 112565912.004324 2190692.390955308 2190692.390955308 20054150.58727918 0 0 0 0 0 112098523.8251997 2238699.81505256 2238699.81505256 19548131.19316498 0 0 0 0 0 111653944.3636835 2278432.99439111 2278432.99439111 19049637.75353054 0 0 0 0 0 111233917.0969128 2310447.313414378 2310447.313414378 18546725.1025799 0 0 0 0 0 110842066.3329892 2345938.711068767 2345938.711068767 18075997.07807411 0 0 0 0 0 110472954.7131505 2376807.764745262 2376807.764745262 17620735.25741218 0 0 0 0 0 110281072.0619782 2298960.318008492 2298960.318008492 17527595.85275017 0 0 0 0 0 110104107.3883883 2751890.296770463 2751890.296770463 16832230.6346176 0 0 0 0 0 109778811.9065731 2761282.80707093 2761282.80707093 16409484.56768441 0 0 0 0 0 109587892.0589561 2982512.839614842 2982512.839614842 15866979.82222771 0 0 0 0 0 109291624.5784363 2979188.66090844 2979188.66090844 15465186.11896926 0 0 0 0 0 109012868.6352723 3242111.644668669 3242111.644668669 14668314.3625372 0 0 0 0 0 109187098.4909216 3341562.065904331 3341562.065904331 14863808.92185568 0 0 0 0 0 108750785.1701901 3227414.019446053 3227414.019446053 14305165.60846414 0 0 0 0 0 108490366.9363667 3186193.943258313 3186193.943258313 13897714.35104733 0 0 0 0 0 108223885.0202617 3269397.048027045 3269397.048027045 13618735.07017689 0 0 0 0 0 108036569.7701195 3313869.858892822 3313869.858892822 13194242.09155223 0 0 0 0 0 107859281.9938877 3331606.478388614 3331606.478388614 12799695.01251862 0 0 0 0 0 109600408.2040056 2675631.014231576 2675631.014231576 16271534.76857364 0 0 0 0 0 116566897.2792403 885511.7644493473 885511.7644493473 24636710.89659883 0 0 0 0 0 117085449.8341234 447694.8885767385 447694.8885767385 24829087.09439319 0 0 0 0 0 116220393.1557632 660908.9838855176 660908.9838855176 24049956.32389596 0 0 0 0 0 115515073.9052902 658368.1394588491 658368.1394588491 23552870.87155226 0 0 0 0 0 114844260.2439913 654155.0758695028 654155.0758695028 22854080.0713747 0 0 0 0 0 114021338.1342849 993544.8839546458 993544.8839546458 22463014.01398794 0 0 0 0 0 113492074.2704401 1044706.397463632 1044706.397463632 21756309.89088853 0 0 0 0 0 112980205.4364238 1118210.771236245 1118210.771236245 21209700.01180767 0 0 0 0 0 112642206.8960606 1735849.948865221 1735849.948865221 20380213.81863873 0 0 0 0 0 112384888.8319012 1660557.36519694 1660557.36519694 20368359.39512013 0 0 0 0 0 111931365.5101138 1722212.772437356 1722212.772437356 19832134.13006622 0 0 0 0 0 111492600.7862558 1777134.260460721 1777134.260460721 19310895.37557054 0 0 0 0 0 111073221.8185123 1834418.745941323 1834418.745941323 18831767.04590967 0 0 0 0 0 110688386.0810422 1883969.513650235 1883969.513650235 18352909.30135718 0 0 0 0 0 110324093.6397285 1931559.119752431 1931559.119752431 17887480.88207078 0 0 0 0 0 110124247.6151426 2403513.951902965 2403513.951902965 17179918.11377125 0 0 0 0 0 109942376.3468147 2327189.874572819 2327189.874572819 17081871.41865964 0 0 0 0 0 109621822.320611 2351320.031889116 2351320.031889116 16650082.10443827 0 0 0 0 0 109468219.3090405 3073077.909728896 3073077.909728896 15637042.11682427 0 0 0 0 0 109177666.9631383 3065013.803217744 3065013.803217744 15244779.17066204 0 0 0 0 0 108914011.6344153 3322152.723268634 3322152.723268634 14494459.27650414 0 0 0 0 0 109009567.4962303 2974707.517272188 2974707.517272188 15077492.96555 0 0 0 0 0 108663292.6820286 3298909.895590339 3298909.895590339 14158426.57375483 0 0 0 0 0 108403960.5967091 3249217.576110846 3249217.576110846 13928757.6604999 0 0 0 0 0 108075815.0270357 3264202.745858424 3264202.745858424 13122304.99555779 0 0 0 0 0 108254430.1168279 3167679.621291883 3167679.621291883 13508338.25351676 0 0 0 0 0 107910862.2588612 3325516.948237255 3325516.948237255 12772857.58905586 0 0 0 0 0 109470107.7960477 2767681.477833016 2767681.477833016 16000020.02206882 0 0 0 0 0 116672223.6699487 180419.0518394568 180419.0518394568 24396572.93511039 0 0 0 0 0 115863675.2251192 860162.1468942682 860162.1468942682 23806095.79779417 0 0 0 0 0 115174339.2734734 876370.3596748404 876370.3596748404 23248289.57859019 0 0 0 0 0 114498558.3948378 847458.477886267 847458.477886267 22673870.12837243 0 0 0 0 0 114229550.0456546 674027.0987943881 674027.0987943881 22105513.64933889 0 0 0 0 0 113773189.2145796 1092277.849312193 1092277.849312193 21714696.55806269 0 0 0 0 0 113252284.4545987 1196172.446890634 1196172.446890634 21214712.80910688 0 0 0 0 0 112740146.7472899 1269267.741393589 1269267.741393589 20636992.0982733 0 0 0 0 0 112477170.7969662 1210738.89860433 1210738.89860433 20694047.66017969 0 0 0 0 0 112169168.415872 1798826.430118124 1798826.430118124 19871494.79136101 0 0 0 0 0 111723332.5890637 1858570.335706819 1858570.335706819 19374004.17620756 0 0 0 0 0 111291914.0818491 1911345.057993839 1911345.057993839 18891110.31724157 0 0 0 0 0 110886736.4382013 1953489.308070922 1953489.308070922 18406799.86530341 0 0 0 0 0 110510113.1996172 1996536.096717163 1996536.096717163 17937142.74568652 0 0 0 0 0 110155361.8442135 2038365.057035813 2038365.057035813 17494863.98574767 0 0 0 0 0 109978271.1889123 1973719.16930259 1973719.16930259 17436837.36053981 0 0 0 0 0 109793902.0659788 2425879.040755502 2425879.040755502 16751905.03366844 0 0 0 0 0 109480973.255731 2444819.270746394 2444819.270746394 16336861.4161369 0 0 0 0 0 109299972.6968865 2683967.222142426 2683967.222142426 15860584.11808212 0 0 0 0 0 109013943.7587035 2690041.88851859 2690041.88851859 15463565.80696285 0 0 0 0 0 108742156.2487646 2968559.430268283 2968559.430268283 14698695.5767571 0 0 0 0 0 108900797.0704702 3055576.582029798 3055576.582029798 14863387.52315465 0 0 0 0 0 108485485.8955265 2953921.835138611 2953921.835138611 14330601.14550864 0 0 0 0 0 108254316.5911417 2935966.43014926 2935966.43014926 13986263.32565012 0 0 0 0 0 107941093.0678343 3045800.485571434 3045800.485571434 13513539.9253785 0 0 0 0 0 108108941.0969819 3003113.392880103 3003113.392880103 13835116.3526024 0 0 0 0 0 107781998.5515313 3092505.888761621 3092505.888761621 13149640.46882109 0 0 0 0 0 109317470.1372009 2371698.526269068 2371698.526269068 16231410.67892307 0 0 0 0 0 116297436.8289388 398818.7586967659 398818.7586967659 24221673.06510476 0 0 0 0 0 115914169.8712418 156311.3264121733 156311.3264121733 23828099.0586348 0 0 0 0 0 115197028.6028448 141806.0170831677 141806.0170831677 23229946.16856882 0 0 0 0 0 114524712.5448842 134776.7865119771 134776.7865119771 22714508.93910536 0 0 0 0 0 113958847.0506755 761174.0491941626 761174.0491941626 22210140.47571685 0 0 0 0 0 113639539.6447157 583228.050049613 583228.050049613 21922869.97475646 0 0 0 0 0 113109528.7174163 626658.3444603975 626658.3444603975 21442128.22389237 0 0 0 0 0 112564146.9051539 716654.0961495289 716654.0961495289 20973472.35647681 0 0 0 0 0 112252061.9091191 1347455.087150739 1347455.087150739 20151835.07542143 0 0 0 0 0 112013869.7660232 1290859.437448943 1290859.437448943 20178126.14712835 0 0 0 0 0 111580881.6926432 1361299.432505267 1361299.432505267 19657159.74742619 0 0 0 0 0 111142580.5526735 1428848.719055583 1428848.719055583 19151635.85088369 0 0 0 0 0 110746170.8890821 1486453.500993193 1486453.500993193 18676135.38072734 0 0 0 0 0 110383581.8437916 1545295.970834455 1545295.970834455 18213106.95297324 0 0 0 0 0 110024915.2682054 1605400.213584224 1605400.213584224 17757346.60419123 0 0 0 0 0 109818999.6367491 2073879.348734258 2073879.348734258 17064065.54530704 0 0 0 0 0 109652532.5572435 2010610.977855185 2010610.977855185 16999906.89578855 0 0 0 0 0 109344009.3604858 2043561.097861451 2043561.097861451 16575964.12538729 0 0 0 0 0 109176205.0038904 2771432.730804722 2771432.730804722 15602660.16517953 0 0 0 0 0 108895747.6887258 2772831.653212898 2772831.653212898 15215741.6224599 0 0 0 0 0 108643037.2404748 3041411.250440577 3041411.250440577 14497742.54790073 0 0 0 0 0 108742015.513196 2694575.91705046 2694575.91705046 15079530.04944013 0 0 0 0 0 108399527.6443158 3021786.777925991 3021786.777925991 14155996.10376843 0 0 0 0 0 108184237.1022658 2995779.10885536 2995779.10885536 13801600.41335748 0 0 0 0 0 107809060.22828 3050171.838667565 3050171.838667565 13071785.99990467 0 0 0 0 0 107992691.9543721 3006187.635996526 3006187.635996526 13442626.66712754 0 0 0 0 0 109183486.3302744 2460808.510879842 2460808.510879842 15934559.12839062 0 0 0 0 0 115546618.7234719 368201.4370893255 368201.4370893255 23596860.51623869 0 0 0 0 0 114865132.6133445 342762.450297933 342762.450297933 23005316.95378825 0 0 0 0 0 114197809.1646353 336613.8133700885 336613.8133700885 22451508.58626774 0 0 0 0 0 113904910.7152768 153555.8921204525 153555.8921204525 22116060.59029395 0 0 0 0 0 113398275.2000122 747582.3027898584 747582.3027898584 21535829.0301659 0 0 0 0 0 112843533.2925794 808859.3555730071 808859.3555730071 20986009.32873981 0 0 0 0 0 112334735.4246801 815255.6924707789 815255.6924707789 20294862.32701891 0 0 0 0 0 112104335.4194845 856813.2871627451 856813.2871627451 20480252.80558064 0 0 0 0 0 111798843.2886702 1422416.088673514 1422416.088673514 19668111.20909524 0 0 0 0 0 111369004.8309946 1498086.656802208 1498086.656802208 19178981.73877972 0 0 0 0 0 110949585.1342805 1548551.509692837 1548551.509692837 18697274.23455108 0 0 0 0 0 110560698.8933787 1598464.981818677 1598464.981818677 18226788.54507196 0 0 0 0 0 110199294.5523098 1657128.059282044 1657128.059282044 17768387.5987306 0 0 0 0 0 109855073.0998195 1707121.564402506 1707121.564402506 17343093.17261558 0 0 0 0 0 109692719.997394 1655115.898355643 1655115.898355643 17318048.7229275 0 0 0 0 0 109501208.5832582 2105539.998386014 2105539.998386014 16645117.84542651 0 0 0 0 0 109199947.3371959 2134300.797715036 2134300.797715036 16239511.86518484 0 0 0 0 0 109027399.5720887 2389109.472435017 2389109.472435017 15826395.48294048 0 0 0 0 0 108750633.4067079 2403956.237204368 2403956.237204368 15434781.51804677 0 0 0 0 0 108480368.6879883 2695807.984985999 2695807.984985999 14703041.87774816 0 0 0 0 0 108629368.919899 2771684.536116411 2771684.536116411 14835743.22108456 0 0 0 0 0 108231933.8603022 2692220.522481646 2692220.522481646 14337789.03784817 0 0 0 0 0 108033318.8895023 2715448.852654124 2715448.852654124 14036715.22697698 0 0 0 0 0 107704210.751708 2837619.878766631 2837619.878766631 13454969.95492209 0 0 0 0 0 107849367.1759973 2769441.606191559 2769441.606191559 13765886.48232137 0 0 0 0 0 109049326.5835172 2072726.491224459 2072726.491224459 16164500.09953313 0 0 0 0 0 113638500.5043835 316915.1075117249 316915.1075117249 21879963.20372466 0 0 0 0 0 113345168.349909 146959.1113805304 146959.1113805304 21657736.47952701 0 0 0 0 0 112781293.6563584 157603.9878377127 157603.9878377127 21069116.94358253 0 0 0 0 0 112126079.2204937 498967.6778549491 498967.6778549491 20704416.47261839 0 0 0 0 0 111877889.870136 955712.9902757067 955712.9902757067 19816119.4800931 0 0 0 0 0 111671349.6547784 962750.5512219876 962750.5512219876 19932121.27734079 0 0 0 0 0 111221986.6335703 1007890.661574974 1007890.661574974 19421179.42191235 0 0 0 0 0 110832137.2440444 1070440.939209747 1070440.939209747 18963837.85223823 0 0 0 0 0 110442749.9779513 1156923.959685771 1156923.959685771 18497892.55915096 0 0 0 0 0 110092746.1982142 1219710.851372656 1219710.851372656 18039489.62270584 0 0 0 0 0 109739289.1034908 1289668.143758505 1289668.143758505 17598575.30642642 0 0 0 0 0 109531453.4597571 1750996.313241668 1750996.313241668 16922438.64599668 0 0 0 0 0 109380569.6028606 1700508.970903946 1700508.970903946 16890915.85888935 0 0 0 0 0 109080708.6911893 1741987.235008417 1741987.235008417 16475164.50213803 0 0 0 0 0 108899868.2007574 2473722.876690113 2473722.876690113 15542955.07090303 0 0 0 0 0 108628683.1064569 2484726.710954529 2484726.710954529 15163808.92517015 0 0 0 0 0 108375234.5946513 2768343.021293711 2768343.021293711 14477126.19914018 0 0 0 0 0 108485354.0908282 2416546.792524792 2416546.792524792 15056247.57481329 0 0 0 0 0 108130973.2380512 2764617.91856567 2764617.91856567 14122319.02558923 0 0 0 0 0 107929658.3094425 2755265.157136068 2755265.157136068 13713026.51035297 0 0 0 0 0 107724575.7498977 2778512.097161557 2778512.097161557 13350205.5409532 0 0 0 0 0 108912496.310703 2158793.16506966 2158793.16506966 15844616.11738598 0 0 0 0 0 113068028.1820061 331054.4230296424 331054.4230296424 21331941.91572069 0 0 0 0 0 112504340.6294023 324645.5430683992 324645.5430683992 20836239.57300486 0 0 0 0 0 111885533.7407651 538470.8233699672 538470.8233699672 19914569.13347128 0 0 0 0 0 112259720.9410739 164694.8923296664 164694.8923296664 20381168.81170177 0 0 0 0 0 111685880.61971 658069.6993347659 658069.6993347659 20149476.96880125 0 0 0 0 0 111448438.7861171 1110427.290460598 1110427.290460598 19538643.36309654 0 0 0 0 0 111029810.982537 1123137.532288406 1123137.532288406 18962527.78619851 0 0 0 0 0 110626048.1574925 1189472.411566836 1189472.411566836 18450146.394555 0 0 0 0 0 110256311.8472567 1267896.651993343 1267896.651993343 18048750.53396609 0 0 0 0 0 109904941.9972313 1328539.110288234 1328539.110288234 17569216.62813153 0 0 0 0 0 109571958.6723361 1383601.841424819 1383601.841424819 17169814.60836479 0 0 0 0 0 109428295.6335593 1344249.84641388 1344249.84641388 17173609.47767565 0 0 0 0 0 109226228.2553285 1793264.515903834 1793264.515903834 16515668.34429951 0 0 0 0 0 108934178.41712 1830003.446699397 1830003.446699397 16118909.50843371 0 0 0 0 0 108769372.272362 2098315.818242895 2098315.818242895 15765865.37598629 0 0 0 0 0 108502160.6303923 2121263.311709168 2121263.311709168 15380187.59974637 0 0 0 0 0 108230936.3086935 2423970.626254793 2423970.626254793 14682869.45904859 0 0 0 0 0 108369429.0537023 2491998.0337083 2491998.0337083 14794960.41997164 0 0 0 0 0 107996679.078533 2432275.177088841 2432275.177088841 14328290.55285444 0 0 0 0 0 107788039.9706903 2469590.7876088 2469590.7876088 14025487.68222726 0 0 0 0 0 107628767.5324487 2570330.645355184 2570330.645355184 13721853.36345109 0 0 0 0 0 108795475.0490669 1779109.612670344 1779109.612670344 16072512.31783819 0 0 0 0 0 111796861.4444781 129341.4495596869 129341.4495596869 20167138.97919996 0 0 0 0 0 112037542.6466684 252672.3413711185 252672.3413711185 20342868.33186892 0 0 0 0 0 111487460.4032422 598226.0090195489 598226.0090195489 19523633.74094454 0 0 0 0 0 110914002.3063071 713518.7012423824 713518.7012423824 19254303.9534671 0 0 0 0 0 110539644.418507 793998.3357288869 793998.3357288869 18729721.61281172 0 0 0 0 0 110153497.2881516 835365.55317409 835365.55317409 18247244.40848454 0 0 0 0 0 109812007.6009518 878714.5588801787 878714.5588801787 17852793.58325238 0 0 0 0 0 109502672.1900458 962012.9405342632 962012.9405342632 17439181.79717374 0 0 0 0 0 109263814.8722983 1439584.076785998 1439584.076785998 16762082.48388113 0 0 0 0 0 109122410.874833 1398381.807935742 1398381.807935742 16756512.25962717 0 0 0 0 0 108831573.3174005 1447424.711287973 1447424.711287973 16351473.9447881 0 0 0 0 0 108638781.1174415 2180358.007464921 2180358.007464921 15460346.22322017 0 0 0 0 0 108376427.7734419 2200430.279541659 2200430.279541659 15086442.24837381 0 0 0 0 0 108121847.7395521 2496678.349184375 2496678.349184375 14441538.25633227 0 0 0 0 0 108240879.9139288 2142517.660590514 2142517.660590514 15009632.6452993 0 0 0 0 0 107885258.2823214 2505325.263634732 2505325.263634732 14069975.58605797 0 0 0 0 0 107652138.7061423 2487925.084727213 2487925.084727213 13576844.66313952 0 0 0 0 0 108656426.1454179 1862340.278893128 1862340.278893128 15733414.79422613 0 0 0 0 0 111558589.2896716 279606.2963402613 279606.2963402613 19833562.07937372 0 0 0 0 0 111249467.7040509 649768.5870657086 649768.5870657086 19586312.93557654 0 0 0 0 0 110703878.5390845 847500.0687023511 847500.0687023511 18767899.42744051 0 0 0 0 0 111050979.7592462 553384.5774148696 553384.5774148696 19024727.28737362 0 0 0 0 0 110345911.3217335 915744.9058965873 915744.9058965873 18323317.94767343 0 0 0 0 0 109974188.920127 955149.3070485188 955149.3070485188 17919969.24909222 0 0 0 0 0 109625778.8184148 970129.8154135098 970129.8154135098 17333254.66883164 0 0 0 0 0 109314146.0441666 1068112.480974946 1068112.480974946 16958349.32719193 0 0 0 0 0 109178122.4509266 1044317.434785316 1044317.434785316 17009302.87207557 0 0 0 0 0 108966142.9774952 1488630.246186234 1488630.246186234 16364963.66251346 0 0 0 0 0 108683091.9822325 1533091.671712908 1533091.671712908 15978604.59394803 0 0 0 0 0 108525512.4961743 1812264.619144121 1812264.619144121 15681779.41054573 0 0 0 0 0 108269494.7953882 1844325.146102956 1844325.146102956 15302736.60536118 0 0 0 0 0 108000412.5106514 2154669.578241907 2154669.578241907 14639087.25217127 0 0 0 0 0 108124486.9871817 2213724.270435343 2213724.270435343 14731839.9386781 0 0 0 0 0 107766338.2231794 2151841.063832005 2151841.063832005 14257864.25319638 0 0 0 0 0 107561772.9706317 2303953.664340005 2303953.664340005 13967552.7164554 0 0 0 0 0 108553554.3903501 1491455.246989782 1491455.246989782 15958037.82213182 0 0 0 0 0 111318553.7147488 129031.0435460424 129031.0435460424 19533618.90903581 0 0 0 0 0 110693542.2124639 459951.828557914 459951.828557914 18857990.87324768 0 0 0 0 0 110916735.4830038 592434.9008169625 592434.9008169625 19129087.55724058 0 0 0 0 0 110312991.5777742 470199.7259663178 470199.7259663178 18460360.04312899 0 0 0 0 0 109936634.3407699 470966.7695210883 470966.7695210883 17950521.42996605 0 0 0 0 0 109526279.3310365 621193.8242958954 621193.8242958954 17704858.44551163 0 0 0 0 0 109251349.8165672 684198.602266657 684198.602266657 17229155.34229504 0 0 0 0 0 109010973.693378 1136598.859373526 1136598.859373526 16577684.10721792 0 0 0 0 0 108882469.2643047 1108038.492389968 1108038.492389968 16597617.61251935 0 0 0 0 0 108588766.7327982 1164581.52702563 1164581.52702563 16203418.65968307 0 0 0 0 0 108391778.2507005 1891788.879113815 1891788.879113815 15353720.8760736 0 0 0 0 0 108137200.6509393 1920859.405926675 1920859.405926675 14971266.42695776 0 0 0 0 0 107893712.2432839 2227287.301470487 2227287.301470487 14416728.93633697 0 0 0 0 0 108010763.7404618 1879454.997364132 1879454.997364132 14939678.23652628 0 0 0 0 0 107680580.9580855 2214037.607735689 2214037.607735689 14147433.03220954 0 0 0 0 0 107540250.287172 2136048.681827712 2136048.681827712 13772557.13796959 0 0 0 0 0 108413818.406412 1570678.940301227 1570678.940301227 15602547.6197318 0 0 0 0 0 111086312.6356816 252660.9277975801 252660.9277975801 19377711.69009872 0 0 0 0 0 110505676.5626832 574610.4353845408 574610.4353845408 18631843.64746803 0 0 0 0 0 110892653.4894615 127708.6984284794 127708.6984284794 19084553.96116172 0 0 0 0 0 110125374.8118073 588771.5868448528 588771.5868448528 18200373.21364891 0 0 0 0 0 109808619.6380714 532501.711343821 532501.711343821 17974688.16689835 0 0 0 0 0 109338932.2227801 672109.7829188085 672109.7829188085 17107281.73250144 0 0 0 0 0 109610341.8471853 463182.7641558405 463182.7641558405 17356930.3279532 0 0 0 0 0 109070671.892734 774341.8913437729 774341.8913437729 16728460.38754149 0 0 0 0 0 108945288.224071 770885.9448808433 770885.9448808433 16811210.9542444 0 0 0 0 0 108722059.7784877 1201139.402549225 1201139.402549225 16200234.74075309 0 0 0 0 0 108443363.6156222 1241972.378850936 1241972.378850936 15816940.57525661 0 0 0 0 0 108296439.9602547 1530846.03683529 1530846.03683529 15575853.77467732 0 0 0 0 0 108035292.370376 1589297.954048449 1589297.954048449 15219628.71457358 0 0 0 0 0 107791899.0078493 1884418.404639799 1884418.404639799 14566629.9472866 0 0 0 0 0 107902326.0148913 1942692.391556974 1942692.391556974 14672285.40880466 0 0 0 0 0 107580716.8621286 1897776.939488936 1897776.939488936 14275248.67287829 0 0 0 0 0 107491302.0202937 2021964.159385541 2021964.159385541 14149501.52223826 0 0 0 0 0 108332334.8583723 1213009.232522009 1213009.232522009 15825521.81447403 0 0 0 0 0 110504081.1288999 116396.7829167122 116396.7829167122 18665072.75145086 0 0 0 0 0 110702892.0230407 237963.8815989248 237963.8815989248 18900094.59045478 0 0 0 0 0 110125110.7795198 120847.8686756927 120847.8686756927 18244674.26551095 0 0 0 0 0 109747915.2674471 112895.2955188463 112895.2955188463 17756835.2450139 0 0 0 0 0 109284305.8034868 365841.4508412374 365841.4508412374 17444710.32064668 0 0 0 0 0 109520691.9017749 230650.7789815433 230650.7789815433 17722448.48705385 0 0 0 0 0 108997880.0272647 439945.1482159123 439945.1482159123 17004112.86535166 0 0 0 0 0 108779508.1865225 867618.8558078189 867618.8558078189 16406588.79013729 0 0 0 0 0 108644151.4949969 827111.4529196837 827111.4529196837 16395778.37746365 0 0 0 0 0 108374834.1736934 894296.703559425 894296.703559425 16036475.96473904 0 0 0 0 0 108153405.4578863 1613342.481630111 1613342.481630111 15216670.36030088 0 0 0 0 0 107902724.6660325 1628966.472762495 1628966.472762495 14800621.75372956 0 0 0 0 0 107693662.5797225 1954529.348952858 1954529.348952858 14357118.3359711 0 0 0 0 0 107799161.1339506 1620572.779643416 1620572.779643416 14821914.67963345 0 0 0 0 0 107467168.1343093 1950453.217585073 1950453.217585073 13948421.93160383 0 0 0 0 0 108189197.4475075 1292042.752635462 1292042.752635462 15454480.18860854 0 0 0 0 0 110307841.966417 233574.7203342795 233574.7203342795 18455134.96986865 0 0 0 0 0 109945976.1219678 234750.4431803023 234750.4431803023 18017889.22121681 0 0 0 0 0 109627477.4547411 205550.9332062728 205550.9332062728 17565774.73420159 0 0 0 0 0 109343428.4419117 209057.1066573648 209057.1066573648 17133756.64389406 0 0 0 0 0 109105067.9105279 438807.0545053396 438807.0545053396 16909249.19696604 0 0 0 0 0 108841402.2158257 522491.0130052312 522491.0130052312 16585719.78855391 0 0 0 0 0 108704375.9777399 470253.7411994028 470253.7411994028 16549983.17450637 0 0 0 0 0 108489409.2495802 907414.9583944193 907414.9583944193 15977645.67144501 0 0 0 0 0 108231218.1230561 970117.3712784711 970117.3712784711 15652481.27521978 0 0 0 0 0 108084511.1599175 1250980.618941042 1250980.618941042 15423241.93219125 0 0 0 0 0 107824567.7131872 1482800.246986066 1482800.246986066 15069722.00185369 0 0 0 0 0 107587633.8277464 1620681.912179015 1620681.912179015 14491875.70425282 0 0 0 0 0 107695375.838106 1690238.458458315 1690238.458458315 14672255.08216838 0 0 0 0 0 107429920.079364 1714094.045323061 1714094.045323061 14307061.56256617 0 0 0 0 0 108141113.9079132 957865.8557183158 957865.8557183158 15689174.58358403 0 0 0 0 0 109251665.3436312 208601.7436604655 208601.7436604655 17271951.11615451 0 0 0 0 0 109088595.9576416 107628.6987910002 107628.6987910002 17037824.93288638 0 0 0 0 0 108778099.0487051 112623.4239296765 112623.4239296765 16675484.65824123 0 0 0 0 0 108542559.6601702 559827.5940669541 559827.5940669541 16125956.86782555 0 0 0 0 0 108415927.5896429 554410.6735392057 554410.6735392057 16221085.96628819 0 0 0 0 0 108191751.0729703 660953.0441779565 660953.0441779565 15899462.66369183 0 0 0 0 0 107957921.03146 1331374.185116605 1331374.185116605 15169050.10662451 0 0 0 0 0 107837633.7653595 1256174.186407723 1256174.186407723 14909602.90480276 0 0 0 0 0 107658010.7235065 1419261.782707038 1419261.782707038 14560308.41975249 0 0 0 0 0 107476107.0262338 1679502.905754748 1679502.905754748 14190777.81656286 0 0 0 0 0 108004941.7466137 1028626.931095372 1028626.931095372 15321585.66686593 0 0 0 0 0 108947898.3362702 198437.1858176996 198437.1858176996 16800385.83486691 0 0 0 0 0 108620275.0010587 215247.3113003325 215247.3113003325 16418914.50320703 0 0 0 0 0 108483554.5277141 136677.1903007017 136677.1903007017 16300948.08616675 0 0 0 0 0 108257414.73475 594377.3801255366 594377.3801255366 15712211.41084053 0 0 0 0 0 108037587.0730611 748631.4708335884 748631.4708335884 15510028.09647937 0 0 0 0 0 107927266.6920039 1011906.86701685 1011906.86701685 15360070.81096598 0 0 0 0 0 107767801.1569746 1187177.818882512 1187177.818882512 15137283.26149162 0 0 0 0 0 107589229.284443 1322192.686013286 1322192.686013286 14839641.40430409 0 0 0 0 0 107390434.3346534 1411464.862790394 1411464.862790394 14480716.6177986 0 0 0 0 0 107952760.876241 715068.7759270592 715068.7759270592 15519576.21510323 0 0 0 0 0 108336476.9847129 232504.9853324839 232504.9853324839 16062265.29627831 0 0 0 0 0 108169038.7816636 510609.4720684062 510609.4720684062 15944280.47013483 0 0 0 0 0 108025212.0850878 425291.9700077226 425291.9700077226 15601867.05849418 0 0 0 0 0 107774694.7246411 1073268.698489894 1073268.698489894 14899500.34022867 0 0 0 0 0 107605459.9464545 1167015.101576787 1167015.101576787 14600769.67445603 0 0 0 0 0 107429624.9435501 1314807.089347467 1314807.089347467 14301752.62840668 0 0 0 0 0 107807448.0008101 796753.1334767586 796753.1334767586 15149616.74763194 0 0 0 0 0 108194134.8309208 140285.8394795083 140285.8394795083 15801208.12891776 0 0 0 0 0 107905070.6856573 498003.619782525 498003.619782525 15454443.53743639 0 0 0 0 0 107732792.9207916 803953.5081732271 803953.5081732271 15240439.19113726 0 0 0 0 0 107546857.8060228 972680.9408574472 972680.9408574472 14959635.57077157 0 0 0 0 0 107359364.0571315 1108043.558529038 1108043.558529038 14623660.07098692 0 0 0 0 0 107779929.3294966 420386.6504702202 420386.6504702202 15292716.78294211 0 0 0 0 0 108077957.1626648 208240.4393648124 208240.4393648124 15707721.99362378 0 0 0 0 0 107938344.2547915 117393.664629252 117393.664629252 15478363.64820604 0 0 0 0 0 107567207.5304453 829344.9784242961 829344.9784242961 14694986.46655104 0 0 0 0 0 107377267.0264624 973464.9765650842 973464.9765650842 14393406.25559128 0 0 0 0 0 107668269.0897105 489427.2335805566 489427.2335805566 15160639.91591858 0 0 0 0 0 107804576.6203605 194275.652914012 194275.652914012 15355135.4273179 0 0 0 0 0 107514097.5262966 666002.446556188 666002.446556188 15037672.36720019 0 0 0 0 0 107322903.9280602 794797.7111976754 794797.7111976754 14688356.39130687 0 0 0 0 0 107535819.497325 423530.9256625121 423530.9256625121 14788742.19844309 0 0 0 0 0 107667838.43731 103684.7767053982 103684.7767053982 15114177.69674248 0 0 0 0 0 107332128.8556298 647420.0481816171 647420.0481816171 14434642.93892838 0 0 0 0 0 107471702.2521589 394664.6824016316 394664.6824016316 14967170.81365833 0 0 0 0 0 107549399.5154192 173778.6686952715 173778.6686952715 15024731.29142411 0 0 0 0 0 107300077.774247 475632.8620381933 475632.8620381933 14737067.52598151 0 0 0 0 0 107437460.6965411 102244.2244717887 102244.2244717887 14822535.58795232 0 0 0 0 0 107332343.783491 360010.9558812231 360010.9558812231 14519294.64686353 0 0 0 0 0 107359029.6021929 155793.9585753382 155793.9585753382 14676478.45115174 0 0 0 0 0 107278331.9953703 147535.1825764992 147535.1825764992 14727174.95271021 0 0 0 0 0 </DataArray>
        <DataArray type="Float64" Name="von_mises_stress" format="ascii" NumberOfComponents="3">72524140.95353748 0 0 72515953.92256361 0 0 72169822.90293026 0 0 72751614.69859312 0 0 71906549.80384274 0 0 72157185.53622647 0 0 72512120.93504709 0 0 71624701.44919482 0 0 71928918.86567789 0 0 72889703.80075662 0 0 71241674.32270654 0 0 71560714.84714285 0 0 72005664.07656141 0 0 72622684.37408561 0 0 72076650.6986645 0 0 70934447.07684477 0 0 71312896.14490858 0 0 71500575.43970151 0 0 73061934.99626909 0 0 72797109.58025557 0 0 72453226.54098511 0 0 70558738.51490714 0 0 70873286.5735516 0 0 71357203.0669132 0 0 71750624.35770001 0 0 72308975.79834241 0 0 73281788.02470599 0 0 73038751.39846288 0 0 71733181.01053441 0 0 70131421.10401864 0 0 70949321.92924868 0 0 70818500.22099443 0 0 71154602.39614111 0 0 72738407.05738109 0 0 72519304.41170663 0 0 73542781.74395344 0 0 73393015.89265981 0 0 72121565.60657883 0 0 69859106.97410874 0 0 70349358.36200507 0 0 70223236.25639656 0 0 71083502.19620067 0 0 71417250.49512678 0 0 72106652.7234581 0 0 72925432.56772098 0 0 72715099.69198102 0 0 73875606.73282506 0 0 71536310.58984344 0 0 69749291.88791834 0 0 69416302.45737085 0 0 70556534.61810984 0 0 70429422.20163266 0 0 70811220.13237372 0 0 72380734.68458749 0 0 73191216.11398216 0 0 73733578.68337488 0 0 73029078.70659813 0 0 71838854.61449687 0 0 69186166.63148525 0 0 69847351.40975602 0 0 69682882.0765755 0 0 70792572.4581499 0 0 71203281.18580511 0 0 71990742.7737195 0 0 72417288.79678996 0 0 74267912.85742183 0 0 73646674.54659973 0 0 74148925.55970882 0 0 74671853.04735851 0 0 71275312.5653933 0 0 68767751.23185062 0 0 68981803.92854008 0 0 70086125.74154578 0 0 70085869.95910192 0 0 70545282.98383313 0 0 72372515.72459894 0 0 72945474.85405824 0 0 73469282.92771806 0 0 72864421.10050492 0 0 74697528.03541762 0 0 75220029.27720307 0 0 75200122.64290741 0 0 71660693.60227963 0 0 68434343.53917375 0 0 68945324.5759325 0 0 69402336.07135254 0 0 69360787.30948448 0 0 70491428.59039475 0 0 70956207.47809738 0 0 71758995.51725012 0 0 72314769.38182552 0 0 73661465.9939023 0 0 73390498.84046046 0 0 74129357.04484271 0 0 74611602.46583536 0 0 75801282.29903173 0 0 75784209.87930912 0 0 76423111.52979912 0 0 71046615.73315248 0 0 67939257.86203429 0 0 68229576.15537146 0 0 68606653.00844818 0 0 69749876.20451848 0 0 69808763.67822708 0 0 70315623.59569234 0 0 72191585.5369079 0 0 72743525.23599979 0 0 73863568.97825487 0 0 72898515.04343396 0 0 74576299.8870503 0 0 75140873.10249507 0 0 75084090.46887635 0 0 76402282.35429201 0 0 77053608.6297816 0 0 77084951.87442103 0 0 71472813.88133949 0 0 67670835.03694373 0 0 68125411.76886493 0 0 68585245.77292901 0 0 69023012.46000516 0 0 69043157.0547052 0 0 70221641.12396616 0 0 70747609.97522867 0 0 71605482.27241121 0 0 72209682.09310168 0 0 73500257.55235016 0 0 73364795.58867784 0 0 74341601.5551945 0 0 74412702.78251623 0 0 75671267.20439512 0 0 75621391.62056005 0 0 76349357.91377157 0 0 77724176.79485099 0 0 70877536.40276377 0 0 67187190.76141229 0 0 67503410.04637106 0 0 67814507.76684991 0 0 68249970.74843538 0 0 69457301.34452423 0 0 69569974.00328447 0 0 70131181.84120265 0 0 72059125.43002799 0 0 72677868.36755112 0 0 73911698.32226986 0 0 72845449.38584517 0 0 74863561.9404873 0 0 74859016.73517998 0 0 76318173.91633271 0 0 77046809.18237373 0 0 77764340.52400926 0 0 77137598.09502436 0 0 71344195.3677537 0 0 66891433.53071383 0 0 67281816.76243185 0 0 67776649.82895772 0 0 68237780.87672365 0 0 68689403.52539347 0 0 68763184.24620271 0 0 69994754.63431931 0 0 70600895.03896898 0 0 71496901.52487299 0 0 72171732.69593163 0 0 73471713.24621168 0 0 73336276.93617746 0 0 74127367.73483308 0 0 75027262.54206955 0 0 75708853.17397268 0 0 76497173.93728477 0 0 78446551.12982723 0 0 77826157.44564986 0 0 78502748.52020608 0 0 79281136.12153646 0 0 70749513.70715985 0 0 66501744.52663106 0 0 66807023.18314508 0 0 67051035.20607819 0 0 67421612.61905956 0 0 67941971.78995496 0 0 69206613.53603671 0 0 69358230.23842686 0 0 69977282.45995893 0 0 71964551.55209988 0 0 72617050.66854446 0 0 74088801.17781046 0 0 72851175.63463371 0 0 74709461.18128884 0 0 75454195.35661255 0 0 76366263.6921953 0 0 77164717.72963442 0 0 77843636.46742326 0 0 77351784.10398971 0 0 79171989.20703876 0 0 79941707.51526861 0 0 79997598.76527417 0 0 71249007.95941614 0 0 66052490.53010713 0 0 66396364.90657045 0 0 67003250.00863619 0 0 67414061.54670069 0 0 67896682.00098111 0 0 68404546.51996908 0 0 68557810.31842312 0 0 69825430.5383579 0 0 70494853.03357306 0 0 71429526.16854812 0 0 72152099.85951521 0 0 73540391.02394009 0 0 73304395.13628386 0 0 74303031.26055494 0 0 75111385.77104604 0 0 75917059.15628074 0 0 76764188.32073317 0 0 78311388.40730317 0 0 77837095.52677844 0 0 79088786.95219548 0 0 79239551.06877814 0 0 80711516.66954786 0 0 80776934.80787304 0 0 82563593.26843764 0 0 81685900.25982702 0 0 70685336.89006476 0 0 65783260.29745024 0 0 66444043.32699995 0 0 66128721.75888953 0 0 66569692.30659662 0 0 67100707.50930697 0 0 67718295.29015397 0 0 69013941.38164224 0 0 69210502.0259572 0 0 69894876.15037611 0 0 71926355.45791997 0 0 72626357.91961056 0 0 74062579.28819531 0 0 72889293.97788531 0 0 74872070.38804184 0 0 75639600.83954799 0 0 76515224.20120429 0 0 77383640.21998994 0 0 78516102.33824866 0 0 77684626.55922212 0 0 79901441.16077633 0 0 79962437.5626031 0 0 81529124.63552831 0 0 82380968.87922652 0 0 83217432.17476259 0 0 83333633.93245554 0 0 71185165.23608434 0 0 65228775.85061642 0 0 65651672.70981971 0 0 66599262.98528367 0 0 67055160.98765539 0 0 67612856.56865792 0 0 68199758.97616121 0 0 68384203.87326153 0 0 69694640.58451828 0 0 70442899.67418721 0 0 71421506.25951336 0 0 72194963.76876248 0 0 73656126.43636432 0 0 73386402.67887096 0 0 74482063.09198409 0 0 75331977.0209976 0 0 76204877.4592343 0 0 77090710.84608798 0 0 78519076.38094474 0 0 78143617.78809921 0 0 79357612.79128993 0 0 80392293.50964685 0 0 81174337.30758929 0 0 82098107.26646787 0 0 83013570.46644394 0 0 83873149.71862553 0 0 70665712.86465845 0 0 64821060.39743421 0 0 65396592.00292004 0 0 65761770.29896709 0 0 66231304.04122593 0 0 66831952.08445609 0 0 67533609.20622192 0 0 68889616.0757276 0 0 69115061.13950132 0 0 69870818.37188233 0 0 71923614.80649593 0 0 72695192.84701972 0 0 74197414.98943508 0 0 72983706.89965884 0 0 75030359.2741327 0 0 75863511.94088902 0 0 76758035.8929626 0 0 77664615.61225112 0 0 79074468.69132711 0 0 78009868.55923294 0 0 79947411.47793227 0 0 80789220.42565148 0 0 81812989.39452264 0 0 82686813.59133112 0 0 83384751.03722967 0 0 84038904.83940165 0 0 84407995.82623574 0 0 71184957.57499786 0 0 64343712.48081285 0 0 64952927.26524991 0 0 65609797.14532071 0 0 66201375.88249151 0 0 66759521.03822288 0 0 67384288.71700773 0 0 68049602.01441312 0 0 68272735.80970664 0 0 69629098.63631195 0 0 70442609.98936746 0 0 71464275.45824443 0 0 72286654.64223053 0 0 73818406.0094355 0 0 73516557.81671846 0 0 74699499.30076888 0 0 75599352.58304919 0 0 76522228.14329928 0 0 77457417.39833875 0 0 78897231.44595717 0 0 78540701.00298534 0 0 79836271.02102345 0 0 80745277.18275273 0 0 81638834.59747428 0 0 82574290.59539273 0 0 83524849.61995408 0 0 84471940.73819011 0 0 84950216.02652818 0 0 85186794.20904757 0 0 70717052.79834107 0 0 63950698.56700203 0 0 64501550.12917047 0 0 64819683.14408061 0 0 65326744.31182413 0 0 65934631.14747196 0 0 66628001.24193569 0 0 67400716.09287888 0 0 68815414.24190399 0 0 69088354.25849152 0 0 69913318.24098784 0 0 71986684.09834369 0 0 72823011.25628079 0 0 74384248.63235097 0 0 73128955.54521206 0 0 75266335.0136642 0 0 76163540.10375896 0 0 77083136.90394957 0 0 78024208.08188926 0 0 79432698.44543806 0 0 78400157.12964348 0 0 80384803.35991982 0 0 81260808.60652761 0 0 82236241.48338951 0 0 83132811.00345519 0 0 83930037.34954153 0 0 84572686.46084501 0 0 85744346.62170392 0 0 85958149.22122876 0 0 71251488.28800553 0 0 63407764.35556898 0 0 63884980.58438858 0 0 64769143.53427258 0 0 65326249.96478325 0 0 65872046.34960012 0 0 66514321.74318642 0 0 67222149.36865012 0 0 67979493.76157093 0 0 68229045.75128332 0 0 69624823.09005645 0 0 70507294.27993411 0 0 71561959.91603287 0 0 72452927.54193008 0 0 74036980.55100034 0 0 73713040.9989596 0 0 74971935.27019514 0 0 75923648.95211901 0 0 76891975.35620227 0 0 77870470.36982255 0 0 79345543.13130625 0 0 78946483.18190379 0 0 80299431.61725019 0 0 81240819.80850323 0 0 82177459.51874544 0 0 83115233.06473264 0 0 84049173.70693581 0 0 85280086.6182142 0 0 85991960.56599407 0 0 86696729.06183721 0 0 85356933.65368284 0 0 86851335.53447001 0 0 87765833.83184405 0 0 70812965.66870163 0 0 62800948.76678262 0 0 64091935.49267647 0 0 63822630.26758269 0 0 64401298.73482265 0 0 65014357.88604492 0 0 65713803.2817031 0 0 66494909.81861717 0 0 67350648.2703269 0 0 68812458.4382492 0 0 69113462.94606571 0 0 70029293.22984174 0 0 72098654.43217517 0 0 73007769.5707479 0 0 74628005.18435986 0 0 73359805.82919797 0 0 75560932.48818086 0 0 76509522.44866815 0 0 77474236.87952079 0 0 78444385.19311303 0 0 79887234.78854008 0 0 78849780.03758849 0 0 80838644.70476252 0 0 81750668.50125077 0 0 82705622.68048429 0 0 83621945.09995328 0 0 84607694.54667543 0 0 84915632.37511852 0 0 86175514.73160671 0 0 85871389.43973339 0 0 87512081.86420974 0 0 88331285.37206247 0 0 88592178.67383048 0 0 71378949.7254124 0 0 62457917.05983827 0 0 63078592.72503826 0 0 63070528.91733949 0 0 64376796.7725018 0 0 64966994.53997299 0 0 65610402.69008653 0 0 66336851.87204281 0 0 67128938.09206492 0 0 67976506.15758628 0 0 68264681.97261469 0 0 69698884.01538379 0 0 70642854.72827455 0 0 71738553.07793961 0 0 72688626.35459411 0 0 74319425.69770047 0 0 73967303.63142747 0 0 75304767.176238 0 0 76306608.59781368 0 0 77319249.35853767 0 0 78337012.40149575 0 0 79833519.02801561 0 0 79414903.87059215 0 0 80816266.38201495 0 0 81785966.89527152 0 0 82752716.34880343 0 0 83705960.66912797 0 0 84642938.84567328 0 0 85463029.98390716 0 0 86733766.402753 0 0 86168638.65990385 0 0 87507331.20521919 0 0 88372375.67416108 0 0 89190834.06338552 0 0 89480879.03141354 0 0 90247302.74028482 0 0 70996878.27963479 0 0 61843862.07872567 0 0 62053026.72480167 0 0 63484755.07849054 0 0 63487457.31936117 0 0 64069565.81606218 0 0 64768624.74217508 0 0 65561577.63489509 0 0 66433161.99518333 0 0 67367604.69210452 0 0 68888425.20332971 0 0 69203769.52827367 0 0 70200374.25114401 0 0 72307575.0077313 0 0 73273973.62348105 0 0 74933294.37444712 0 0 73658361.09524365 0 0 75916995.28492902 0 0 76913799.05172689 0 0 77918887.48429243 0 0 78927340.27948341 0 0 80389556.94118351 0 0 79355222.6555396 0 0 81358417.36787848 0 0 82315091.49238153 0 0 83265394.2858756 0 0 84208812.48795174 0 0 85118390.01204477 0 0 85564031.68230988 0 0 87075568.71947062 0 0 86471478.22432052 0 0 88019333.92004925 0 0 88853649.91795504 0 0 89094889.89915337 0 0 90026749.79825048 0 0 90828016.5672479 0 0 91041492.71865381 0 0 71588553.68070418 0 0 61502783.33548483 0 0 62124683.84406324 0 0 62611290.09710933 0 0 62468200.0289015 0 0 64022122.32849042 0 0 64675429.04275681 0 0 65412869.76792336 0 0 66234105.57823163 0 0 67121085.03981994 0 0 68045756.84156087 0 0 68357536.17643966 0 0 69859990.816825 0 0 70867683.95455256 0 0 71979272.76012857 0 0 72984063.06377891 0 0 74663273.56354837 0 0 74280825.01777747 0 0 75701047.17037173 0 0 76749737.3374733 0 0 77804880.73977421 0 0 78861048.54885948 0 0 80371443.08536227 0 0 79934583.11796647 0 0 81380829.77240397 0 0 82378710.68126902 0 0 83365970.04629666 0 0 84337438.3609557 0 0 85288132.1269608 0 0 86029528.76527938 0 0 87340952.74325809 0 0 86908877.88073708 0 0 88212819.94417995 0 0 89093726.29937722 0 0 89792738.92932904 0 0 89881098.1879566 0 0 90755211.3137822 0 0 91641231.11304763 0 0 71248451.14982548 0 0 61392189.05505571 0 0 60890174.34264825 0 0 61399063.67111581 0 0 63054468.86690132 0 0 63071806.13607561 0 0 63786605.90456006 0 0 64593013.09106642 0 0 65484422.25074615 0 0 66447747.82308503 0 0 67471965.67141643 0 0 69032472.74169581 0 0 69381593.32092571 0 0 70439394.77131897 0 0 72586679.49272782 0 0 73604604.01991905 0 0 75302432.22182053 0 0 74000352.42989646 0 0 76335070.75355692 0 0 77376306.83341476 0 0 78421400.3381132 0 0 79465870.38453151 0 0 80937916.46703173 0 0 79913953.86629425 0 0 81932642.71492529 0 0 82914289.68165754 0 0 83886918.75119124 0 0 84836934.50532334 0 0 85768535.53525987 0 0 86228562.24002817 0 0 87775402.43602216 0 0 87141709.13479713 0 0 88627342.4957217 0 0 89337223.60088125 0 0 90529225.13025513 0 0 91328237.03228293 0 0 91873042.77226862 0 0 91576851.0564272 0 0 71878752.97366552 0 0 60554361.33932403 0 0 61572902.19414314 0 0 62061344.52142369 0 0 62061363.62716296 0 0 63705508.0421544 0 0 64453313.94903195 0 0 65290089.87781493 0 0 66202418.65390281 0 0 67162790.26415232 0 0 68178338.42958526 0 0 68528703.21943608 0 0 70083163.56135146 0 0 71165489.54682432 0 0 72282463.21731608 0 0 73353377.75482787 0 0 75073485.84275287 0 0 74664766.01190646 0 0 76161402.76208027 0 0 77254677.32385777 0 0 78349768.85218509 0 0 79441968.16258547 0 0 80960160.40330902 0 0 80505205.99955177 0 0 81995631.88602051 0 0 83017805.31365518 0 0 84023864.05783914 0 0 85011043.09775528 0 0 85979311.96523307 0 0 86695782.36935289 0 0 88035020.90372574 0 0 87595400.03778438 0 0 88910856.41570023 0 0 89787287.1179959 0 0 90543162.6406666 0 0 91374216.96697433 0 0 92459546.35220896 0 0 92199078.32595448 0 0 92710406.97720556 0 0 93498312.15099943 0 0 71555624.83918081 0 0 60041858.03347954 0 0 60383836.29585609 0 0 61010676.22782486 0 0 62707249.77200138 0 0 62774428.34437665 0 0 63591279.64848648 0 0 64500040.45643587 0 0 65491195.04768078 0 0 66566707.08769251 0 0 67670845.93941237 0 0 69259002.77971986 0 0 69632488.11668287 0 0 70771031.75205596 0 0 72912596.30840659 0 0 73992174.88123864 0 0 75735905.80520381 0 0 74431378.29314528 0 0 76815032.66760685 0 0 77898807.69696882 0 0 78981730.28275473 0 0 80059519.5301604 0 0 81536206.40408562 0 0 80526792.76448351 0 0 82555089.78841384 0 0 83559518.29085155 0 0 84546325.24571544 0 0 85513257.70928107 0 0 86464881.46641135 0 0 86930604.95388977 0 0 88468109.83620384 0 0 87856315.03411809 0 0 89311850.33719285 0 0 90160325.50393698 0 0 91038000.77517003 0 0 91870638.12511353 0 0 92405255.7444492 0 0 92058665.1130871 0 0 93187362.15019725 0 0 93971136.74173433 0 0 94230766.1219777 0 0 72225780.89772917 0 0 59498661.4066417 0 0 60264515.20854606 0 0 61054966.17285707 0 0 61679766.44434948 0 0 61725373.422971 0 0 63462288.2748737 0 0 64313310.23469404 0 0 65249128.19974472 0 0 66247978.11230157 0 0 67288493.63893256 0 0 68390988.06133278 0 0 68807874.20953909 0 0 70379031.85484657 0 0 71530141.39664595 0 0 72673738.15170528 0 0 73800028.24625368 0 0 75550815.98893744 0 0 75116561.86547033 0 0 76685353.66719627 0 0 77821379.10053413 0 0 78953859.18159075 0 0 80080023.15840796 0 0 81600540.83098665 0 0 81128306.09557995 0 0 82660072.99636626 0 0 83702815.60733382 0 0 84726116.49322918 0 0 85728865.0499219 0 0 86710709.72393312 0 0 87399509.86107874 0 0 88754249.34000352 0 0 88303754.21036904 0 0 89625953.39857101 0 0 90469330.79119897 0 0 91289930.74984407 0 0 92106009.14246234 0 0 93088022.51973976 0 0 92724569.87524518 0 0 93535821.65792398 0 0 94155935.17172736 0 0 94712644.86765908 0 0 94940468.65602143 0 0 95649656.45577312 0 0 71965550.33873925 0 0 58893764.61094311 0 0 59376117.13106091 0 0 59940152.28372838 0 0 60642491.62770159 0 0 62434787.76381694 0 0 62552273.94304687 0 0 63480633.66567361 0 0 64497389.64956309 0 0 65589850.23747279 0 0 66764631.87744847 0 0 67944858.96080589 0 0 69555672.65771753 0 0 69972479.15539846 0 0 71188332.701157 0 0 73332402.76646645 0 0 74467922.40207438 0 0 76235031.14294708 0 0 74935804.52281341 0 0 77358798.45957693 0 0 78482028.74029328 0 0 79600174.68394607 0 0 80708632.33315119 0 0 82184643.12727121 0 0 81193920.70850424 0 0 83225969.12656343 0 0 84248375.40753661 0 0 85251213.66332343 0 0 86234365.30596986 0 0 87196646.45397124 0 0 87668890.43061435 0 0 89176129.40956149 0 0 88597967.84411599 0 0 90026609.95458196 0 0 90860626.80626114 0 0 91681174.66618283 0 0 92336564.90569778 0 0 93161628.79682125 0 0 92802641.22966787 0 0 93814520.55371028 0 0 94565038.20465395 0 0 94759718.82614698 0 0 95414077.43149462 0 0 96101660.49601059 0 0 96346942.33488448 0 0 72654619.58092271 0 0 58410919.51520246 0 0 59132793.29660282 0 0 59854412.50277869 0 0 60623952.82054432 0 0 61376489.44674204 0 0 61475116.79547816 0 0 63300841.183484 0 0 64260037.33829957 0 0 65300685.33219781 0 0 66401996.58151519 0 0 67519190.89439119 0 0 68720216.54345493 0 0 69164485.50548796 0 0 70763801.53182119 0 0 71982921.07933965 0 0 73135804.11081591 0 0 74313094.31891039 0 0 76095740.53207637 0 0 75631877.06867942 0 0 77275329.90448572 0 0 78450856.83710454 0 0 79617849.68127832 0 0 80774680.11008212 0 0 82292694.31821243 0 0 81804012.72234409 0 0 83373669.30482906 0 0 84434343.49619332 0 0 85472877.3609422 0 0 86488013.10406561 0 0 87478030.3220477 0 0 88133363.61109805 0 0 89497005.207637 0 0 89038383.42686296 0 0 90373160.99191816 0 0 91220312.3034296 0 0 92039914.73717752 0 0 92850971.26196341 0 0 93649286.99065705 0 0 93329172.41305371 0 0 94356347.29787628 0 0 94432800.54887788 0 0 95321570.58533975 0 0 95518283.57224566 0 0 96298187.63301384 0 0 96788369.66448978 0 0 97021050.98320112 0 0 97677776.27861156 0 0 72453563.29638439 0 0 57850770.19020389 0 0 58332357.58425357 0 0 58873449.9939409 0 0 59528187.71414448 0 0 60362317.40754475 0 0 62252195.43505562 0 0 62422155.64777651 0 0 63465010.85781816 0 0 64590586.03966574 0 0 65785912.22235445 0 0 67034289.54438373 0 0 68305259.52793796 0 0 69944851.24516682 0 0 70395749.95685589 0 0 71690468.26049332 0 0 73831717.99033931 0 0 75012284.210049 0 0 76801476.0464835 0 0 75488378.37060155 0 0 77966311.8294992 0 0 79125738.21440534 0 0 80276724.03804329 0 0 81413102.00441439 0 0 82883258.42513847 0 0 81915195.48852584 0 0 83943362.13722104 0 0 84982425.01337908 0 0 85999532.05325279 0 0 86993300.35709307 0 0 87960957.28054479 0 0 88439918.94425243 0 0 89917098.52194755 0 0 89370912.43411744 0 0 90775398.66394135 0 0 91603222.86015952 0 0 92381722.9311986 0 0 93137539.50473966 0 0 93958032.33036795 0 0 93552476.30034053 0 0 95079729.10915259 0 0 95172483.05120213 0 0 95994717.16767654 0 0 96666409.65072535 0 0 96930294.47491048 0 0 97454680.05611712 0 0 98072590.68494171 0 0 98353410.18139756 0 0 73178916.50363761 0 0 57295131.68487054 0 0 57964359.88457727 0 0 58726696.79876582 0 0 59479642.09930329 0 0 60286086.87327302 0 0 61169347.81921739 0 0 61325889.46511356 0 0 63233547.94251768 0 0 64304313.71881422 0 0 65450722.68998032 0 0 66647579.85931791 0 0 67853929.91124339 0 0 69108652.59863867 0 0 69586879.58315839 0 0 71234783.01188694 0 0 72521962.16219877 0 0 73669368.04068466 0 0 74905602.52959834 0 0 76711632.5031853 0 0 76224103.51942682 0 0 77931764.54818389 0 0 79143850.57937783 0 0 80342519.20441468 0 0 81526487.84778935 0 0 83036102.82569133 0 0 82531988.79951105 0 0 84135615.54359257 0 0 85211557.70343636 0 0 86262064.11824524 0 0 87285598.47608182 0 0 88280173.5604361 0 0 88898973.69851232 0 0 90272792.38067415 0 0 89806067.58264858 0 0 91149550.39407597 0 0 91993271.23742445 0 0 92805824.06817538 0 0 93583158.74943183 0 0 94316011.29887998 0 0 93900050.44191098 0 0 95066971.96327636 0 0 95803255.01370722 0 0 96334993.91962144 0 0 96961351.25181648 0 0 97355138.33327533 0 0 97582004.76634006 0 0 98244985.57373029 0 0 98623293.38087922 0 0 98898358.3490165 0 0 73004370.06437442 0 0 56717310.84035183 0 0 57269415.60917054 0 0 57778549.8756718 0 0 58359722.83157934 0 0 59206086.21489026 0 0 60190066.11107437 0 0 62170067.02620267 0 0 62393860.72974743 0 0 63551576.74969342 0 0 64786544.28363462 0 0 66065349.19758096 0 0 67397571.3616593 0 0 68796387.62620747 0 0 70439793.60647562 0 0 70923447.32850179 0 0 72282326.9987447 0 0 74384160.31570464 0 0 75617553.19048181 0 0 77434106.46132326 0 0 76138058.69873905 0 0 78637527.62073874 0 0 79830399.55677316 0 0 81010731.40946619 0 0 82171927.03823274 0 0 83631046.64084715 0 0 82689744.44435786 0 0 84707861.99311323 0 0 85760618.74081966 0 0 86787951.56183983 0 0 87787906.19040988 0 0 88758283.45071453 0 0 89244081.97238319 0 0 90688974.33538938 0 0 90176159.5486975 0 0 91542705.85724166 0 0 92357876.94972987 0 0 93144586.94204326 0 0 93908517.00428151 0 0 94726194.45884964 0 0 94347590.05510962 0 0 95395062.49221733 0 0 95913848.45377421 0 0 96588180.1587249 0 0 97251488.27094282 0 0 97458618.24683851 0 0 97999531.80021234 0 0 98779230.00205913 0 0 99096406.77911869 0 0 99273114.00205052 0 0 99477619.00830321 0 0 100079098.9931304 0 0 73765649.61570677 0 0 56059041.65744722 0 0 56799255.44468573 0 0 57648738.83047301 0 0 58350082.31653529 0 0 59129446.99205844 0 0 60046057.78680233 0 0 61068287.4150149 0 0 61282851.51248925 0 0 63269153.34018742 0 0 64451204.22957993 0 0 65699279.7538536 0 0 66975936.37156627 0 0 68285148.88991414 0 0 69602871.34611166 0 0 70137530.4430557 0 0 71789689.57562511 0 0 73137747.51677242 0 0 74296400.08638772 0 0 75579004.60819912 0 0 77397908.80780937 0 0 76886043.92303087 0 0 78655520.59159143 0 0 79900627.81317882 0 0 81127205.29698253 0 0 82334247.1216902 0 0 83829837.43020333 0 0 83311476.11527026 0 0 84944860.95822617 0 0 86032763.88386333 0 0 87091841.48769778 0 0 88120471.98470147 0 0 89117576.60143742 0 0 89696603.55292302 0 0 91078088.133646 0 0 90604642.68371315 0 0 91949219.87162997 0 0 92785776.4348578 0 0 93594332.18710588 0 0 94369838.80921428 0 0 95067705.52691638 0 0 94668545.78379504 0 0 95798497.11702751 0 0 96432337.48925571 0 0 97064299.13959442 0 0 97655448.08036608 0 0 97959322.99112283 0 0 98107351.48619136 0 0 98842827.02567005 0 0 98796188.18796283 0 0 99163231.53514123 0 0 99817056.37418036 0 0 100380787.6121827 0 0 100589027.0129229 0 0 73662417.88678475 0 0 55412043.26769621 0 0 56859524.56598822 0 0 56411570.06230373 0 0 57149079.27987621 0 0 58009038.93969781 0 0 59011504.72832242 0 0 60129172.99477639 0 0 62195778.3349736 0 0 62473861.44016853 0 0 63747398.85033629 0 0 65089039.09343917 0 0 66478450.46804389 0 0 67900318.06394517 0 0 69373838.32683074 0 0 71025736.63152961 0 0 71565549.97628123 0 0 72968224.02503285 0 0 75032632.43278122 0 0 76318469.51186983 0 0 78134150.23510943 0 0 76852543.78346919 0 0 79373715.80983777 0 0 80596496.33091983 0 0 81802327.55380349 0 0 82984499.83678652 0 0 84427495.6423315 0 0 83516959.85170406 0 0 85517795.41618872 0 0 86580579.94218899 0 0 87614299.11110575 0 0 88617434.599996 0 0 89587969.34415388 0 0 90081327.65372583 0 0 91484278.82056031 0 0 91011706.31404248 0 0 92329552.2780858 0 0 93142049.42204481 0 0 93930387.73167922 0 0 94691454.74098903 0 0 95378171.83497375 0 0 95120561.4290936 0 0 96025053.95955141 0 0 96675701.8926682 0 0 97299263.59174362 0 0 97770994.67764916 0 0 98618237.65559936 0 0 99387250.50630346 0 0 99063435.77369627 0 0 99791193.1213233 0 0 100153898.4385244 0 0 100526525.8488496 0 0 100835918.2880636 0 0 101047498.9280706 0 0 74435102.86421885 0 0 54922343.62648641 0 0 55832431.03703733 0 0 57205439.34414758 0 0 57918735.23117295 0 0 58872948.06609118 0 0 59923541.17021377 0 0 61080848.81742629 0 0 61353709.1735 0 0 63414068.24483337 0 0 64706226.16037009 0 0 66043971.54167078 0 0 67420722.64474894 0 0 68830478.17610426 0 0 70233920.99652325 0 0 70819817.93876348 0 0 72434190.9915476 0 0 73845610.74596977 0 0 74997406.78110524 0 0 76329060.82500064 0 0 78153152.96417342 0 0 77620181.27235518 0 0 79444030.09647134 0 0 80718155.61886778 0 0 81969980.80837452 0 0 83196672.95507927 0 0 84672897.51591858 0 0 84141460.11725074 0 0 85799888.11095065 0 0 86896324.66291337 0 0 87960521.49018748 0 0 88991411.71536024 0 0 89988049.7006678 0 0 90525440.54376912 0 0 91909378.50667971 0 0 91431387.74811047 0 0 92773357.28649227 0 0 93604950.37487699 0 0 94405215.64150469 0 0 95172072.97387561 0 0 95829875.97514124 0 0 95418842.75617921 0 0 96512566.08825938 0 0 97161234.8854481 0 0 97774457.01659125 0 0 98388011.25911117 0 0 98892881.48195162 0 0 99477451.0171348 0 0 99476221.73147207 0 0 99846733.58110137 0 0 100275559.9957677 0 0 100938595.2450986 0 0 101189982.9425388 0 0 101441042.6135292 0 0 102064238.3524205 0 0 101689610.9802393 0 0 74397549.17210196 0 0 54555595.43766491 0 0 55411698.52156029 0 0 55912127.10610108 0 0 56777601.85402558 0 0 57792358.87544528 0 0 58929194.62343502 0 0 60188281.0632523 0 0 62336764.58862193 0 0 62669131.78281796 0 0 64058532.50131908 0 0 65502884.28150505 0 0 67002754.14153591 0 0 68526766.15697086 0 0 70078296.8347784 0 0 71726221.19054735 0 0 72285543.76979397 0 0 73734577.400309 0 0 75766403.83911334 0 0 77085639.53812219 0 0 78904320.88908818 0 0 77639355.29620452 0 0 80174351.93066844 0 0 81423569.33584088 0 0 82649970.86773959 0 0 83849938.14293619 0 0 85270977.99376999 0 0 84395808.73165435 0 0 86371209.44907714 0 0 87440449.67390074 0 0 88477367.63691041 0 0 89481168.32855247 0 0 90449801.18161401 0 0 90948905.1261843 0 0 92304295.64545512 0 0 91874883.9195894 0 0 93143869.24803886 0 0 93952658.02307111 0 0 94732537.53021897 0 0 95476246.16902724 0 0 96090975.67222103 0 0 95902729.7989037 0 0 96767164.03455628 0 0 97405645.62819117 0 0 97984772.60849035 0 0 98539504.86981033 0 0 99107874.6068269 0 0 100018152.3271342 0 0 99642339.13278274 0 0 100462064.6825975 0 0 100704499.6570435 0 0 100961941.7031242 0 0 100734844.0119313 0 0 101245399.7940502 0 0 101457044.6041898 0 0 101874767.1885919 0 0 102308011.1296116 0 0 102502268.2856365 0 0 75203528.88976443 0 0 53721725.35930128 0 0 54048426.14278316 0 0 55902061.07512665 0 0 56777217.38056228 0 0 57654516.98430933 0 0 58731782.10043154 0 0 59921435.17803856 0 0 61216590.01385596 0 0 61546969.906316 0 0 63674481.44762647 0 0 65077415.78357018 0 0 66525543.74753549 0 0 67993805.24490464 0 0 69495281.46346557 0 0 70981890.40072888 0 0 71575802.34681237 0 0 73171394.69766945 0 0 74639005.46350302 0 0 75770696.36050354 0 0 77148514.38333645 0 0 78973146.31716754 0 0 78422587.36140734 0 0 80296853.64602832 0 0 81596430.71904205 0 0 82870170.15922496 0 0 84113178.02168305 0 0 85563603.05263877 0 0 85020238.91144608 0 0 86699016.79399003 0 0 87800133.8191527 0 0 88866248.30565895 0 0 89896190.34691688 0 0 90889241.91628604 0 0 91384123.48333548 0 0 92765541.05903363 0 0 92283802.85553496 0 0 93622065.65921678 0 0 94444525.38497216 0 0 95232898.88232422 0 0 95985390.637486 0 0 96599452.1410345 0 0 96179195.76625974 0 0 97271342.36955395 0 0 97907162.45962997 0 0 98510485.52035719 0 0 99076318.46286865 0 0 99638346.23530085 0 0 100118395.6063387 0 0 100158442.9132082 0 0 100492901.7120479 0 0 101334069.7835167 0 0 101157301.2941075 0 0 101791906.623037 0 0 102020546.1990402 0 0 102054922.9935719 0 0 102594434.1048466 0 0 102728863.5885011 0 0 102926973.5988408 0 0 75211098.5969149 0 0 52984589.56782956 0 0 54952282.73431727 0 0 54467128.96157087 0 0 55584881.07160616 0 0 56541247.90222757 0 0 57682366.8808271 0 0 58975028.63226581 0 0 60378961.40972838 0 0 62600692.9984839 0 0 62986429.33910356 0 0 64490101.92448956 0 0 66037606.22980529 0 0 67623482.40078306 0 0 69235601.64358081 0 0 70844804.61447094 0 0 72502447.38206457 0 0 73094742.09937821 0 0 74583570.13255604 0 0 76568835.92652975 0 0 77922681.80732697 0 0 79739074.50358771 0 0 78496454.87161884 0 0 81035872.19092965 0 0 82308194.7868233 0 0 83552208.44013767 0 0 84766097.6329855 0 0 86159673.93612231 0 0 85323934.09476748 0 0 87266108.14359976 0 0 88338369.00535455 0 0 89375704.79175718 0 0 90377087.60797185 0 0 91341402.25108135 0 0 91845025.25698073 0 0 93149379.87598561 0 0 92763547.76274163 0 0 93981274.25451846 0 0 94780511.73486125 0 0 95545420.77721268 0 0 96272163.50167477 0 0 96858395.35087991 0 0 96702707.73069631 0 0 97515171.49901725 0 0 98125186.05474876 0 0 98703148.93591355 0 0 99271513.74081576 0 0 99798979.58141018 0 0 100657979.7320739 0 0 100290076.0398044 0 0 101059377.6822096 0 0 101524990.2322009 0 0 101081567.6792319 0 0 101807821.7682163 0 0 102399778.3582423 0 0 102758840.1024661 0 0 103007791.6448318 0 0 103152850.4384602 0 0 76034361.97092168 0 0 52443393.99311998 0 0 53493141.63615556 0 0 53095103.17966099 0 0 55381421.15019118 0 0 56430043.85148848 0 0 57497664.21528432 0 0 58715143.08368738 0 0 60051936.27118757 0 0 61484621.74989658 0 0 61870295.64485583 0 0 64056644.79383428 0 0 65568535.90961064 0 0 67121778.03636317 0 0 68699584.06917821 0 0 70278991.79068011 0 0 71812329.55256979 0 0 72416191.53832425 0 0 74004261.12664439 0 0 75519433.69415693 0 0 76641369.19018464 0 0 78050939.60692327 0 0 79863642.56289202 0 0 79292412.05961721 0 0 81213586.1097877 0 0 82536246.74088921 0 0 83827739.57359548 0 0 85083031.40456724 0 0 86501135.29909126 0 0 85946890.32656264 0 0 87639893.95973165 0 0 88742346.40313949 0 0 89807035.23337866 0 0 90832851.69571202 0 0 91819534.96333691 0 0 92268954.35533938 0 0 93645278.49754243 0 0 93160336.43334965 0 0 94491091.55318916 0 0 95300993.03979594 0 0 96074497.18166615 0 0 96811735.73673798 0 0 97387190.19781066 0 0 96965711.83112331 0 0 98039879.75107346 0 0 98656813.07155365 0 0 99244197.7500302 0 0 99803440.13483657 0 0 100332915.3612548 0 0 100857128.1974967 0 0 100842250.2970955 0 0 101105185.7490094 0 0 101961392.7295599 0 0 101629410.6774407 0 0 102354964.4249525 0 0 102700645.7725086 0 0 103113774.2020155 0 0 103153326.9151347 0 0 103319946.7235623 0 0 103330676.9304238 0 0 103733069.2073508 0 0 76120410.48070213 0 0 51830781.07921562 0 0 52069256.23247364 0 0 54217333.46775453 0 0 54611782.23277844 0 0 55331459.3118362 0 0 56383657.23722074 0 0 57713581.82143201 0 0 59164654.37166165 0 0 60709630.74844121 0 0 62994699.2195897 0 0 63430734.18285871 0 0 65043982.59539054 0 0 66694746.08318699 0 0 68368619.20390336 0 0 70043602.77982837 0 0 71715084.36073299 0 0 73369603.31152238 0 0 73969066.79300573 0 0 75535183.92684515 0 0 77449684.07984293 0 0 78834624.41512883 0 0 80638328.32154004 0 0 79430475.70983763 0 0 81959111.81954527 0 0 83250871.85647337 0 0 84508749.38555768 0 0 85731935.84534897 0 0 87091301.37303895 0 0 86302616.15060435 0 0 88200360.84574537 0 0 89272578.05348641 0 0 90306843.89910989 0 0 91302537.70137168 0 0 92259568.25120044 0 0 92767080.12649696 0 0 94016402.39895658 0 0 93675194.92164724 0 0 94837134.74247655 0 0 95622348.46404304 0 0 96370784.01485477 0 0 97084285.1781657 0 0 97632560.14796174 0 0 97514099.50747226 0 0 98264063.99774669 0 0 98858347.0087928 0 0 99433741.68182002 0 0 99970362.31153853 0 0 100480426.6648749 0 0 101306783.1044551 0 0 101000216.4926196 0 0 101334373.2388846 0 0 102039155.4931648 0 0 101645785.1514653 0 0 102437613.5843509 0 0 102831456.2403894 0 0 103206214.927777 0 0 103499693.1613131 0 0 103537896.0748938 0 0 103642330.4167357 0 0 103853058.1759654 0 0 104067987.6187601 0 0 76967568.95682488 0 0 51103627.99426582 0 0 51907631.08243937 0 0 52751230.57208651 0 0 53568007.90791816 0 0 52399016.89683424 0 0 55156067.36013057 0 0 56238743.99056377 0 0 57470006.06619762 0 0 58842759.38079368 0 0 60325094.41450506 0 0 61891432.03071104 0 0 62329839.70433706 0 0 64565069.32907526 0 0 66179809.2492089 0 0 67823706.90162168 0 0 69483281.0494266 0 0 71113649.11750337 0 0 72714637.45418677 0 0 73346667.30697112 0 0 74926393.71160345 0 0 76485055.22422124 0 0 77575707.70969811 0 0 79023378.86295529 0 0 80824514.39534521 0 0 80232036.8070288 0 0 82195983.4919661 0 0 83536553.25519161 0 0 84838844.68239565 0 0 86101478.1258017 0 0 87481450.93824221 0 0 86917714.28081112 0 0 88621595.57867067 0 0 89721219.27957745 0 0 90780595.55362052 0 0 91799155.58670671 0 0 92776351.66656126 0 0 93177965.49910408 0 0 94545438.2795236 0 0 94058877.95550403 0 0 95377607.03096227 0 0 96172233.82260214 0 0 96929138.64280197 0 0 97649587.14832956 0 0 98182170.53304106 0 0 97765146.04286954 0 0 98815169.70594962 0 0 99414391.01393415 0 0 99985440.98901781 0 0 100524864.8759509 0 0 101039934.3103141 0 0 101433790.8264568 0 0 101522422.1614582 0 0 101771557.0401276 0 0 102570845.1986612 0 0 102182735.8026713 0 0 102938732.0365042 0 0 103301679.4472226 0 0 103643698.6244817 0 0 103502296.1040972 0 0 103667800.6242645 0 0 104259954.027173 0 0 104290849.497395 0 0 104407648.2671637 0 0 77104517.74088068 0 0 50592395.71792951 0 0 51504890.72538131 0 0 51120071.33369652 0 0 54286547.28870443 0 0 53377857.76876243 0 0 53859044.75036105 0 0 55030756.09668361 0 0 56408918.15964034 0 0 57903720.9072907 0 0 59502594.52525707 0 0 61184712.61868287 0 0 63523262.61245652 0 0 64007321.56036291 0 0 65725794.17956296 0 0 67469978.4878417 0 0 69226763.79762605 0 0 70983570.22234784 0 0 72718174.76478551 0 0 74330301.86889227 0 0 74971827.57047795 0 0 76572243.37213634 0 0 78405569.09154929 0 0 79821601.66446342 0 0 81602785.9737872 0 0 80436754.21049045 0 0 82943580.93520437 0 0 84249544.78604539 0 0 85516787.09503427 0 0 86746408.22203317 0 0 88064706.57963307 0 0 87324042.0733747 0 0 89172238.56103294 0 0 90240578.11625636 0 0 91268573.04265462 0 0 92255784.63428742 0 0 93202425.96937345 0 0 93712349.78739353 0 0 94902164.26352863 0 0 94607785.1213851 0 0 95708385.549419 0 0 96477269.54947883 0 0 97209596.64036094 0 0 97907045.54831962 0 0 98410744.58724834 0 0 98333776.9989889 0 0 99022098.94579212 0 0 99604455.13006067 0 0 100155948.0351274 0 0 100677335.9209781 0 0 101183218.7025383 0 0 101969731.1086097 0 0 101640494.3870417 0 0 101858383.7717948 0 0 102269561.5342906 0 0 102647743.1712858 0 0 103011737.6028902 0 0 103362792.9640951 0 0 103678042.0702813 0 0 103954739.0455473 0 0 104081660.2827459 0 0 104069126.471284 0 0 104230216.828457 0 0 104584431.5232959 0 0 104760321.7419529 0 0 77959731.19057374 0 0 49779080.21451533 0 0 50424749.85507222 0 0 51839143.78807143 0 0 52854782.48239547 0 0 51502480.15342689 0 0 54973141.94894788 0 0 56151333.5475256 0 0 57588596.02924874 0 0 59119987.87513481 0 0 60744618.97779115 0 0 62441008.0586791 0 0 62929794.67727424 0 0 65203648.9256549 0 0 66916840.29173441 0 0 68646662.65710272 0 0 70368134.81648879 0 0 72066571.37507591 0 0 73739785.59754403 0 0 74436039.06696679 0 0 75934338.36455224 0 0 77534976.27433847 0 0 78604726.03408 0 0 80074331.94893762 0 0 81851678.61147439 0 0 81243501.24097577 0 0 83240245.78011319 0 0 84591272.3047291 0 0 85899503.66529298 0 0 87165390.61318305 0 0 88503209.16193114 0 0 87932038.99164036 0 0 89640027.6075152 0 0 90733734.71142472 0 0 91784652.72811909 0 0 92792548.88882503 0 0 93757110.37707838 0 0 94108838.60835288 0 0 95463411.9772139 0 0 94975949.49120177 0 0 96279463.46283951 0 0 97056572.99769153 0 0 97795107.03406075 0 0 98496077.14358823 0 0 98981592.3751779 0 0 98567536.70072813 0 0 99594855.59807961 0 0 100177132.2760844 0 0 100727917.7588907 0 0 101249250.6092392 0 0 101741316.4554828 0 0 102069159.4696879 0 0 102198845.4490349 0 0 102401790.0375247 0 0 102799412.9126794 0 0 103177037.6144994 0 0 103531235.1149959 0 0 103865598.7869219 0 0 104171643.7161199 0 0 103972131.7997083 0 0 104239253.2011195 0 0 104541404.6785209 0 0 104735049.8144291 0 0 104926239.3082167 0 0 104880049.4930026 0 0 105063064.7958966 0 0 78173310.45411578 0 0 49023757.35479739 0 0 49739617.10569657 0 0 50190249.70904963 0 0 52701644.4312546 0 0 52494139.32371387 0 0 53648980.87005058 0 0 55040425.03814983 0 0 56587031.82520392 0 0 58244810.92382323 0 0 59992275.36496555 0 0 61808580.22634187 0 0 64189919.43920426 0 0 64719678.02909009 0 0 66538337.32590503 0 0 68371043.25212921 0 0 70204397.0736077 0 0 72035494.65097196 0 0 73797421.01535203 0 0 75378549.18445127 0 0 76064281.90674815 0 0 77688982.07252727 0 0 79438680.42962143 0 0 80881437.17862296 0 0 82631978.13841864 0 0 81506002.92217061 0 0 83987135.97413357 0 0 85300560.14364919 0 0 86572979.16577093 0 0 87800881.19785179 0 0 89076681.68620558 0 0 88386439.02032427 0 0 90179473.37660168 0 0 91240134.28781395 0 0 92258447.54645565 0 0 93234004.05055229 0 0 94167189.4907226 0 0 94678821.02927691 0 0 95803839.96433659 0 0 95558504.74888024 0 0 96593337.08361645 0 0 97344392.70633891 0 0 98058671.16865985 0 0 98735406.59081453 0 0 99193953.17389643 0 0 99159582.87885889 0 0 99787611.14225106 0 0 100350188.2189039 0 0 100882677.155956 0 0 101388818.7822956 0 0 101861333.5833174 0 0 102630002.6309653 0 0 102300937.123649 0 0 102492297.1482121 0 0 102878617.0921484 0 0 103245459.9500777 0 0 103588195.0053793 0 0 103906227.0512424 0 0 104198274.9038285 0 0 104452224.3570259 0 0 104295590.1522468 0 0 104524653.318849 0 0 104699782.9259833 0 0 104969668.872835 0 0 105201181.5589152 0 0 105184499.8447256 0 0 79051622.76054195 0 0 48257591.64433827 0 0 49206965.11929604 0 0 50363894.95929893 0 0 51158582.03822471 0 0 53475879.91458729 0 0 50984685.70600294 0 0 54847373.25154761 0 0 56274308.2043507 0 0 57863481.70705677 0 0 59551002.56369621 0 0 61315888.37598767 0 0 63137439.00590134 0 0 63673683.76840838 0 0 65974611.27541087 0 0 67778297.21859859 0 0 69588361.089044 0 0 71386958.22810566 0 0 73142620.8757164 0 0 74898260.77531171 0 0 75543367.74454239 0 0 77047139.21754928 0 0 78666841.85193232 0 0 79692199.33665621 0 0 81188524.79329149 0 0 82939041.07291147 0 0 82319118.20997018 0 0 84339994.13399455 0 0 85696733.6690843 0 0 87007538.07032228 0 0 88271304.12572172 0 0 89562034.04781607 0 0 88984548.97920987 0 0 90692105.60112031 0 0 91776808.50537671 0 0 92816259.05917035 0 0 93810193.94005905 0 0 94759091.47024661 0 0 95058787.15332592 0 0 96397082.91979238 0 0 95909453.17388098 0 0 97194731.54019146 0 0 97951868.5916189 0 0 98670020.57542796 0 0 99349428.3331717 0 0 99786376.23289643 0 0 99375837.66155323 0 0 100379659.8213777 0 0 100941448.3408235 0 0 101471542.1900176 0 0 101970779.159061 0 0 102438404.997545 0 0 102719264.5942926 0 0 102876171.9106205 0 0 103040361.9154799 0 0 103421997.7906754 0 0 103779250.7595097 0 0 104111668.6211413 0 0 104420701.1726622 0 0 104708176.6043419 0 0 104482037.9275291 0 0 104740449.2742314 0 0 104973489.7524827 0 0 105170869.9327283 0 0 105397659.3666815 0 0 105232170.3068328 0 0 105364316.6777295 0 0 105408832.5261111 0 0 79318419.15153916 0 0 47774603.20279928 0 0 49110097.94073606 0 0 48485327.81777216 0 0 49425756.68727271 0 0 52223265.42700721 0 0 52169820.9094256 0 0 53625274.12275228 0 0 55214592.01489309 0 0 56933632.31354415 0 0 58750377.47685169 0 0 60641419.86954732 0 0 62585579.46502508 0 0 64997330.3324825 0 0 65569577.26758432 0 0 67480980.74260616 0 0 69394015.78482953 0 0 71295402.38904701 0 0 73147589.2431931 0 0 74979159.77021588 0 0 76557616.73638518 0 0 77205856.16614217 0 0 78887272.15186107 0 0 80543273.54594558 0 0 82001668.26607525 0 0 83721391.582315 0 0 82638883.97596429 0 0 85083028.72915894 0 0 86399895.36040704 0 0 87670936.08015895 0 0 88895758.5245215 0 0 90123758.516921 0 0 89487741.60077542 0 0 91218218.69869553 0 0 92268265.30046432 0 0 93273569.78238814 0 0 94234379.34255785 0 0 95151220.79837161 0 0 95663575.71541514 0 0 96719780.32689342 0 0 96524723.63309592 0 0 97489962.16043876 0 0 98221421.64634183 0 0 98914514.42108345 0 0 99569124.15189604 0 0 99980740.23644422 0 0 99989948.03574537 0 0 100555030.1215097 0 0 101097576.7074588 0 0 101610114.7058875 0 0 102091134.4786066 0 0 102541253.7457222 0 0 103288322.4919002 0 0 102963925.0031819 0 0 103117500.4168034 0 0 103486566.7639142 0 0 103831563.2119707 0 0 104150537.0800764 0 0 104447643.9557312 0 0 104727693.073832 0 0 104974148.9935784 0 0 104734499.8518396 0 0 104967145.8661411 0 0 105171932.8574415 0 0 105381594.6480484 0 0 105610253.1314188 0 0 105443055.7669989 0 0 105688617.4963789 0 0 105621187.9653939 0 0 80198050.09874783 0 0 46841202.74654955 0 0 47689307.31745993 0 0 49585073.19933149 0 0 50608047.97619919 0 0 53388056.64565185 0 0 50709803.68959606 0 0 54919649.84543261 0 0 56555803.55185077 0 0 58308756.63579752 0 0 60145775.12375087 0 0 62044294.14872146 0 0 63983835.09093533 0 0 64563264.29030983 0 0 66878804.70020697 0 0 68767129.64927781 0 0 70650469.20394751 0 0 72514509.32578532 0 0 74319778.20420188 0 0 76034727.94058049 0 0 76706638.79055031 0 0 78230121.1003802 0 0 79876261.11971702 0 0 80871412.93959573 0 0 82376411.04716523 0 0 84085713.6820997 0 0 83453452.54584153 0 0 85492991.55578099 0 0 86851076.21371248 0 0 88159794.87267093 0 0 89418140.58348748 0 0 90655799.54762644 0 0 90072815.8610992 0 0 91775794.07730487 0 0 92847930.59246044 0 0 93872283.95893916 0 0 94849230.62793958 0 0 95779461.43896131 0 0 96024955.7231328 0 0 97343340.78512719 0 0 96856559.22823383 0 0 98120336.44820163 0 0 98855369.57407907 0 0 99550087.20942104 0 0 100205214.359984 0 0 100594853.256407 0 0 100186920.0163499 0 0 101166917.2870138 0 0 101706206.9754636 0 0 102213203.5702138 0 0 102688540.9132213 0 0 103133455.1698318 0 0 103362909.5342847 0 0 103550179.882164 0 0 103675802.2508084 0 0 104036419.5627729 0 0 104371728.2932761 0 0 104682469.8227622 0 0 104970731.7877034 0 0 105236103.0174293 0 0 104977129.9003674 0 0 105218741.6851805 0 0 105432498.9460211 0 0 105631349.8616784 0 0 105828874.8319128 0 0 105592362.2620616 0 0 105804387.7857155 0 0 105657913.1251923 0 0 105698665.5820243 0 0 105842567.9184427 0 0 106470725.6920416 0 0 106292504.2605107 0 0 106070164.1165617 0 0 80549361.8716162 0 0 46127200.11788741 0 0 47162526.34393129 0 0 47931226.60720625 0 0 49152820.0022711 0 0 52157078.83716736 0 0 51985058.84405494 0 0 53792297.51707541 0 0 55569861.8297486 0 0 57457371.90101297 0 0 59427026.84391652 0 0 61454259.72789142 0 0 63517622.98879323 0 0 65946646.98277197 0 0 66557514.73002917 0 0 68553245.93097848 0 0 70537605.46913499 0 0 72485939.64028083 0 0 74393972.0766591 0 0 76273087.20228276 0 0 77781755.45113197 0 0 78456678.74585679 0 0 80173650.95635897 0 0 81716223.17277464 0 0 83185006.04717396 0 0 84863430.92515519 0 0 83835908.22080845 0 0 86227868.13569172 0 0 87543863.89571677 0 0 88810642.30991067 0 0 90027470.78382412 0 0 91202765.82267991 0 0 90625668.40876038 0 0 92285775.51457877 0 0 93321874.39407025 0 0 94311081.33133908 0 0 95254092.06019436 0 0 96151445.26074331 0 0 96663612.66991408 0 0 97646975.72568755 0 0 97503350.91323236 0 0 98395819.49061386 0 0 99104862.73986855 0 0 99774505.52242847 0 0 100405556.5878945 0 0 100771786.6806749 0 0 100822647.797879 0 0 101324108.661715 0 0 101844490.9556948 0 0 102333198.1213193 0 0 102790980.6320542 0 0 103220050.2334131 0 0 103940282.0107625 0 0 103622267.786174 0 0 103737492.7479538 0 0 104085242.9856914 0 0 104407674.8946308 0 0 104706472.493194 0 0 104984759.5456343 0 0 105238747.106343 0 0 105478772.3358185 0 0 105216619.4971 0 0 105413887.5390772 0 0 105607802.8394049 0 0 105799555.6243927 0 0 106000882.2600452 0 0 105844291.397231 0 0 106051238.8973634 0 0 105981570.6875864 0 0 105920027.4315002 0 0 106328162.2663186 0 0 106510134.6479597 0 0 106142987.2712112 0 0 106654235.7764168 0 0 81435905.70683676 0 0 45303973.54443667 0 0 46381041.61372646 0 0 47768034.40736656 0 0 49119853.47303589 0 0 50476085.53124332 0 0 53499167.84158815 0 0 50636378.22711464 0 0 55200854.8952176 0 0 57018616.55817639 0 0 58930174.00464398 0 0 60908834.79948995 0 0 62932260.18699582 0 0 64980817.22058786 0 0 65598900.66073024 0 0 67917001.99448183 0 0 69881119.11794221 0 0 71826010.79245569 0 0 73720896.3997286 0 0 75560984.28853038 0 0 77309526.96499722 0 0 78043330.84247363 0 0 79488138.34485488 0 0 81157725.73280676 0 0 82102185.97704564 0 0 83622980.70907944 0 0 85289187.61640571 0 0 84644129.25230496 0 0 86696292.64124091 0 0 88051867.94162188 0 0 89353911.71580099 0 0 90602197.22226605 0 0 91782200.17696534 0 0 91194371.13237858 0 0 92888127.08330125 0 0 93943926.12518032 0 0 94949569.59776248 0 0 95906886.23716094 0 0 96815021.54518525 0 0 97004701.45279434 0 0 98299474.0069931 0 0 97814664.00655524 0 0 99052872.82220154 0 0 99763837.46008097 0 0 100432922.7906822 0 0 101063154.4787922 0 0 101405338.9991744 0 0 101001406.4192872 0 0 101953605.7123601 0 0 102468605.9174682 0 0 102951136.7585452 0 0 103402549.6093528 0 0 103824128.3870596 0 0 103998755.6590559 0 0 104217565.0948517 0 0 104304323.7817183 0 0 104642111.8422017 0 0 104954800.0392622 0 0 105244212.7638313 0 0 105511639.6709788 0 0 105755512.7966087 0 0 105474558.4099926 0 0 105698080.0135642 0 0 105894322.4165915 0 0 106080372.4902804 0 0 106238103.042379 0 0 105948812.9850335 0 0 106073024.1592904 0 0 106085216.0045936 0 0 106249959.7383233 0 0 106654862.725014 0 0 106812766.4278134 0 0 106477936.1133466 0 0 106673061.6834584 0 0 106827006.6426594 0 0 106957655.6414606 0 0 81842322.85196611 0 0 44674189.36536284 0 0 45599123.80724512 0 0 46371521.83114383 0 0 47544021.90399427 0 0 49051753.57852425 0 0 52314460.8097048 0 0 52053569.03660795 0 0 54153652.00319379 0 0 56113783.27306841 0 0 58164294.95951857 0 0 60278399.96533456 0 0 62432109.49490529 0 0 64604907.05394025 0 0 67037525.10140201 0 0 67682430.42253943 0 0 69753381.74248308 0 0 71799609.52139688 0 0 73799361.91505314 0 0 75749374.26282719 0 0 77654341.27084939 0 0 79094847.68093054 0 0 79819977.45282108 0 0 81531348.21394134 0 0 82953351.04309441 0 0 84428821.26240873 0 0 86057631.23498259 0 0 85092160.92426549 0 0 87420263.70878306 0 0 88730984.72306423 0 0 89988827.85801864 0 0 91194033.37629592 0 0 92311708.63494535 0 0 91796799.61803453 0 0 93379434.96263407 0 0 94397883.76685251 0 0 95368062.27722499 0 0 96290004.98793197 0 0 97165135.98181619 0 0 97676171.6988484 0 0 98582228.94693722 0 0 98491761.6420965 0 0 99307793.72469644 0 0 99991929.00058967 0 0 100636063.2582211 0 0 101243076.2187694 0 0 101563080.634877 0 0 101656508.3913353 0 0 102091675.5317636 0 0 102587879.6907284 0 0 103052604.4360799 0 0 103487334.4904442 0 0 103893582.4697571 0 0 104583956.6151946 0 0 104272759.5113695 0 0 104349762.479609 0 0 104674795.8077979 0 0 104975675.5415286 0 0 105254705.9938177 0 0 105511806.2590456 0 0 105745591.5025537 0 0 105975153.4911615 0 0 105672038.7442782 0 0 105870237.1683723 0 0 106047153.2379833 0 0 106196610.8077256 0 0 106406665.5990312 0 0 106253050.7312432 0 0 106405151.3029362 0 0 106320718.3395372 0 0 106636921.6284301 0 0 106487600.0502725 0 0 106771534.0773941 0 0 106948407.7007672 0 0 106841031.734111 0 0 106974343.2729138 0 0 107101500.4292609 0 0 82718883.55489744 0 0 43717651.80240037 0 0 44418411.50504208 0 0 46210348.19639364 0 0 47465548.72241539 0 0 48920448.8354994 0 0 50536887.72109158 0 0 53794856.63392628 0 0 50782265.13635852 0 0 55680392.68189488 0 0 57668043.58908181 0 0 59730567.58937294 0 0 61841716.67097559 0 0 63979870.5225219 0 0 66126859.58351519 0 0 66779940.30966929 0 0 69087468.34260988 0 0 71118807.85240611 0 0 73110127.22882023 0 0 75041668.02323261 0 0 76924947.98470426 0 0 78751379.00153977 0 0 79529430.02560024 0 0 80826673.87381084 0 0 82513704.5645965 0 0 83416237.71932237 0 0 84935182.24256046 0 0 86545270.81654759 0 0 85891366.88781798 0 0 87948186.01800469 0 0 89295536.6260127 0 0 90586021.09080753 0 0 91819985.81341116 0 0 92937790.5743265 0 0 92346656.83022417 0 0 94025363.11733198 0 0 95060741.65083694 0 0 96046093.86673951 0 0 96979172.78922948 0 0 97862931.37931506 0 0 97995040.70301439 0 0 99262728.06726572 0 0 98780505.37718904 0 0 99990052.95232581 0 0 100674508.7543902 0 0 101317586.6926252 0 0 101921521.171587 0 0 102214150.4309048 0 0 101814841.5389639 0 0 102737368.2861242 0 0 103226991.1412995 0 0 103684401.966561 0 0 104110649.9586967 0 0 104507646.9601174 0 0 104625780.1374147 0 0 104876499.1908807 0 0 104924100.8622542 0 0 105238170.3606544 0 0 105527647.6403308 0 0 105795967.6112614 0 0 106042319.0115548 0 0 106264888.5408584 0 0 105951461.8612454 0 0 106174915.4546923 0 0 106353169.8428867 0 0 106510575.9907918 0 0 106661438.6698949 0 0 106367146.8422249 0 0 106550642.5562208 0 0 106447206.765321 0 0 106597372.4215647 0 0 107003529.8034557 0 0 106873668.8728679 0 0 107116843.5283537 0 0 107000699.9115489 0 0 107101154.385577 0 0 107287113.4192843 0 0 107107815.4466191 0 0 83208912.03269428 0 0 42641066.30177248 0 0 45081132.95780876 0 0 44475986.68670931 0 0 45878235.52888733 0 0 47416140.08798572 0 0 49191063.0917496 0 0 52682252.83228697 0 0 52341245.7131478 0 0 54717028.86175187 0 0 56851867.37804112 0 0 59056517.11017697 0 0 61305032.79953722 0 0 63574543.23348821 0 0 65845921.3427355 0 0 68267146.43701218 0 0 68942884.40314704 0 0 71081048.67847718 0 0 73174015.59815519 0 0 75233314.66319604 0 0 77228333.085218 0 0 79143409.19430079 0 0 80508184.3779569 0 0 81253036.76657663 0 0 82960576.85044661 0 0 84253562.6312075 0 0 85732331.97534831 0 0 87300884.68264405 0 0 86400001.81960748 0 0 88657017.23357402 0 0 89957370.98799218 0 0 91202152.86732255 0 0 92391308.5419873 0 0 93446877.95411357 0 0 92997333.86547685 0 0 94495408.2153524 0 0 95493362.73297483 0 0 96440830.60663548 0 0 97339064.08997376 0 0 98189132.75024284 0 0 98698099.99908499 0 0 99522690.43534707 0 0 99487236.64944205 0 0 100222753.3536559 0 0 100880312.6351094 0 0 101498399.0052229 0 0 102080414.8122679 0 0 102352089.8546422 0 0 102488919.0415253 0 0 102855700.4350539 0 0 103326902.4504157 0 0 103766883.4770611 0 0 104177275.0789001 0 0 104559319.2265769 0 0 105218230.2347813 0 0 104914273.069357 0 0 104953127.9564074 0 0 105255112.9331876 0 0 105534345.6032101 0 0 105792650.2429813 0 0 106028978.8169062 0 0 106239781.7521247 0 0 106463277.6199319 0 0 106148496.0209136 0 0 106318065.8462516 0 0 106467175.0997205 0 0 106613758.588545 0 0 106814531.2678719 0 0 106571915.1146039 0 0 106709182.2146187 0 0 106810988.2727256 0 0 106844157.7090404 0 0 106949691.5305518 0 0 106804598.3690197 0 0 107038957.69862 0 0 107138783.2776562 0 0 107254582.4366398 0 0 107242716.2832876 0 0 107404506.5713258 0 0 84090111.20591013 0 0 42071136.16478899 0 0 43403900.2029028 0 0 43038261.2128048 0 0 45877844.67983446 0 0 47274816.61543813 0 0 48966774.47191734 0 0 50827877.93201708 0 0 54292361.80644938 0 0 51154374.63535014 0 0 56359608.42053974 0 0 58508602.12960272 0 0 60711516.87412141 0 0 62943805.34785903 0 0 65185192.33149376 0 0 67419372.26138334 0 0 68104238.29057255 0 0 70386824.45648423 0 0 72470597.41666842 0 0 74507509.8219481 0 0 76476863.7387986 0 0 78392610.63183403 0 0 80276980.78662002 0 0 80987007.41168895 0 0 82257628.43201621 0 0 83935275.93861081 0 0 84775581.52306665 0 0 86298483.34325331 0 0 87848500.6027347 0 0 87188933.26084654 0 0 89243714.87550153 0 0 90577684.10570569 0 0 91852568.09050131 0 0 93067650.4553486 0 0 94118766.08043629 0 0 93525496.74245518 0 0 95184415.25381109 0 0 96196350.23060945 0 0 97156601.95875026 0 0 98063778.38996492 0 0 98919454.54851396 0 0 98993044.03285074 0 0 100230555.0911919 0 0 99751582.54361212 0 0 100929483.4390205 0 0 101586064.8108966 0 0 102201236.4583393 0 0 102778060.471714 0 0 103020481.0706418 0 0 102626478.1862167 0 0 103516783.073285 0 0 103979656.9948331 0 0 104410470.6143449 0 0 104810804.6922322 0 0 105181983.9340299 0 0 105243265.8534437 0 0 105525336.2991094 0 0 105533569.0308527 0 0 105823312.5679456 0 0 106090196.6123965 0 0 106336103.9554706 0 0 106560888.2701907 0 0 106763139.1336022 0 0 106431301.9232849 0 0 106645292.507728 0 0 106809383.7118872 0 0 106942313.8222104 0 0 107083105.1910471 0 0 106780536.1384829 0 0 106962540.4883708 0 0 106913244.3878832 0 0 106951075.7306191 0 0 107251178.63573 0 0 107332579.0395565 0 0 107188733.5541165 0 0 107395865.0037968 0 0 107463129.0999474 0 0 107558115.7053876 0 0 107224052.4711801 0 0 107369142.19722 0 0 107341136.3286047 0 0 84636649.45379715 0 0 41012654.8948118 0 0 41435568.60865036 0 0 44351172.95914552 0 0 44162193.36892042 0 0 45715538.91890619 0 0 47535946.7788097 0 0 49565191.36564852 0 0 53265696.96705649 0 0 52852815.70562791 0 0 55487701.47135667 0 0 57787118.34544165 0 0 60134768.34404926 0 0 62505866.33517917 0 0 64879426.59426664 0 0 67237792.82106423 0 0 69631398.95799391 0 0 70335220.92576349 0 0 72524220.43599044 0 0 74661077.44174999 0 0 76749034.46264353 0 0 78768259.91330469 0 0 80691678.76541135 0 0 82018358.3606348 0 0 82721450.56039965 0 0 84448176.1086491 0 0 85612528.61692348 0 0 87083253.79585378 0 0 88589798.60186924 0 0 87759425.60498615 0 0 89933620.08723411 0 0 91219298.22624141 0 0 92446405.05330314 0 0 93615469.23343061 0 0 94604691.84852752 0 0 94223849.56829642 0 0 95629472.1191763 0 0 96604625.21175377 0 0 97526576.15262406 0 0 98397853.46300919 0 0 99220752.11497508 0 0 99727167.19374317 0 0 100466106.899542 0 0 100486866.5657918 0 0 101137762.5239794 0 0 101768104.9478258 0 0 102359999.5842722 0 0 102914685.1985124 0 0 103137338.3323836 0 0 103317607.7592122 0 0 103614523.3276065 0 0 104059569.953418 0 0 104473831.8338778 0 0 104858647.7532964 0 0 105215429.9339857 0 0 105841724.6604624 0 0 105545747.9051249 0 0 105546066.7770597 0 0 105824543.5958187 0 0 106080926.4457617 0 0 106317351.8863172 0 0 106532293.8496122 0 0 106726146.8168655 0 0 106945387.106959 0 0 106614606.8864391 0 0 106755243.4907755 0 0 106892005.9974295 0 0 107037646.7183833 0 0 107211689.1420254 0 0 106892253.9543125 0 0 107041632.9381664 0 0 107199214.3100105 0 0 107125989.7171526 0 0 107266030.2128261 0 0 107309847.0701106 0 0 107387290.5736766 0 0 107501904.2857739 0 0 107487258.4886541 0 0 107619854.4883039 0 0 107299311.6612036 0 0 107429172.4771619 0 0 85498937.67125417 0 0 40433479.672862 0 0 41690273.73723911 0 0 42699516.91825547 0 0 42383017.81316873 0 0 45650382.6045794 0 0 47319642.68265113 0 0 49252364.85306507 0 0 51354660.45484024 0 0 55001813.60068931 0 0 51756365.52574947 0 0 57241518.14024699 0 0 59540410.24179226 0 0 61871739.96648206 0 0 64212918.00455925 0 0 66545316.62059592 0 0 68854067.1780353 0 0 69565522.07443695 0 0 71807819.21658264 0 0 73935366.77426006 0 0 76012994.85787877 0 0 78033404.57620686 0 0 79973864.78506832 0 0 81783881.14716174 0 0 82516338.72790423 0 0 83738514.62319992 0 0 85415698.90765469 0 0 86213489.75404765 0 0 87721031.43993786 0 0 89199187.78422074 0 0 88530073.85612695 0 0 90578024.45537861 0 0 91895575.29697661 0 0 93149615.56327647 0 0 94341977.53949456 0 0 95321322.51288402 0 0 94726727.7081016 0 0 96361379.42997831 0 0 97346901.28130873 0 0 98279556.92951915 0 0 99156093.96860683 0 0 99983959.66328716 0 0 99996097.52085954 0 0 101199893.2343175 0 0 100725220.3370591 0 0 101868807.6213696 0 0 102495648.9881291 0 0 103081377.1519937 0 0 103629015.6223514 0 0 103820848.3973449 0 0 103432912.2552089 0 0 104289216.2642502 0 0 104724305.3869246 0 0 105127591.837983 0 0 105500809.815496 0 0 105845364.6492975 0 0 105849433.9531513 0 0 106162610.2787867 0 0 106131480.0416919 0 0 106397072.3191322 0 0 106640819.0457823 0 0 106863470.4160219 0 0 107066264.311888 0 0 107250186.6994935 0 0 106907979.9746686 0 0 107110051.2203607 0 0 107245103.7923868 0 0 107365514.5012836 0 0 107487397.5119696 0 0 107155936.4754623 0 0 107318738.9354509 0 0 107399413.9934439 0 0 107584855.4280277 0 0 107506154.9110996 0 0 107645392.1416938 0 0 107697832.8069656 0 0 107759741.6993872 0 0 107817815.9518041 0 0 107575692.1071996 0 0 107713022.4334422 0 0 107590474.5504593 0 0 107395515.3945974 0 0 86132497.47107238 0 0 40222772.67877685 0 0 39351184.07129785 0 0 40417618.30798523 0 0 43936141.36484184 0 0 43947228.06736074 0 0 45813057.28991637 0 0 47909884.00039449 0 0 50185548.22296812 0 0 54070248.55265607 0 0 53592155.81341504 0 0 56468622.5274592 0 0 58920445.78707855 0 0 61397559.84877189 0 0 63877860.20551434 0 0 66342079.27037869 0 0 68774224.39554076 0 0 71125105.69118959 0 0 71850707.06175704 0 0 74083492.72719584 0 0 76258204.96046376 0 0 78367078.42562053 0 0 80378223.3838996 0 0 82317337.79831868 0 0 83531608.10389499 0 0 84263286.88837746 0 0 86009486.75363247 0 0 87024309.20317131 0 0 88483122.41280484 0 0 89918359.60851301 0 0 89168550.47112575 0 0 91246535.96457741 0 0 92512783.01857987 0 0 93718352.44172263 0 0 94862279.88369247 0 0 95780820.70654479 0 0 95471905.83332388 0 0 96780579.76606652 0 0 97728147.59079623 0 0 98621452.0045996 0 0 99464460.4327348 0 0 100257259.3428136 0 0 100760090.6147225 0 0 101409845.0919119 0 0 101486562.838252 0 0 102052434.5776169 0 0 102653972.0076016 0 0 103216598.0335975 0 0 103742894.1495192 0 0 103916225.213758 0 0 104139604.199544 0 0 104366116.8907288 0 0 104783787.5756783 0 0 105171127.0775264 0 0 105529522.273971 0 0 105860505.3774661 0 0 106452759.5872449 0 0 106165129.3154624 0 0 106127165.0977786 0 0 106382371.6337238 0 0 106616196.4632519 0 0 106830017.4168784 0 0 107023920.1748718 0 0 107203391.1138438 0 0 107413971.8644536 0 0 107055579.13748 0 0 107181777.3579943 0 0 107307940.9178504 0 0 107423584.3280437 0 0 107592964.6551631 0 0 107246953.3914223 0 0 107342099.4251976 0 0 107511941.7510055 0 0 107440154.3194499 0 0 107563178.4840526 0 0 107618233.8956296 0 0 107676944.8619689 0 0 107717914.1184354 0 0 107580785.5832207 0 0 107752267.4006536 0 0 107561858.6992187 0 0 107519252.613653 0 0 107657995.9239414 0 0 86984216.09419663 0 0 38808867.93991254 0 0 40930036.46942221 0 0 42195308.07300021 0 0 42123474.54311329 0 0 45639085.43439202 0 0 47614096.32517178 0 0 49797811.69162204 0 0 52127441.93035392 0 0 55927051.31462476 0 0 52596081.14816798 0 0 58326948.8008725 0 0 60762103.58500379 0 0 63208336.57894672 0 0 65644974.47471523 0 0 68055444.87991226 0 0 70424437.3581108 0 0 71160620.31748487 0 0 73344899.17624936 0 0 75508468.74376144 0 0 77615231.15702787 0 0 79655269.10923725 0 0 81571934.17129931 0 0 83361832.64608701 0 0 84116567.06347772 0 0 85277544.04919502 0 0 86952779.36163995 0 0 87684381.43143515 0 0 89182364.61232226 0 0 90588636.05803496 0 0 89914250.35162921 0 0 91951537.66692801 0 0 93246748.82964669 0 0 94478304.34408309 0 0 95640345.23475882 0 0 96540772.67493963 0 0 95945874.36033632 0 0 97552562.98714268 0 0 98511370.93083584 0 0 99413860.02004196 0 0 100259762.3634526 0 0 101051429.1743268 0 0 101000592.3920102 0 0 102167930.615384 0 0 101698279.8184379 0 0 102806002.9981594 0 0 103400932.941763 0 0 103955459.1807778 0 0 104472236.6380902 0 0 104613004.3871707 0 0 104231906.6486456 0 0 105052159.6329055 0 0 105458272.3820546 0 0 105833281.1788208 0 0 106178693.3196197 0 0 106495844.3504493 0 0 106442581.4099244 0 0 106785693.2973283 0 0 106716640.5067662 0 0 106958006.7841401 0 0 107178642.8792809 0 0 107379023.2599887 0 0 107560060.3754598 0 0 107722312.3538178 0 0 107357668.1492896 0 0 107552531.7030196 0 0 107666386.6174301 0 0 107773336.5247014 0 0 107872239.131077 0 0 107519427.4968245 0 0 107682622.0935025 0 0 107771859.2212932 0 0 107901934.0227089 0 0 107844522.4366918 0 0 107950134.7656726 0 0 107992446.8512522 0 0 108024754.9333851 0 0 108043462.2269216 0 0 107854510.6004495 0 0 107750855.6092727 0 0 107807391.6437488 0 0 107479014.949304 0 0 107645666.9263301 0 0 107576220.025071 0 0 107698134.7745662 0 0 107648803.628504 0 0 87675862.92837483 0 0 37876224.74676815 0 0 38450598.48068344 0 0 40133618.8918054 0 0 43900190.59893841 0 0 44035137.11229321 0 0 46196931.27575968 0 0 48555729.60492618 0 0 51064822.06691468 0 0 55099870.82355723 0 0 54564043.71844336 0 0 57660262.79267658 0 0 60248997.81411695 0 0 62840778.22582652 0 0 65415954.72999341 0 0 67957071.9830007 0 0 70450124.42093992 0 0 72740407.39259389 0 0 73490096.01396255 0 0 75755701.59637538 0 0 77953782.21238226 0 0 80055678.00498945 0 0 82078160.50266935 0 0 84041815.46673346 0 0 85141647.21135314 0 0 85889621.1937274 0 0 87624653.23021887 0 0 88485318.8692949 0 0 89928005.66068152 0 0 91284779.05847581 0 0 90613792.45891905 0 0 92592856.95787488 0 0 93836542.82454811 0 0 95013693.88293709 0 0 96126334.53367992 0 0 96972639.6462881 0 0 96736485.83103016 0 0 97944367.39210634 0 0 98863340.55994163 0 0 99725837.6202849 0 0 100535627.4321451 0 0 101294268.3562784 0 0 101791723.8630596 0 0 102352336.0140015 0 0 102484075.4248093 0 0 102963799.0182106 0 0 103534316.8061441 0 0 104066194.2338825 0 0 104561769.3885719 0 0 104686371.177038 0 0 104951631.0266949 0 0 105107449.7038779 0 0 105497041.3889251 0 0 105856791.817111 0 0 106188103.1768418 0 0 106492642.6025426 0 0 107049060.6541765 0 0 106769782.6265185 0 0 106696015.9512679 0 0 106927569.8494905 0 0 107139439.985283 0 0 107331167.7187612 0 0 107505737.5255266 0 0 107661511.0122161 0 0 107862169.2728759 0 0 107482274.4077104 0 0 107594930.8332262 0 0 107701311.3282017 0 0 107795831.1468982 0 0 107961460.541633 0 0 107610068.1518339 0 0 107693573.6771821 0 0 107764100.8339461 0 0 107816181.7191782 0 0 107865163.8373771 0 0 107907799.4806589 0 0 107931698.081182 0 0 107942316.8438864 0 0 107764071.052006 0 0 108050271.0876683 0 0 107766304.0314023 0 0 107740809.3361179 0 0 107543037.2043985 0 0 107593151.3867744 0 0 107635877.1979378 0 0 107736441.1693588 0 0 88495624.99867211 0 0 37080776.62142538 0 0 38737196.02350497 0 0 40560762.33092213 0 0 42144841.46857035 0 0 42180697.65186013 0 0 45928700.91687466 0 0 48181617.38916249 0 0 50607287.71265495 0 0 53149758.02441734 0 0 57069764.03065111 0 0 53675453.49350376 0 0 59614400.77049527 0 0 62170285.4800624 0 0 64716157.19962449 0 0 67233675.20525932 0 0 69707576.39167495 0 0 72124304.52521153 0 0 72881164.24472818 0 0 74995838.88599978 0 0 77188318.99464925 0 0 79314412.75245297 0 0 81330909.20876272 0 0 83261442.17563556 0 0 85043413.15547256 0 0 85826247.9911548 0 0 86882359.95113674 0 0 88537658.9449171 0 0 89219989.43229695 0 0 90684767.79342443 0 0 92018489.52093509 0 0 91337087.81763923 0 0 93368977.27879655 0 0 94636638.71147697 0 0 95829582.87633927 0 0 96953958.21384753 0 0 97773141.36749326 0 0 97178936.72246389 0 0 98756411.26024671 0 0 99679252.32435134 0 0 100550043.7180047 0 0 101360752.4814762 0 0 102116158.5182338 0 0 102003981.8627761 0 0 103133036.2824542 0 0 102668738.2355596 0 0 103737213.7678055 0 0 104299046.5784577 0 0 104820390.3514625 0 0 105304760.0791769 0 0 105394649.4782106 0 0 105021023.9922576 0 0 105803538.4796885 0 0 106179755.749615 0 0 106525818.0437974 0 0 106842964.8625146 0 0 107131821.4251552 0 0 107021938.0904499 0 0 107393217.6392537 0 0 107288069.4667748 0 0 107505706.7859267 0 0 107703065.8374569 0 0 107880345.5179437 0 0 108038848.1506196 0 0 108177777.6593789 0 0 107786273.5972085 0 0 107975707.9218006 0 0 108072874.916688 0 0 108161201.0235762 0 0 108245833.0094119 0 0 107881472.2021427 0 0 108039067.2851969 0 0 108107334.627668 0 0 108163034.8043973 0 0 108206905.809075 0 0 108242339.1156911 0 0 108267837.0801055 0 0 108280657.2928798 0 0 108284324.1102634 0 0 108064032.8180477 0 0 107949367.7277476 0 0 108032551.500585 0 0 107716271.4244344 0 0 107834068.7560429 0 0 107863551.5610262 0 0 107887686.7768428 0 0 107674342.2896694 0 0 107776431.9621581 0 0 107784398.5528864 0 0 89273193.99288231 0 0 36120824.62250775 0 0 37065926.08682992 0 0 38267653.27588652 0 0 40261415.20859648 0 0 44178236.42219242 0 0 44416530.44377711 0 0 46864046.48737761 0 0 49473744.58702058 0 0 52199868.09273722 0 0 56351268.44930636 0 0 55769256.4463418 0 0 59057429.59333326 0 0 61766978.44190902 0 0 64458007.31042157 0 0 67113283.17362829 0 0 69716326.1204619 0 0 72255482.06702569 0 0 74475168.09551615 0 0 75244122.10791442 0 0 77532575.21002454 0 0 79740617.78087895 0 0 81858556.63282733 0 0 83881999.53711142 0 0 85803699.2149898 0 0 86811483.75639457 0 0 87596466.54423344 0 0 89286124.50043723 0 0 89989672.09802333 0 0 91400963.51048875 0 0 92692152.64771496 0 0 92087661.56723987 0 0 93972532.08044885 0 0 95185063.15594052 0 0 96328705.80066045 0 0 97406475.09487732 0 0 98175994.51623449 0 0 98014397.14179069 0 0 99115347.76166883 0 0 100003084.705972 0 0 100833715.6420671 0 0 101608471.6430737 0 0 102328932.5221998 0 0 102819489.9571313 0 0 103289800.7127639 0 0 103477986.6134692 0 0 103868483.5176785 0 0 104406305.5286891 0 0 104905907.7891205 0 0 105370099.2032699 0 0 105445336.8586807 0 0 105752054.7432296 0 0 105836939.4538589 0 0 106197660.0015412 0 0 106529154.3411849 0 0 106833255.5097315 0 0 107109505.9600289 0 0 107630298.3409891 0 0 107359452.7121624 0 0 107251143.244245 0 0 107459879.0207145 0 0 107648653.82448 0 0 107818780.8718486 0 0 107971220.8771774 0 0 108101590.2701622 0 0 108293385.0260565 0 0 107895106.3798346 0 0 107990697.7471822 0 0 108079019.2411423 0 0 108159305.3016227 0 0 108318083.5979879 0 0 107955278.9823528 0 0 108020888.5060055 0 0 108073037.4151812 0 0 108115414.9721224 0 0 108150031.0892363 0 0 108172729.4360785 0 0 108179159.8429657 0 0 108187059.2823009 0 0 107974773.6947507 0 0 108288569.4676503 0 0 107954273.7177057 0 0 108020429.6511695 0 0 107753982.7813189 0 0 107769878.3884203 0 0 107783487.6422939 0 0 107901561.7051188 0 0 107720830.1772167 0 0 107736561.2498735 0 0 107816952.7996011 0 0 90075308.56964518 0 0 35306064.77178591 0 0 36632820.44162763 0 0 38202085.99250474 0 0 40332904.7168036 0 0 42408037.09158091 0 0 42568601.57403562 0 0 46515265.8781641 0 0 49034615.58713544 0 0 51686080.21374524 0 0 54420019.26345349 0 0 58427504.01078624 0 0 54993695.48192737 0 0 61098667.2173048 0 0 63758234.63086053 0 0 66387748.60360407 0 0 68970566.37212157 0 0 71493478.6184056 0 0 73944928.10236366 0 0 74721558.42248338 0 0 76756540.97589703 0 0 78964742.59304528 0 0 81078994.52269749 0 0 83091731.83835989 0 0 85010368.68649589 0 0 86811637.01416826 0 0 87614926.1365502 0 0 88531918.33134495 0 0 90170155.38014609 0 0 90783487.51799372 0 0 92234210.39068706 0 0 93478121.16805641 0 0 92791701.45399795 0 0 94799087.23664784 0 0 96035089.511814 0 0 97192418.6610404 0 0 98278015.29580536 0 0 99021406.67793521 0 0 98425821.6024619 0 0 99969147.84495766 0 0 100854547.8664812 0 0 101684151.2643442 0 0 102456299.0908554 0 0 103175015.4956955 0 0 103003476.5581369 0 0 104090406.7730181 0 0 103632812.7170554 0 0 104659738.3488157 0 0 105186587.8347712 0 0 105673496.4381268 0 0 106123656.6937017 0 0 106163130.6187307 0 0 105797709.8837364 0 0 106540416.1228095 0 0 106886758.7734973 0 0 107203138.0996302 0 0 107491097.0769592 0 0 107751612.931802 0 0 107585889.5483222 0 0 107985446.7193518 0 0 107844570.0559499 0 0 108038294.0326636 0 0 108211536.5893854 0 0 108365477.3999281 0 0 108499542.1746338 0 0 108616317.2878498 0 0 108202330.7379834 0 0 108381879.2981542 0 0 108461748.4382317 0 0 108536837.1826976 0 0 108604519.9084026 0 0 108227963.6844058 0 0 108378919.9792878 0 0 108429386.8800306 0 0 108468845.9251304 0 0 108498231.7273708 0 0 108517771.1914979 0 0 108526646.6774288 0 0 108526831.2378738 0 0 108521462.2188706 0 0 108278190.2177836 0 0 108189345.5666775 0 0 108264079.5344112 0 0 107938726.6655541 0 0 108036418.9227109 0 0 108049661.2691269 0 0 108049371.746228 0 0 107892609.9053936 0 0 107925818.416679 0 0 107972896.1156528 0 0 107752731.5175926 0 0 107832746.3096701 0 0 90896811.05914152 0 0 34569692.5212049 0 0 35413280.59722787 0 0 36536178.69855369 0 0 38332030.6876444 0 0 40677479.06389407 0 0 44793855.3965208 0 0 45104813.28203173 0 0 47825021.88627817 0 0 50667366.7460683 0 0 53586684.98768069 0 0 57821562.84748066 0 0 57199288.52914494 0 0 60654627.31551912 0 0 63467686.63061214 0 0 66241066.59987202 0 0 68960516.23700516 0 0 71610202.12587446 0 0 74182705.91693397 0 0 76319686.79594171 0 0 77105039.561579 0 0 79405675.85785505 0 0 81612906.61068507 0 0 83737047.04341626 0 0 85753287.20915167 0 0 87664132.13358586 0 0 88572175.92720658 0 0 89342706.43048359 0 0 90987010.02562015 0 0 91522173.67404252 0 0 92910660.89683293 0 0 94125505.11469845 0 0 93626004.62349193 0 0 95380392.3813033 0 0 96554426.17984851 0 0 97657836.11091544 0 0 98695035.78701101 0 0 99390322.60817593 0 0 99303878.44178633 0 0 100293065.7900039 0 0 101142494.9855764 0 0 101934787.3095309 0 0 102671568.9563561 0 0 103355667.8578913 0 0 103841784.6413809 0 0 104219117.9501229 0 0 104462741.5984137 0 0 104763401.7687567 0 0 105267278.8407619 0 0 105732956.3049291 0 0 106164542.2974108 0 0 106190927.950645 0 0 106538726.3676835 0 0 106552424.3803174 0 0 106883548.6338508 0 0 107186280.2816871 0 0 107462126.2310815 0 0 107710314.7600236 0 0 108195466.7437569 0 0 107933411.6856377 0 0 107791549.3595941 0 0 107976683.6702893 0 0 108142424.5333445 0 0 108289610.1384098 0 0 108418357.633488 0 0 108520053.7491534 0 0 108703624.3446516 0 0 108291690.7148175 0 0 108372598.0060133 0 0 108444073.6962296 0 0 108507819.1736737 0 0 108659354.5130783 0 0 108285984.2179754 0 0 108333707.5421567 0 0 108371072.6989797 0 0 108398814.7924216 0 0 108416072.6281712 0 0 108421643.0431471 0 0 108421737.8470453 0 0 108415613.1177296 0 0 108176569.1066076 0 0 108508650.4479228 0 0 108172953.1107871 0 0 108249529.6078854 0 0 107941494.316603 0 0 107942856.1400415 0 0 107926907.6405679 0 0 107892901.3364104 0 0 107876942.6225396 0 0 107942614.5044039 0 0 107737810.7291083 0 0 107824878.9185051 0 0 91672538.16845313 0 0 33537228.02809457 0 0 34620609.70610604 0 0 36394247.78827834 0 0 38259038.15687381 0 0 40571793.93056104 0 0 43030231.78506576 0 0 43291657.00187189 0 0 47411680.99489518 0 0 50172798.30952244 0 0 53027809.91087861 0 0 55931038.25978026 0 0 59991620.90171494 0 0 56541926.25532651 0 0 62770832.78340217 0 0 65516698.13943961 0 0 68213584.73561245 0 0 70845248.1891527 0 0 73402845.11366045 0 0 75876905.10588503 0 0 76668061.29720882 0 0 78614916.50949809 0 0 80824122.99260758 0 0 82941431.921463 0 0 84937316.42629822 0 0 86849837.88368443 0 0 88635108.6007928 0 0 89431691.14160968 0 0 90234433.28061762 0 0 91829823.65285175 0 0 92395382.04150367 0 0 93815281.21165994 0 0 94967001.31564569 0 0 94271713.42322323 0 0 96247277.56296213 0 0 97443000.08531231 0 0 98561735.08094686 0 0 99613401.73863824 0 0 100276702.4295519 0 0 99682564.78993513 0 0 101182501.7465927 0 0 102027623.3858829 0 0 102815372.5590342 0 0 103547274.4991232 0 0 104225882.1430946 0 0 103994980.0588887 0 0 105037636.837205 0 0 104587533.7957316 0 0 105570053.5683881 0 0 106061158.8978904 0 0 106512398.0054724 0 0 106927917.6273368 0 0 106915948.7178547 0 0 106559959.4849656 0 0 107261783.9057577 0 0 107576961.0740178 0 0 107863022.4479493 0 0 108121410.632806 0 0 108353494.5160462 0 0 108134633.4338267 0 0 108559989.1524815 0 0 108384861.7333933 0 0 108553708.570465 0 0 108702739.5129217 0 0 108832745.2286584 0 0 108942250.9750933 0 0 109030965.3007398 0 0 108601164.7824687 0 0 108773198.8140918 0 0 108838902.087349 0 0 108899006.3115938 0 0 108947360.8205569 0 0 108559733.5057838 0 0 108703216.2592234 0 0 108736801.4969098 0 0 108760259.6768626 0 0 108773634.7992634 0 0 108777402.2692054 0 0 108772219.9151359 0 0 108760474.037531 0 0 108741888.1650522 0 0 108492851.299785 0 0 108400158.8509155 0 0 108468996.7654925 0 0 108152142.60029 0 0 108230833.0303461 0 0 108209580.8104342 0 0 108169807.5770367 0 0 108138690.8737847 0 0 108126790.6342551 0 0 108032408.0792587 0 0 107938280.5429171 0 0 107752427.3568018 0 0 107810093.3011752 0 0 92568005.71261878 0 0 32679387.77546369 0 0 33728677.70609374 0 0 34714770.13673166 0 0 36410159.0024964 0 0 38741821.79034887 0 0 41434920.54796045 0 0 45737117.87990082 0 0 46115005.49668569 0 0 49078966.35356136 0 0 52128091.62861446 0 0 55217221.81134489 0 0 59502874.87614309 0 0 58848728.40880016 0 0 62443661.07191417 0 0 65341742.24092155 0 0 68180715.55847222 0 0 70947551.72839959 0 0 73630147.19695896 0 0 76222054.15570094 0 0 78263529.14896132 0 0 79063108.31718962 0 0 81363477.58445255 0 0 83561684.42650343 0 0 85665073.89570147 0 0 87658781.15857339 0 0 89547016.85278988 0 0 90352695.65995358 0 0 91130608.02117759 0 0 92714459.87298262 0 0 93094505.93069822 0 0 94470329.20761988 0 0 95571298.40975507 0 0 95169369.1020951 0 0 96786968.27867298 0 0 97923882.16414347 0 0 98988672.9401326 0 0 99992295.84570421 0 0 100607197.8682737 0 0 100601167.8165447 0 0 101473062.4288783 0 0 102279778.4824643 0 0 103030447.5372289 0 0 103727822.8723882 0 0 104375731.7383305 0 0 104854626.8258622 0 0 105137378.3593444 0 0 105436276.7018628 0 0 105645853.4963259 0 0 106114532.8072589 0 0 106546085.6241758 0 0 106943469.7774332 0 0 106921137.0640972 0 0 107307974.4551791 0 0 107251210.871992 0 0 107552262.4632123 0 0 107826134.0899898 0 0 108071973.3128 0 0 108293050.3430275 0 0 108743910.4288414 0 0 108490507.9857806 0 0 108315641.4995177 0 0 108476653.669124 0 0 108618756.1405954 0 0 108743036.0121244 0 0 108845246.7789684 0 0 108918717.7311985 0 0 109093577.5824704 0 0 108671594.4506567 0 0 108739391.8692796 0 0 108795086.8537171 0 0 108840817.2516321 0 0 108984715.6530264 0 0 108601091.695557 0 0 108632630.4538496 0 0 108654402.7544691 0 0 108665769.6669406 0 0 108667286.278964 0 0 108661297.7932208 0 0 108648708.9445783 0 0 108629237.7463152 0 0 108389742.4668999 0 0 108718373.9969337 0 0 108361736.793483 0 0 108438933.8030022 0 0 108127438.9091957 0 0 108102274.7041273 0 0 108055971.8678635 0 0 108012926.2990476 0 0 108003934.1622223 0 0 107963666.4331808 0 0 107877670.3458315 0 0 107740979.2824018 0 0 107784826.8406452 0 0 93292343.2323854 0 0 31631406.48289414 0 0 32866941.34159216 0 0 34711124.6546117 0 0 36398104.00421553 0 0 38598595.79693615 0 0 41207912.37048844 0 0 44013945.46424913 0 0 44351724.12916081 0 0 48613602.46245289 0 0 51590875.13524034 0 0 54623726.73558854 0 0 57670415.67018226 0 0 61753411.23253696 0 0 58310869.60265521 0 0 64621318.83483382 0 0 67435288.88495815 0 0 70181644.02115831 0 0 72846825.97097751 0 0 75425182.34919164 0 0 77908451.90176792 0 0 78715353.95947737 0 0 80558700.75720942 0 0 82757798.58864088 0 0 84855576.42955393 0 0 86854013.99071954 0 0 88752620.91511992 0 0 90495692.31288292 0 0 91278353.33541127 0 0 91959261.84384719 0 0 93521184.52538131 0 0 94032031.96103011 0 0 95417770.11102235 0 0 96478911.94885613 0 0 95787573.94673991 0 0 97709171.36824164 0 0 98862397.6880199 0 0 99941476.64514318 0 0 100950754.1213198 0 0 101527001.7012783 0 0 100937447.1990489 0 0 102391123.8279978 0 0 103192956.0629449 0 0 103937210.3231126 0 0 104627311.6186162 0 0 105265310.4552183 0 0 104975536.4755242 0 0 105972956.1274635 0 0 105530549.0110567 0 0 106466866.2950197 0 0 106919685.5736757 0 0 107335509.1753585 0 0 107715107.8025036 0 0 107652039.2139504 0 0 107304624.2112329 0 0 107965192.1356792 0 0 108248844.8932185 0 0 108503888.7147405 0 0 108732920.3290519 0 0 108935981.1084909 0 0 108666343.4619858 0 0 109115212.6736834 0 0 108907347.8815709 0 0 109050752.0482795 0 0 109175443.256586 0 0 109279879.0398941 0 0 109366160.1253489 0 0 109423678.4363503 0 0 108980761.2457595 0 0 109149230.1709769 0 0 109201391.6922927 0 0 109243042.1612572 0 0 109273530.4192332 0 0 108875749.1421695 0 0 109011660.4837507 0 0 109028708.2209952 0 0 109036002.6548041 0 0 109033690.7271885 0 0 109022817.5485488 0 0 109004663.2354563 0 0 108979755.0762884 0 0 108949292.6403944 0 0 108689492.6127027 0 0 108607107.0927919 0 0 108653263.7367226 0 0 108331010.6501308 0 0 108403581.8608384 0 0 108361922.7010051 0 0 108319939.9334074 0 0 108272450.9109558 0 0 108221803.4528729 0 0 108106674.1695396 0 0 108008584.7724385 0 0 107927055.5468541 0 0 107797340.4136113 0 0 94263957.53476472 0 0 30949678.99865672 0 0 33277215.45409125 0 0 32432701.15969615 0 0 34299533.69774035 0 0 36732047.74630845 0 0 39513273.85560536 0 0 42542505.63349659 0 0 47004432.44436493 0 0 47437111.79951905 0 0 50619290.99060118 0 0 53846190.96105116 0 0 57079688.23544993 0 0 61384823.11320339 0 0 60705325.3544186 0 0 64413075.51249691 0 0 67377685.50254427 0 0 70265264.29213317 0 0 73064049.28708702 0 0 75765042.05367702 0 0 78362476.9427432 0 0 80294262.1289264 0 0 81107843.02552022 0 0 83394903.17154883 0 0 85575767.88965179 0 0 87647714.79093692 0 0 89607887.93473299 0 0 91462201.79304242 0 0 92147422.73829623 0 0 92918833.23356906 0 0 94478677.73256628 0 0 94699657.47492678 0 0 96024870.75055614 0 0 97035752.76495638 0 0 96731969.12370855 0 0 98206260.38409823 0 0 99301168.11541247 0 0 100328205.4045068 0 0 101292529.6726996 0 0 101822683.3260114 0 0 101895077.2700945 0 0 102644327.1724696 0 0 103407475.9143205 0 0 104116730.7937786 0 0 104774485.8808148 0 0 105381956.583234 0 0 105853571.4438831 0 0 106041958.1273688 0 0 106394288.8930811 0 0 106513088.877479 0 0 106946147.1281283 0 0 107343150.9898396 0 0 107703428.3124143 0 0 107632906.7005828 0 0 108058948.877728 0 0 107931554.3601852 0 0 108202198.5382853 0 0 108445326.4602233 0 0 108663528.5367426 0 0 108856811.7344881 0 0 109272914.1887054 0 0 109028359.7846752 0 0 108821966.0424065 0 0 108958379.0125561 0 0 109076757.3364757 0 0 109178044.6867921 0 0 109253633.207007 0 0 109301692.568336 0 0 109470101.4758996 0 0 109039985.5970417 0 0 109090509.0359458 0 0 109129323.7223975 0 0 109157490.4582742 0 0 109293553.8811141 0 0 108900664.1086672 0 0 108916061.1017503 0 0 108921894.1993291 0 0 108917843.8897311 0 0 108906034.7988902 0 0 108887291.4149189 0 0 108861941.1943544 0 0 108831738.6669094 0 0 108577200.2377469 0 0 108913435.1056686 0 0 108540856.2119468 0 0 108611993.2492371 0 0 108296383.5300803 0 0 108250880.8254222 0 0 108213805.8775297 0 0 108164331.4696511 0 0 108121720.4397832 0 0 108187808.5432726 0 0 108061428.9984855 0 0 107934132.8193022 0 0 107849980.5391714 0 0 94961670.78710088 0 0 29885035.67446281 0 0 31383727.18906823 0 0 34487737.50050578 0 0 36677383.42362346 0 0 39308685.11907703 0 0 42237303.95351044 0 0 45344638.32578082 0 0 45743406.22172758 0 0 50109938.65223838 0 0 53275723.55575711 0 0 56458365.59257706 0 0 59626293.40527332 0 0 63700730.01387513 0 0 60290618.67714688 0 0 66637607.45637631 0 0 69501578.65990649 0 0 72280410.33541973 0 0 74965365.60765359 0 0 77550514.14484084 0 0 80030523.23039456 0 0 80851704.90467222 0 0 82578497.05201581 0 0 84757567.04427657 0 0 86830404.99837606 0 0 88798072.16655822 0 0 90656535.00786261 0 0 92347580.40660918 0 0 93131050.01053762 0 0 93719742.12607574 0 0 95236097.64494255 0 0 95683227.59967765 0 0 97030274.69560622 0 0 97992848.81255199 0 0 97303466.52554417 0 0 99177020.51223932 0 0 100284336.8763399 0 0 101318755.3064315 0 0 102283081.3853393 0 0 102774271.2379837 0 0 102191437.3754496 0 0 103590637.7065649 0 0 104347435.0402521 0 0 105047697.4603196 0 0 105694168.2140328 0 0 106288860.1047406 0 0 105941214.4991044 0 0 106890978.0622529 0 0 106456782.1562064 0 0 107346845.0092125 0 0 107762243.5003194 0 0 108141705.8418263 0 0 108481233.2493631 0 0 108369304.111768 0 0 108030941.6983256 0 0 108649402.0477842 0 0 108900562.7624669 0 0 109124720.2816629 0 0 109322911.1282015 0 0 109497929.9656671 0 0 109178571.5606771 0 0 109649691.2701194 0 0 109410320.1075904 0 0 109528151.2209988 0 0 109629520.6996258 0 0 109705415.6212473 0 0 109762600.642524 0 0 109805020.1061861 0 0 109348923.8272662 0 0 109510887.7665979 0 0 109546545.3616347 0 0 109569872.8274356 0 0 109582546.6829964 0 0 109175524.6711312 0 0 109303678.8856039 0 0 109304353.3634167 0 0 109295913.8784152 0 0 109278754.1135666 0 0 109253880.3514869 0 0 109222592.6792955 0 0 109185168.0577758 0 0 109142256.2757844 0 0 108871766.3452472 0 0 108795593.982206 0 0 108824524.4838336 0 0 108499320.5329944 0 0 108565337.708844 0 0 108515049.3476313 0 0 108461207.0206883 0 0 108405495.8213062 0 0 108326289.125228 0 0 108254953.2761649 0 0 108177026.8685564 0 0 108071001.8984616 0 0 107957615.2807911 0 0 95980585.23282148 0 0 29129249.38887094 0 0 30700397.06950935 0 0 32338130.84282294 0 0 34719702.05818798 0 0 37540999.01986925 0 0 40666272.08449494 0 0 44002960.59659158 0 0 48584669.92898344 0 0 49059447.52420984 0 0 52428844.05026166 0 0 55807091.02857525 0 0 59160684.61664526 0 0 63454176.41757699 0 0 62754168.94617887 0 0 66549703.76391933 0 0 69562791.09540133 0 0 72481660.64433211 0 0 75297356.98833196 0 0 78002876.75988711 0 0 80593511.83119024 0 0 82402929.56074758 0 0 83229731.17684293 0 0 85494116.27069269 0 0 87643331.41265579 0 0 89674709.65355672 0 0 91581045.57926072 0 0 93352473.56068723 0 0 93954121.23204023 0 0 94720142.38722323 0 0 96257933.64378417 0 0 96316020.33731352 0 0 97596853.1363561 0 0 98503423.94027968 0 0 98298579.38672252 0 0 99629045.50072202 0 0 100682164.2807978 0 0 101666124.7588376 0 0 102581954.041838 0 0 103027781.5138603 0 0 103179169.5477914 0 0 103804575.4346997 0 0 104524567.2337355 0 0 105190855.6363774 0 0 105805833.0385593 0 0 106370811.5216813 0 0 106834190.5556146 0 0 106930429.7934113 0 0 107333351.1009508 0 0 107364654.9752782 0 0 107762369.9811501 0 0 108121280.3490617 0 0 108444553.3159191 0 0 108327338.7303418 0 0 108788903.7916924 0 0 108594449.7355589 0 0 108833657.8383713 0 0 109046825.9042401 0 0 109235546.3842857 0 0 109401451.3990298 0 0 109780933.9397104 0 0 109545921.209482 0 0 109309108.7939921 0 0 109421071.0406679 0 0 109517680.0419661 0 0 109588784.7432135 0 0 109633119.2681203 0 0 109670380.5538648 0 0 109833884.2283888 0 0 109393050.7622642 0 0 109425277.0658189 0 0 109446329.8018957 0 0 109457217.1122377 0 0 109585304.0706625 0 0 109184003.1657424 0 0 109183287.3603459 0 0 109173768.9726364 0 0 109155819.0198758 0 0 109130479.0983329 0 0 109098887.3557903 0 0 109061586.8625146 0 0 109018709.7259056 0 0 108753967.0478694 0 0 109093940.9812885 0 0 108706864.9118108 0 0 108772346.496611 0 0 108451996.4414612 0 0 108403818.7189226 0 0 108348909.5458408 0 0 108307344.2494282 0 0 108289996.1799853 0 0 108230548.9386698 0 0 108119440.2570288 0 0 108012419.8652509 0 0 96624278.32731378 0 0 28139927.11781673 0 0 29749439.47428317 0 0 32158528.78995621 0 0 34715290.24153493 0 0 37420047.59980576 0 0 40412161.71084857 0 0 43648938.35096291 0 0 47016029.51890613 0 0 47454060.01062579 0 0 51888802.12106734 0 0 55211717.00119273 0 0 58518020.31130207 0 0 61781445.40588858 0 0 65819023.1381015 0 0 62463683.51473003 0 0 68805823.63204986 0 0 71701221.32657984 0 0 74497501.97203712 0 0 77187621.47443721 0 0 79766598.54400323 0 0 82230481.08916029 0 0 83066122.31722572 0 0 84664409.88717705 0 0 86812585.52865647 0 0 88849551.13262957 0 0 90770507.34753172 0 0 92577777.66296434 0 0 94210470.70934343 0 0 94995015.33350815 0 0 95498867.19215415 0 0 96964239.01773486 0 0 97363661.06924796 0 0 98652816.21416169 0 0 99511589.04890496 0 0 98822468.21484788 0 0 100647731.7645661 0 0 101706175.3741664 0 0 102690997.9889561 0 0 103604947.2697734 0 0 104010176.0511819 0 0 103432994.8033387 0 0 104778922.0471573 0 0 105488758.2473788 0 0 106143096.4061076 0 0 106743519.9627793 0 0 107293616.559761 0 0 106889411.7271692 0 0 107790398.2097905 0 0 107365160.1040519 0 0 108208583.9920862 0 0 108587184.0369761 0 0 108925218.254492 0 0 109227951.2329082 0 0 109065996.6680935 0 0 108737842.8663386 0 0 109313507.9899049 0 0 109532828.4597529 0 0 109724874.9836341 0 0 109893815.9844433 0 0 110038524.4795277 0 0 109670166.3428072 0 0 110162928.3125482 0 0 109892394.5794233 0 0 109983618.1512289 0 0 110057713.4963104 0 0 110106921.1842166 0 0 110142027.5688642 0 0 110163382.144716 0 0 109703805.7560599 0 0 109857923.6936836 0 0 109873499.9904335 0 0 109878466.0578036 0 0 109873770.8733293 0 0 109458484.6061094 0 0 109578854.4242535 0 0 109563467.9375033 0 0 109539711.5974887 0 0 109508336.4746001 0 0 109469991.4928099 0 0 109425556.8572165 0 0 109375517.9141647 0 0 109320221.8418258 0 0 109040608.3651221 0 0 108970549.0281594 0 0 108982598.6268971 0 0 108654757.6760153 0 0 108716093.9382206 0 0 108655762.1847901 0 0 108591633.8040338 0 0 108532696.6041917 0 0 108445435.6346114 0 0 108347857.1588078 0 0 108233162.3458604 0 0 108122225.0587932 0 0 97720123.1790655 0 0 27345818.04685619 0 0 28872089.14310312 0 0 30960060.8124168 0 0 32829128.37606099 0 0 35566345.12666522 0 0 38744119.88248719 0 0 42210076.33723649 0 0 45803929.41173057 0 0 50461132.64627816 0 0 50964373.95684037 0 0 54490843.58655334 0 0 57991798.3512462 0 0 61439513.97271366 0 0 65695115.96349262 0 0 64978499.53446537 0 0 68838980.08982319 0 0 71877196.67520539 0 0 74808571.25638983 0 0 77629374.71820487 0 0 80330751.66365026 0 0 82902934.62699886 0 0 84577489.52260895 0 0 85418603.63738073 0 0 87649330.52132389 0 0 89758958.07195315 0 0 91748772.0259002 0 0 93587369.00786625 0 0 95289078.15463652 0 0 95777422.94091384 0 0 96554603.69818833 0 0 98058168.07598972 0 0 97942257.98813951 0 0 99168404.80151379 0 0 99975318.07111336 0 0 99866198.30035727 0 0 101052943.4270451 0 0 102057690.4555613 0 0 102992011.7671259 0 0 103858694.4446477 0 0 104222297.517227 0 0 104451116.0882011 0 0 104952523.0209652 0 0 105627345.4995067 0 0 106248493.0507436 0 0 106819031.748207 0 0 107341090.9728505 0 0 107795494.1487021 0 0 107799375.5249951 0 0 108252287.1065003 0 0 108198205.7067312 0 0 108558167.4971465 0 0 108879169.9061092 0 0 109166086.9224831 0 0 109001865.6337176 0 0 109499028.1011741 0 0 109237209.7874037 0 0 109444908.0782492 0 0 109628183.2398252 0 0 109787004.1922965 0 0 109924844.6336468 0 0 110267090.0132314 0 0 110042179.0882647 0 0 109775310.8057344 0 0 109861334.8524317 0 0 109928746.2412141 0 0 109968664.9025862 0 0 109995017.2122492 0 0 110022271.6547661 0 0 110179005.7206397 0 0 109728331.3766954 0 0 109741922.6203706 0 0 109745326.384331 0 0 109739312.0824768 0 0 109859629.818067 0 0 109450753.3894183 0 0 109434437.0268967 0 0 109409959.5881474 0 0 109378413.900814 0 0 109339939.4108782 0 0 109295718.2153257 0 0 109245970.5147188 0 0 109191034.997722 0 0 108917592.903823 0 0 109260174.1611681 0 0 108860082.9610556 0 0 108920436.3837337 0 0 108599499.3129312 0 0 108539790.5249077 0 0 108479048.7554658 0 0 108426033.9064366 0 0 108365221.9079525 0 0 108287348.946201 0 0 108182422.740709 0 0 98314608.86922401 0 0 26449324.04133647 0 0 27917998.33648349 0 0 30008497.70245273 0 0 32532928.92336373 0 0 35535106.52138272 0 0 38584298.403288 0 0 41918402.0379876 0 0 45421695.89892843 0 0 48999793.65560483 0 0 49457547.61091075 0 0 53929564.02441656 0 0 57379389.96274576 0 0 60782343.00144617 0 0 64114667.89447933 0 0 68092009.37517309 0 0 64811479.96830271 0 0 71107556.28019987 0 0 74018531.47460186 0 0 76818893.51145685 0 0 79499310.22790548 0 0 82059814.06541464 0 0 84495986.37771772 0 0 85347155.87702034 0 0 86805892.02790602 0 0 88916088.00478896 0 0 90910678.67974862 0 0 92772232.20112674 0 0 94473929.12944093 0 0 96080412.0431063 0 0 96880809.80929554 0 0 97280897.48798956 0 0 98699614.41204146 0 0 99038242.61717895 0 0 100281214.3140327 0 0 101033839.523146 0 0 100345338.484806 0 0 102115720.3962059 0 0 103121362.9689601 0 0 104053436.2566972 0 0 104914210.1828672 0 0 105232408.5899885 0 0 104661137.3007223 0 0 105951684.7599592 0 0 106613002.1799463 0 0 107219245.68868 0 0 107772428.7666333 0 0 108277047.6991474 0 0 107817289.5611806 0 0 108668514.3905556 0 0 108251486.5549838 0 0 109047755.2799247 0 0 109387869.3749427 0 0 109685609.3122922 0 0 109950895.4336011 0 0 109741098.9794014 0 0 109424804.4704719 0 0 109956164.6988451 0 0 110141653.5860131 0 0 110303617.7681415 0 0 110440370.0015173 0 0 110557265.21733 0 0 110140325.6626605 0 0 110652986.7109293 0 0 110353011.9180107 0 0 110417458.1011192 0 0 110459626.3052115 0 0 110482530.473231 0 0 110494567.3022197 0 0 110505049.7582568 0 0 110039026.5588161 0 0 110184253.5894671 0 0 110180898.8055915 0 0 110168534.683171 0 0 110146568.1174995 0 0 109724178.0043046 0 0 109836802.9147407 0 0 109805772.9918621 0 0 109767238.3317007 0 0 109721859.6712944 0 0 109670173.9925153 0 0 109612907.5757745 0 0 109550484.616975 0 0 109483256.7300341 0 0 109195702.1700306 0 0 109131496.786326 0 0 109127412.5736219 0 0 108798867.6080402 0 0 108854511.8532747 0 0 108783978.0470045 0 0 108707832.6788564 0 0 108647575.8607691 0 0 108542595.2641526 0 0 108401787.4315259 0 0 108284120.8515435 0 0 99448511.80410258 0 0 25728180.88050776 0 0 27398871.83139424 0 0 29544079.69930977 0 0 31610328.89965316 0 0 33692735.88910258 0 0 36797372.55793738 0 0 40383359.06801584 0 0 44108869.28523324 0 0 47902730.75425074 0 0 52611286.13383085 0 0 53130666.75201245 0 0 56783363.51731726 0 0 60379225.67178797 0 0 63896344.30230074 0 0 68090602.77323358 0 0 67358819.39563285 0 0 71258714.39288233 0 0 74304656.33103161 0 0 77239615.14277929 0 0 80045393.62190995 0 0 82733245.83062406 0 0 85278271.39748558 0 0 86807635.62199709 0 0 87663444.60681269 0 0 89851527.7234766 0 0 91913771.2284389 0 0 93848011.42564407 0 0 95612876.8070347 0 0 97269062.30951601 0 0 97621747.29365078 0 0 98416168.01706241 0 0 99850612.51502053 0 0 99563187.084086 0 0 100737214.0857549 0 0 101445499.7020537 0 0 101447353.7442206 0 0 102471213.906375 0 0 103423830.4164401 0 0 104306102.9765155 0 0 105121443.1382353 0 0 105402105.0960235 0 0 105708551.0954651 0 0 106084363.5752645 0 0 106711637.2164739 0 0 107286117.0626614 0 0 107811040.7039267 0 0 108288816.4366621 0 0 108734724.4156948 0 0 108647115.9617585 0 0 109148520.1500938 0 0 109009817.9134202 0 0 109330531.0196161 0 0 109612609.7646043 0 0 109865119.8847212 0 0 109656461.4763761 0 0 110186504.6799973 0 0 109857469.5032579 0 0 110036061.795316 0 0 110185938.8026334 0 0 110316254.322793 0 0 110426068.1421294 0 0 110730386.8502106 0 0 110516096.0247685 0 0 110221404.8939611 0 0 110282967.189084 0 0 110316140.9947295 0 0 110330825.3407908 0 0 110345910.5988363 0 0 110356851.805802 0 0 110502628.0448746 0 0 110044121.9244467 0 0 110039947.5296248 0 0 110026180.8317054 0 0 110003409.0883112 0 0 110115892.6768515 0 0 109700579.45753 0 0 109669058.1252932 0 0 109630377.2900369 0 0 109585036.5141182 0 0 109533702.203247 0 0 109476974.1678 0 0 109415140.0560402 0 0 109348759.3727054 0 0 109067807.0743994 0 0 109411878.8425494 0 0 109000481.9423289 0 0 109055601.2641056 0 0 108733881.6967429 0 0 108665243.5164212 0 0 108594319.530325 0 0 108525354.1894926 0 0 108450350.801128 0 0 108348367.8562309 0 0 99990359.54936568 0 0 24883927.21283013 0 0 26274852.02664438 0 0 28270799.65996453 0 0 30751658.6849102 0 0 33593218.67942291 0 0 36774359.41947062 0 0 40184290.62170698 0 0 43802317.8864123 0 0 47512241.05101648 0 0 51261459.43499125 0 0 51728097.98615277 0 0 56208230.36271223 0 0 59754428.88910282 0 0 63225794.81691061 0 0 66604984.28784586 0 0 70500354.49127023 0 0 67315751.61585087 0 0 73523015.48680669 0 0 76432901.38161777 0 0 79220285.628271 0 0 81886802.50429766 0 0 84417225.56104939 0 0 86815020.44392414 0 0 87683335.60368086 0 0 88993665.67485088 0 0 91057882.91843678 0 0 93011485.2080176 0 0 94776665.0675025 0 0 96455646.06423774 0 0 97995994.49308953 0 0 98798736.51092 0 0 99069740.44086963 0 0 100429965.9047146 0 0 100724314.0247693 0 0 101904738.6189678 0 0 102548605.916961 0 0 101859899.2987064 0 0 103574836.9967577 0 0 104525095.2022086 0 0 105401026.9578489 0 0 106207204.1170105 0 0 106437491.7591184 0 0 105873483.0622502 0 0 107105713.6758334 0 0 107716530.1029025 0 0 108272184.2991164 0 0 108778148.1468028 0 0 109235106.108252 0 0 108722786.8689018 0 0 109524670.7366759 0 0 109116374.5896261 0 0 109861288.7728322 0 0 110158858.7421586 0 0 110419687.6286531 0 0 110647192.9518945 0 0 110393409.6228127 0 0 110089398.2285195 0 0 110573979.586246 0 0 110727377.7043683 0 0 110859039.4680398 0 0 110963233.6580289 0 0 111050912.3984368 0 0 110588694.0247008 0 0 111119007.0528741 0 0 110790878.8405609 0 0 110827255.7894372 0 0 110843214.0943498 0 0 110840635.4133551 0 0 110835682.8018479 0 0 110830059.6109857 0 0 110353659.4607796 0 0 110489167.07122 0 0 110469815.8631331 0 0 110439662.8989802 0 0 110400625.2800439 0 0 109972215.9181663 0 0 110077136.8634366 0 0 110030950.666734 0 0 109977978.9435507 0 0 109918817.3883876 0 0 109854033.1213014 0 0 109784107.6305059 0 0 109709736.3579259 0 0 109631207.288508 0 0 109336812.0353517 0 0 109278370.0131623 0 0 109258465.1519801 0 0 108929946.9172752 0 0 108979949.5844669 0 0 108898272.2025717 0 0 108805243.5048392 0 0 108735843.1995878 0 0 108570841.6640424 0 0 108443439.7114023 0 0 101187363.5642055 0 0 24248012.68545744 0 0 25905013.07667792 0 0 28511704.25138854 0 0 31700331.31577242 0 0 31360745.3066331 0 0 34751012.07444586 0 0 38517653.91410024 0 0 42377636.79972392 0 0 46318484.91156485 0 0 50279632.67470697 0 0 55003301.58050526 0 0 55533510.24302824 0 0 59284887.67951202 0 0 62947614.38588773 0 0 66512959.24948502 0 0 70619730.58713445 0 0 69876109.44998609 0 0 73795892.09320666 0 0 76838873.70511888 0 0 79756506.28658932 0 0 82548052.72110063 0 0 85202648.66538595 0 0 87708130.61395971 0 0 89080160.17435288 0 0 89952438.08997418 0 0 92089801.09978235 0 0 94095403.63771406 0 0 95965060.89747925 0 0 97664045.67496233 0 0 99273492.66996162 0 0 99472679.6788929 0 0 100271765.4434542 0 0 101646456.7668968 0 0 101182985.4800066 0 0 102307701.645312 0 0 102907637.4896559 0 0 103007595.891209 0 0 103878415.9991443 0 0 104776240.5175348 0 0 105604511.4048528 0 0 106366466.20394 0 0 106564030.1998553 0 0 106946621.4157526 0 0 107196243.2229494 0 0 107773652.3350032 0 0 108300952.8169291 0 0 108779240.7007484 0 0 109211894.1369464 0 0 109648842.3418373 0 0 109473822.8181063 0 0 110019779.0288693 0 0 109791608.2870099 0 0 110073442.7302034 0 0 110319947.7657357 0 0 110536381.079529 0 0 110285747.4537579 0 0 110846612.3286866 0 0 110453818.3284856 0 0 110600348.9669047 0 0 110721341.0755359 0 0 110821922.2247182 0 0 110903559.9969563 0 0 111169839.8540705 0 0 110966835.7822379 0 0 110646007.4177041 0 0 110675542.7941907 0 0 110690491.403139 0 0 110686250.3079738 0 0 110681268.3287585 0 0 110670383.8274333 0 0 110807433.7998038 0 0 110340513.2058094 0 0 110319453.1481484 0 0 110288334.1026139 0 0 110249173.9532661 0 0 110353759.006832 0 0 109933198.6512419 0 0 109887078.2885774 0 0 109834365.3003954 0 0 109775719.7276339 0 0 109711734.6644952 0 0 109642685.8010441 0 0 109569242.0433984 0 0 109491907.2301276 0 0 109204371.1700177 0 0 109549147.2175721 0 0 109127220.8557668 0 0 109177311.8072484 0 0 108855690.0450038 0 0 108776337.4176082 0 0 108687352.1689331 0 0 108656378.8784893 0 0 108514253.7945659 0 0 108669487.1104401 0 0 101652718.8016903 0 0 23553684.6814006 0 0 25035911.48890173 0 0 27171024.0108027 0 0 29737515.38324974 0 0 34840808.87721314 0 0 38373942.58328484 0 0 42148889.78651407 0 0 45993766.50136318 0 0 49879361.48074768 0 0 53768629.66019914 0 0 54243664.8744837 0 0 58697874.03887486 0 0 62310249.98714342 0 0 65828346.68680504 0 0 69230877.1008261 0 0 73024400.98498641 0 0 69957131.92225336 0 0 76037984.9489249 0 0 78931741.37648827 0 0 81693195.21347813 0 0 84332056.92433161 0 0 86827566.51177484 0 0 89173839.55783787 0 0 90060573.2094388 0 0 91216310.80333109 0 0 93229564.43514705 0 0 95109998.77986576 0 0 96832704.10089126 0 0 98436165.83782776 0 0 99923163.80255076 0 0 100750553.7592405 0 0 100862071.7953284 0 0 102155781.1412589 0 0 102397196.0315905 0 0 103515224.5044885 0 0 104053620.2178439 0 0 103371670.7757675 0 0 105021672.4751131 0 0 105912176.4981395 0 0 106729806.0281158 0 0 107476605.3135997 0 0 107623558.1806621 0 0 107069255.3321914 0 0 108237498.3976962 0 0 108792037.5920058 0 0 109302166.1967854 0 0 109756259.7896682 0 0 110166737.7944619 0 0 109603292.9351174 0 0 110353051.9326674 0 0 109956390.6846184 0 0 110645356.279617 0 0 110900782.318711 0 0 111122674.6758458 0 0 111314049.9129132 0 0 111018796.3576032 0 0 110725779.4198501 0 0 111164654.7309748 0 0 111286505.3699199 0 0 111384370.6400536 0 0 111460900.1568806 0 0 111519693.1419505 0 0 111013752.8366834 0 0 111559962.2230635 0 0 111203624.2622683 0 0 111216540.4284727 0 0 111212903.5462175 0 0 111188665.1990136 0 0 111160453.9883953 0 0 111133281.2518211 0 0 110646667.5132312 0 0 110777197.8912321 0 0 110739701.4827635 0 0 110690907.6351182 0 0 110635509.3604016 0 0 110202287.66637 0 0 110299533.414937 0 0 110238665.6405125 0 0 110171563.3541742 0 0 110099053.924717 0 0 110021557.192211 0 0 109939492.9412885 0 0 109853532.5485979 0 0 109764221.4045968 0 0 109463770.503445 0 0 109411142.5759014 0 0 109375526.0226514 0 0 109047672.2732776 0 0 109091472.4978494 0 0 108994421.359011 0 0 108857201.8113402 0 0 108820231.920422 0 0 108598888.6082624 0 0 108715839.7897877 0 0 102915788.6671119 0 0 22967185.9377332 0 0 24618769.59026712 0 0 26933889.44868561 0 0 29804821.24187845 0 0 32806484.80909437 0 0 36640989.42279427 0 0 40614250.12353582 0 0 44701538.94046597 0 0 48822404.82347159 0 0 52922251.5438526 0 0 57610111.5869527 0 0 58154792.79640552 0 0 61971768.90169123 0 0 65680121.19472192 0 0 69266248.80947706 0 0 73273581.94199131 0 0 72506794.28874853 0 0 76441519.25078797 0 0 79467627.96732369 0 0 82351825.34149632 0 0 85106175.25806263 0 0 87733421.90332896 0 0 90173787.5571534 0 0 91384198.69095863 0 0 92274330.09556876 0 0 94352607.67924598 0 0 96293895.6178582 0 0 98099521.80452327 0 0 99765316.45639668 0 0 101267227.6611519 0 0 101312600.4946746 0 0 102124847.236558 0 0 103430485.0796584 0 0 102798712.5527889 0 0 103857918.5421029 0 0 104357226.6879503 0 0 104555642.8917526 0 0 105269692.5069774 0 0 106110078.9014933 0 0 106882996.1215119 0 0 107591876.0770793 0 0 107706744.6293489 0 0 108161500.2363151 0 0 108282022.945445 0 0 108812239.9444414 0 0 109290865.7690558 0 0 109721057.0981327 0 0 110106225.2459459 0 0 110532999.1519342 0 0 110270845.8235735 0 0 110863251.6378105 0 0 110545834.2694118 0 0 110787508.0020326 0 0 110997227.9842846 0 0 111179118.856584 0 0 110887400.9625798 0 0 111476965.4796449 0 0 111023191.58686 0 0 111136252.7335462 0 0 111229552.8024799 0 0 111301740.5973115 0 0 111355643.3004021 0 0 111583184.3496453 0 0 111392374.394335 0 0 111044130.1427434 0 0 111055017.703787 0 0 111056536.4677895 0 0 111037136.5189135 0 0 110995770.267634 0 0 110968125.7525978 0 0 111100088.7094387 0 0 110619328.5048666 0 0 110579328.7560037 0 0 110531269.4649977 0 0 110476131.7321909 0 0 110572857.1609905 0 0 110148377.1531584 0 0 110087962.6502199 0 0 110021647.1683594 0 0 109950094.0956241 0 0 109873774.716727 0 0 109792934.4366218 0 0 109708314.7087406 0 0 109620532.1267964 0 0 109327111.1255287 0 0 109671969.6702142 0 0 109240260.2588138 0 0 109286312.7341582 0 0 108965088.8296227 0 0 108873562.3321823 0 0 108823113.4361841 0 0 108668537.1261899 0 0 108823722.8047225 0 0 103325042.3741613 0 0 22398059.82027064 0 0 23931177.8672106 0 0 26116953.29640249 0 0 28939170.82890101 0 0 32720369.0527243 0 0 36649094.02980915 0 0 40483144.45944032 0 0 44463851.06614505 0 0 48485922.17684739 0 0 52504063.65328835 0 0 56494174.20609982 0 0 56975824.72796083 0 0 61371511.11098016 0 0 65025657.23227597 0 0 68565041.21822476 0 0 71970843.44355604 0 0 75648039.99248326 0 0 72716405.61605409 0 0 78637713.41210413 0 0 81499827.93687661 0 0 84234248.74065343 0 0 86835958.42800047 0 0 89270774.53460631 0 0 91560355.35923772 0 0 92466539.48520212 0 0 93463328.97164544 0 0 95411296.57716313 0 0 97218676.12404817 0 0 98892294.10115896 0 0 100426702.3300355 0 0 101841931.1616941 0 0 102667176.0400124 0 0 102642052.5976825 0 0 103865392.7303523 0 0 104052637.2984102 0 0 105108678.3507862 0 0 105542602.7328927 0 0 104859872.207265 0 0 106447886.4462512 0 0 107276916.582984 0 0 108033908.1666633 0 0 108717899.7191821 0 0 108784518.2252577 0 0 108241286.8085285 0 0 109342624.7458359 0 0 109848978.7992702 0 0 110300543.5640372 0 0 110708524.0958197 0 0 111062185.8645557 0 0 110456165.4697094 0 0 111149582.6097008 0 0 110766817.2378879 0 0 111397852.582452 0 0 111611801.4652478 0 0 111794867.0724015 0 0 111948721.9736009 0 0 111613543.5604617 0 0 111331575.9057994 0 0 111726242.298447 0 0 111814536.0207968 0 0 111881773.5496868 0 0 111929931.4794081 0 0 111960224.8850079 0 0 111412449.3452221 0 0 111973210.1879388 0 0 111591262.3410067 0 0 111582495.7732311 0 0 111563772.9363054 0 0 111527423.5135759 0 0 111470050.0516537 0 0 111427401.891578 0 0 110931431.6732697 0 0 111051907.2255056 0 0 110990975.4811161 0 0 110922665.9408584 0 0 110850470.3876106 0 0 110414238.8416804 0 0 110503859.9983578 0 0 110428414.5435321 0 0 110347764.0073781 0 0 110262379.0916947 0 0 110172691.0643244 0 0 110078969.8192495 0 0 109981932.7100025 0 0 109882253.1972104 0 0 109576600.2639748 0 0 109529847.0774669 0 0 109478585.2865146 0 0 109152170.8613666 0 0 109188738.801448 0 0 109088129.8691104 0 0 108995552.4228594 0 0 108753520.7522566 0 0 108867866.3409293 0 0 104624569.6787065 0 0 22123219.40619487 0 0 24060864.82852147 0 0 26270440.43333676 0 0 28464020.91571134 0 0 31245346.978315 0 0 34788433.6736222 0 0 38848563.59934244 0 0 43053007.60868868 0 0 47306751.75633065 0 0 51557530.83353105 0 0 55758154.72531306 0 0 60405047.95362555 0 0 60954332.49556053 0 0 64811597.13747869 0 0 68542319.34123637 0 0 72130165.92328435 0 0 76023439.60873282 0 0 75242073.1482086 0 0 79179609.4506437 0 0 82168604.99536133 0 0 85012271.02562588 0 0 87718516.06142116 0 0 90273652.79811221 0 0 92662424.56167524 0 0 93709809.73557071 0 0 94619610.47542514 0 0 96625873.01663357 0 0 98493832.21699196 0 0 100224433.0781892 0 0 101819690.2385367 0 0 103242170.837683 0 0 103160245.5187216 0 0 103969633.915383 0 0 105187261.8134808 0 0 104395979.1485353 0 0 105391820.8677945 0 0 105786658.2795469 0 0 106090086.8227347 0 0 106638959.9482187 0 0 107420593.082977 0 0 108131970.9544049 0 0 108786039.672383 0 0 108816359.8497153 0 0 109352690.9160747 0 0 109347477.3733932 0 0 109825805.9396634 0 0 110253573.9149298 0 0 110631017.4094872 0 0 110971547.8780861 0 0 111389286.6089924 0 0 111036041.4109925 0 0 111672286.5500911 0 0 111269945.0254151 0 0 111471960.1479984 0 0 111644224.388499 0 0 111788841.4959099 0 0 111459808.2824854 0 0 112075859.6199449 0 0 111563209.3258917 0 0 111645832.3233433 0 0 111709064.7634235 0 0 111753274.4758086 0 0 111779407.0500472 0 0 111970611.4794035 0 0 111789776.4660557 0 0 111417245.7429089 0 0 111410415.5509852 0 0 111400527.926112 0 0 111353912.7810582 0 0 111291922.491959 0 0 111251184.1105621 0 0 111379936.0666963 0 0 110878243.7502194 0 0 110818440.6830981 0 0 110755173.9963842 0 0 110684407.8025082 0 0 110773591.2287648 0 0 110345799.7654615 0 0 110271405.9217536 0 0 110191979.2817584 0 0 110107947.2269973 0 0 110019805.6969673 0 0 109927780.8962138 0 0 109832448.2006104 0 0 109734626.8188587 0 0 109436027.7262046 0 0 109780530.946515 0 0 109339164.4582693 0 0 109384906.4325481 0 0 109059487.1212998 0 0 108960433.1263281 0 0 108874887.9206761 0 0 108816859.8142011 0 0 104959873.0957717 0 0 21987920.8021167 0 0 23220313.04795958 0 0 24612671.74744289 0 0 27522746.19377156 0 0 31294226.73620379 0 0 34914340.05361553 0 0 38858457.77476129 0 0 42930548.29604029 0 0 47078124.9352211 0 0 51235721.33660817 0 0 55345362.00944824 0 0 59389240.15070836 0 0 59879477.09655696 0 0 64200253.14789372 0 0 67873615.77748081 0 0 71409156.86902694 0 0 74803504.47067682 0 0 78354764.67968985 0 0 75573995.75565845 0 0 81311213.73349425 0 0 84129938.06364195 0 0 86814239.12694032 0 0 89368911.48442966 0 0 91742893.99097359 0 0 93962643.62680376 0 0 94896893.21712822 0 0 95719565.55380747 0 0 97591861.35752736 0 0 99335201.44752051 0 0 100958192.0441456 0 0 102396066.028678 0 0 103743395.7286446 0 0 104567834.8561775 0 0 104401159.7827544 0 0 105555084.0935049 0 0 105703268.3718743 0 0 106686881.5968524 0 0 107009922.1104331 0 0 106329951.6451634 0 0 107848806.9195026 0 0 108614305.6632101 0 0 109306984.3098568 0 0 109923523.5375893 0 0 109925427.5683175 0 0 109389032.7716035 0 0 110419584.2250629 0 0 110873777.4991162 0 0 111273391.5895323 0 0 111618897.4668353 0 0 111935864.0173462 0 0 111277244.7384406 0 0 111912616.0597075 0 0 111543051.0537053 0 0 112116946.7908677 0 0 112290817.528341 0 0 112434726.9274165 0 0 112551218.456564 0 0 112177867.1875726 0 0 111907282.7713024 0 0 112256482.0459407 0 0 112313283.0176257 0 0 112350468.8712648 0 0 112369802.1946367 0 0 112371861.1072814 0 0 111784571.686997 0 0 112358005.3194665 0 0 111954413.3792182 0 0 111925034.3659056 0 0 111881232.9626352 0 0 111819464.1459438 0 0 111749753.6653341 0 0 111706581.2390308 0 0 111194968.3417011 0 0 111308923.9250541 0 0 111221792.6557581 0 0 111133486.3319024 0 0 111047465.4088213 0 0 110607950.0990934 0 0 110689373.5583785 0 0 110600069.6548337 0 0 110506470.6440236 0 0 110408748.3900109 0 0 110307281.1870408 0 0 110202460.2175466 0 0 110094772.1377476 0 0 109984995.3099517 0 0 109675927.123744 0 0 109634880.3442495 0 0 109568213.989095 0 0 109242301.4560239 0 0 109269593.4608932 0 0 109151792.8131342 0 0 109028665.7441658 0 0 108907670.9487718 0 0 106319083.8345439 0 0 21805158.18598156 0 0 22281954.67701229 0 0 26916392.37632497 0 0 29400666.81595667 0 0 28964605.52075404 0 0 32955345.67734054 0 0 37096789.76196902 0 0 41385667.33849446 0 0 45752766.29163431 0 0 50132294.76304625 0 0 54475723.40385682 0 0 58745607.77267128 0 0 63333771.69381477 0 0 63892368.72406837 0 0 67771419.11458948 0 0 71507624.87420082 0 0 75086633.92090969 0 0 78857657.80598235 0 0 78050243.82066321 0 0 81979440.37876265 0 0 84925241.64257057 0 0 87717947.64990322 0 0 90366431.32065532 0 0 92847099.39708133 0 0 95166728.41398147 0 0 96040159.12459092 0 0 96971900.61606611 0 0 98899143.81304722 0 0 100685357.022371 0 0 102325547.3910538 0 0 103840504.6636954 0 0 105183429.9031231 0 0 104969003.298614 0 0 105769626.7527345 0 0 106935681.585108 0 0 105972419.004563 0 0 106904346.7929652 0 0 107192928.9030489 0 0 107596411.8231331 0 0 107982386.8355473 0 0 108700620.3422029 0 0 109351454.2270415 0 0 109946708.6899598 0 0 109905566.9002838 0 0 110509490.436472 0 0 110384875.5139141 0 0 110812819.0363555 0 0 111180204.9970431 0 0 111512111.6699212 0 0 111807794.504583 0 0 112209894.7955462 0 0 111768919.1554302 0 0 112443127.1895629 0 0 111961819.5093015 0 0 112124856.6371606 0 0 112259260.3527489 0 0 112367713.0974016 0 0 112001957.7264303 0 0 112642527.8596618 0 0 112074502.4668979 0 0 112126739.7637473 0 0 112160473.0475531 0 0 112177038.1808365 0 0 112176310.1013889 0 0 112330594.2942131 0 0 112160689.5225371 0 0 111766303.2706304 0 0 111746681.1661952 0 0 111709017.6002216 0 0 111647977.4007803 0 0 111571032.467095 0 0 111504477.2356333 0 0 111626292.9678096 0 0 111115859.7746292 0 0 111037728.8990115 0 0 110959064.1010807 0 0 110874475.1252577 0 0 110954702.6440928 0 0 110524961.9756796 0 0 110437254.9038468 0 0 110345214.3974772 0 0 110249205.0667473 0 0 110149591.9368568 0 0 110046822.7289915 0 0 109941169.1047587 0 0 109833695.2559937 0 0 109532539.0776063 0 0 109875087.3670959 0 0 109425925.6319334 0 0 109475227.6524414 0 0 109150691.6586317 0 0 109072301.6452609 0 0 108968848.7968079 0 0 106588756.7088779 0 0 21955389.41390159 0 0 22987376.87735084 0 0 25634473.60517165 0 0 27279153.86373872 0 0 24338571.1871805 0 0 33320914.65861952 0 0 37202206.93389284 0 0 41395488.60408004 0 0 45640548.92218294 0 0 49911467.96543796 0 0 54155483.51495692 0 0 58331056.04568786 0 0 62409938.5944913 0 0 62912823.04724443 0 0 67147160.21418917 0 0 70815817.98415977 0 0 74335891.47860785 0 0 77708340.05997893 0 0 81124040.73334976 0 0 78509536.95027681 0 0 84040260.93558018 0 0 86806712.09905367 0 0 89439757.9743385 0 0 91901796.08608891 0 0 94209545.0762202 0 0 96370093.4159168 0 0 97329350.98018183 0 0 97973524.04817314 0 0 99769734.90423965 0 0 101434394.6775238 0 0 102978421.6876328 0 0 104356759.4709173 0 0 105570220.4349572 0 0 106403573.1385292 0 0 106139209.9808429 0 0 107217074.3381646 0 0 107315531.3897446 0 0 108229001.7311321 0 0 108446957.0310423 0 0 107774772.8402426 0 0 109219241.5057814 0 0 109920704.5207589 0 0 110559850.000403 0 0 111121943.8966679 0 0 111030847.4681897 0 0 110484841.6074813 0 0 111475325.5999856 0 0 111865139.7715926 0 0 112212911.3115167 0 0 112507885.2383011 0 0 112767057.6339021 0 0 112063730.9857689 0 0 112638498.6614143 0 0 112283466.2059693 0 0 112802435.0891794 0 0 112935680.6229454 0 0 113040821.677615 0 0 113120327.2638539 0 0 112710117.4101211 0 0 112452329.5867798 0 0 112755767.1787107 0 0 112781777.9924154 0 0 112789303.4528827 0 0 112780027.7246715 0 0 112754553.797659 0 0 112131686.1719546 0 0 112715618.430339 0 0 112291729.1999818 0 0 112239893.3966988 0 0 112171223.0272343 0 0 112087375.4943208 0 0 111996444.1073591 0 0 111932708.8357586 0 0 111429208.5070051 0 0 111527146.4139589 0 0 111423470.5858727 0 0 111323223.2054684 0 0 111224217.4739883 0 0 110782368.2815972 0 0 110855876.4867605 0 0 110753709.648028 0 0 110647648.1648621 0 0 110538023.0437811 0 0 110425248.5470595 0 0 110309675.1809026 0 0 110191514.1905652 0 0 110071565.397201 0 0 109761292.1449361 0 0 109726110.9860325 0 0 109640022.1554024 0 0 109325203.9935021 0 0 109339228.4796855 0 0 109189487.5647005 0 0 109056516.1139071 0 0 107979730.0693761 0 0 22362242.30536037 0 0 22235190.86282872 0 0 23622992.22200112 0 0 27839064.85283441 0 0 28391380.59382441 0 0 31227988.8428597 0 0 35408492.25514418 0 0 39717717.67193645 0 0 44168584.42617976 0 0 48659920.62709629 0 0 53134225.71794392 0 0 57546584.18310279 0 0 61863090.57718247 0 0 66366442.29116798 0 0 66948016.60997201 0 0 70835434.55239366 0 0 74561620.70395099 0 0 78120043.62458031 0 0 81758343.59933841 0 0 80912498.20658694 0 0 84826806.03751679 0 0 87725571.38406417 0 0 90460549.04717694 0 0 93027928.78578767 0 0 95429313.84193891 0 0 97680156.18075633 0 0 98367548.3212005 0 0 99322306.62553328 0 0 101165057.3013927 0 0 102837549.5603716 0 0 104395816.6418976 0 0 105822765.1266691 0 0 107119237.3098816 0 0 106748991.6406015 0 0 107569939.4398002 0 0 108644280.6420945 0 0 107521857.6577519 0 0 108382477.8765343 0 0 108570336.6455941 0 0 109069583.4163969 0 0 109295415.646337 0 0 109953638.4930752 0 0 110548658.1824537 0 0 111079311.0717354 0 0 110964859.8627409 0 0 111626649.43153 0 0 111387171.1023778 0 0 111763890.508216 0 0 112082372.3593419 0 0 112364629.1551256 0 0 112607605.9530158 0 0 112989547.9892822 0 0 112467328.6118955 0 0 113176626.030079 0 0 112620229.6891868 0 0 112744229.8236863 0 0 112841766.5591523 0 0 112914848.8579915 0 0 112514422.2596634 0 0 113176123.3842862 0 0 112555539.4907535 0 0 112578089.1899661 0 0 112583331.7005459 0 0 112571776.4114475 0 0 112544720.9188026 0 0 112664381.4074484 0 0 112505003.2154532 0 0 112093099.6856159 0 0 112052080.719254 0 0 111993186.7574045 0 0 111930935.9737542 0 0 111846749.3160798 0 0 111733693.0279291 0 0 111830566.8022433 0 0 111335168.2828117 0 0 111242720.3692633 0 0 111146362.5447523 0 0 111045503.4270805 0 0 111114824.0617768 0 0 110685801.1423812 0 0 110585447.6083948 0 0 110481317.4051159 0 0 110373766.4865129 0 0 110263183.8250869 0 0 110149902.1963452 0 0 110033927.1862355 0 0 109916315.8541557 0 0 109613532.2521169 0 0 109955278.6090849 0 0 109477769.3477553 0 0 109547939.7853004 0 0 109243324.3693059 0 0 109136303.4589621 0 0 108167338.2948374 0 0 22763799.86847312 0 0 22959566.13091252 0 0 24744132.78092537 0 0 27485611.28245917 0 0 31545297.19334457 0 0 26348809.48777721 0 0 35791385.45055594 0 0 39878250.38227019 0 0 44194468.48957165 0 0 48557227.07451988 0 0 52912733.03645501 0 0 57215450.82015635 0 0 61428120.51639356 0 0 65524804.77462791 0 0 66055320.07692789 0 0 70177295.31257001 0 0 73832920.83559431 0 0 77328355.74759011 0 0 80662865.90887105 0 0 83941059.24678661 0 0 81509640.77883308 0 0 86804129.36846705 0 0 89513535.76630376 0 0 92063269.30948545 0 0 94450881.90574551 0 0 96688439.14473286 0 0 98768204.9437788 0 0 99756579.65490299 0 0 100218773.6389822 0 0 101917811.1106885 0 0 103504813.7888673 0 0 104941581.0964306 0 0 106256692.9494409 0 0 107382686.2758947 0 0 108227228.7104375 0 0 107842976.5215964 0 0 108839271.72148 0 0 108905636.6321552 0 0 109739996.9941549 0 0 109851078.0574722 0 0 109182822.9615952 0 0 110552834.5993377 0 0 111184319.6653943 0 0 111760228.2675556 0 0 112272004.2436145 0 0 112084410.4820189 0 0 111553378.665998 0 0 112470669.0203022 0 0 112812115.9149296 0 0 113103491.0853825 0 0 113354703.1202978 0 0 113564038.1519824 0 0 112814506.2954257 0 0 113330044.5303122 0 0 112988450.702152 0 0 113451619.9403912 0 0 113544609.9344573 0 0 113611630.5170593 0 0 113654670.6214976 0 0 113210045.8453695 0 0 112965461.970022 0 0 113223826.0720649 0 0 113219266.5701509 0 0 113197381.780205 0 0 113160178.2284165 0 0 113108459.18684 0 0 112453688.7988428 0 0 113044620.4979115 0 0 112602035.8055147 0 0 112526334.9359243 0 0 112438388.8661627 0 0 112353675.853406 0 0 112245591.1654718 0 0 112142852.5551714 0 0 111640847.8998619 0 0 111719742.1672168 0 0 111612687.6015707 0 0 111495886.4739438 0 0 111378924.0751663 0 0 110937419.9135473 0 0 111003977.672021 0 0 110889229.5478528 0 0 110771169.1506874 0 0 110650144.8981595 0 0 110526599.5920694 0 0 110400695.7418869 0 0 110272122.1321945 0 0 110141289.0166276 0 0 109833546.5299116 0 0 109800023.1820085 0 0 109684641.3701297 0 0 109437548.6442824 0 0 109358319.4864417 0 0 109201899.0454009 0 0 109600638.7918974 0 0 23483933.42611898 0 0 22950050.36209389 0 0 23656062.50178289 0 0 25560626.27537747 0 0 29775990.69527911 0 0 30723501.7353304 0 0 33808838.81783569 0 0 38096902.93215761 0 0 42578578.54346596 0 0 47147069.54727864 0 0 51730671.23342702 0 0 56274569.53150504 0 0 60734221.04183607 0 0 65079765.31833545 0 0 69481593.00059019 0 0 70100527.86898641 0 0 73978699.31392908 0 0 77682157.80248098 0 0 81209784.91198865 0 0 84710558.92740785 0 0 83817021.2792625 0 0 87725678.03092772 0 0 90560371.27786572 0 0 93218629.84318313 0 0 95700370.75999495 0 0 98011715.74546136 0 0 100181012.9340524 0 0 100676402.9536324 0 0 101654473.9548777 0 0 103386850.9730548 0 0 104977152.501319 0 0 106450710.1166167 0 0 107791012.8178137 0 0 108990363.3814217 0 0 108498626.0661868 0 0 109335365.5078873 0 0 110296545.3392164 0 0 109033984.1651317 0 0 109823530.8682558 0 0 109911164.7830634 0 0 110506164.1516559 0 0 110566251.8981366 0 0 111156078.3493674 0 0 111707396.8462868 0 0 112186230.9752474 0 0 111978128.3632937 0 0 112716150.9471964 0 0 112349424.4840474 0 0 112660596.2735172 0 0 112938216.2580242 0 0 113174113.9460054 0 0 113368433.4865358 0 0 113734582.7943691 0 0 113130371.7226953 0 0 113873972.0298733 0 0 113243031.3204213 0 0 113328781.0248077 0 0 113389757.6114351 0 0 113427969.0140377 0 0 112995172.4209618 0 0 113675787.8167045 0 0 113005730.4900732 0 0 112998873.4488249 0 0 112975686.6072008 0 0 112937457.3221971 0 0 112885534.7190652 0 0 112969819.0920875 0 0 112821832.4878003 0 0 112392153.7588999 0 0 112322006.8859887 0 0 112242992.6032795 0 0 112152228.3375332 0 0 112059628.0669389 0 0 111937047.9041511 0 0 112023614.1708531 0 0 111533026.1893587 0 0 111432829.5192148 0 0 111315872.9857626 0 0 111194086.8363563 0 0 111256998.5943624 0 0 110828481.9680237 0 0 110715936.2740993 0 0 110600176.0209994 0 0 110481604.4597504 0 0 110360566.3715965 0 0 110237293.800312 0 0 110111355.6247576 0 0 109982699.1997553 0 0 109678103.5015365 0 0 110026338.3224875 0 0 109583420.4439497 0 0 109455005.4025951 0 0 109289343.4212651 0 0 109720314.0833018 0 0 24547648.17585295 0 0 23800011.63292705 0 0 25074158.5714578 0 0 26975279.43370041 0 0 29868615.44896685 0 0 34341197.55894206 0 0 28628740.72307933 0 0 38484284.27214848 0 0 42773430.20318961 0 0 47186421.68635423 0 0 51627874.38103256 0 0 56038906.8403495 0 0 60376891.37402499 0 0 64608259.7452547 0 0 68707883.00018665 0 0 69281497.99243672 0 0 73277567.90638727 0 0 76906710.27350435 0 0 80367877.81648172 0 0 83654606.24672484 0 0 86787713.84871033 0 0 84548800.89258495 0 0 89592652.40430851 0 0 92228086.45986602 0 0 94691096.39415906 0 0 96991153.68586975 0 0 99158395.59410655 0 0 101139079.1169305 0 0 102146501.2864068 0 0 102436161.6425136 0 0 104041379.5481163 0 0 105521933.9777969 0 0 106886102.4520906 0 0 108103450.8141969 0 0 109198300.0371262 0 0 110060302.2486457 0 0 109498969.7089218 0 0 110417673.1687275 0 0 110441729.4141171 0 0 111205342.8660982 0 0 111213212.5982693 0 0 110552159.4774983 0 0 111844683.0944447 0 0 112413144.1703654 0 0 112923164.7294546 0 0 113367930.590404 0 0 113097785.743084 0 0 112591959.0837624 0 0 113428555.1985658 0 0 113711179.9391465 0 0 113951063.9948196 0 0 114149458.9668277 0 0 114308750.4530256 0 0 113526609.493995 0 0 113982319.6110905 0 0 113655723.752109 0 0 114062216.7804693 0 0 114116128.3491474 0 0 114145545.8825423 0 0 114152854.2667972 0 0 113676711.2512176 0 0 113445237.5410975 0 0 113658971.3143251 0 0 113624321.2398302 0 0 113573819.6051626 0 0 113509551.725711 0 0 113432587.1855877 0 0 112747585.7942853 0 0 113344419.5688402 0 0 112883529.3079159 0 0 112787256.4221214 0 0 112685844.3578577 0 0 112575185.2697652 0 0 112459262.6376904 0 0 112330060.9457158 0 0 111828704.9086609 0 0 111903228.8367913 0 0 111785912.7966923 0 0 111646396.29329 0 0 111511712.6185743 0 0 111074088.12797 0 0 111133276.8306031 0 0 111006479.1867751 0 0 110876944.0239119 0 0 110745096.418471 0 0 110611271.0109024 0 0 110475869.6950238 0 0 110337264.9957571 0 0 110196051.5724342 0 0 109899249.9394108 0 0 109858243.1333287 0 0 109647850.7477501 0 0 109488920.5730647 0 0 109341681.3175896 0 0 111175410.9713092 0 0 25436991.02762448 0 0 26215489.46078327 0 0 23940658.59812706 0 0 25505726.40119758 0 0 27932660.73457721 0 0 32375062.76247365 0 0 33326181.61499323 0 0 36569127.42863806 0 0 41016791.45896139 0 0 45609996.88389199 0 0 50266143.97356217 0 0 54916446.97785678 0 0 59509530.54762652 0 0 64001346.4335633 0 0 68360877.37333107 0 0 72651019.00684011 0 0 73316224.4728847 0 0 77176415.79629362 0 0 80851653.84375672 0 0 84334487.76769078 0 0 87696905.03759332 0 0 86745560.3791526 0 0 90646460.7319947 0 0 93406552.87805927 0 0 95978878.2933483 0 0 98364964.4137909 0 0 100581012.2268835 0 0 102636633.3397431 0 0 102960251.4318425 0 0 103947145.0012491 0 0 105584819.6854084 0 0 107094653.1053825 0 0 108479239.0839671 0 0 109711479.5748102 0 0 110819291.446313 0 0 110188079.6196404 0 0 111018264.9258192 0 0 111908976.5010624 0 0 110507960.8509007 0 0 111222875.5222006 0 0 111209722.3597395 0 0 111897657.6461322 0 0 111798988.8051547 0 0 112337147.5160379 0 0 112806835.5661621 0 0 113228481.4790077 0 0 112951957.9383504 0 0 113743731.3877756 0 0 113258056.2757792 0 0 113525356.9000991 0 0 113749002.3867955 0 0 113933571.9978968 0 0 114080710.9319975 0 0 114433607.8405193 0 0 113755590.8826536 0 0 114528157.1222388 0 0 113828677.3833325 0 0 113876849.8676274 0 0 113901905.5096591 0 0 113905906.9773026 0 0 113443364.0515343 0 0 114139908.1045398 0 0 113423775.2506775 0 0 113388151.9615289 0 0 113337525.8917781 0 0 113273144.5083729 0 0 113197031.0661829 0 0 113246071.3041644 0 0 113109876.6829981 0 0 112661599.7627717 0 0 112565656.4785152 0 0 112468903.9039729 0 0 112358275.9768134 0 0 112246341.0789874 0 0 112118799.5379793 0 0 112198945.8175957 0 0 111714181.2132814 0 0 111595951.5220774 0 0 111463375.2878203 0 0 111323353.1049986 0 0 111379200.9669254 0 0 110952812.9895183 0 0 110828567.380466 0 0 110701739.5804295 0 0 110572747.9618596 0 0 110441847.0184878 0 0 110309675.7405495 0 0 110177353.5894194 0 0 110041295.4326632 0 0 109742956.084767 0 0 110097368.6246442 0 0 109780011.5917811 0 0 109608826.9737296 0 0 109429016.9417296 0 0 111218373.8857445 0 0 27296059.96850415 0 0 27313048.75821388 0 0 24717487.83242002 0 0 27459568.49719116 0 0 29584938.5608469 0 0 32628156.83117008 0 0 37206341.86764644 0 0 31320643.68871692 0 0 41433262.85332176 0 0 45823703.67722672 0 0 50302870.32111052 0 0 54795588.43031655 0 0 59242176.3875327 0 0 63599268.64612969 0 0 67837501.85623617 0 0 71925624.82187121 0 0 72562296.87100992 0 0 76419424.40729937 0 0 80014052.48886392 0 0 83429166.12756395 0 0 86652816.21484084 0 0 89658703.48910737 0 0 87617688.47482449 0 0 92388874.10860918 0 0 94939708.7663881 0 0 97312610.73648326 0 0 99523948.98519608 0 0 101596127.4261541 0 0 103478532.4553502 0 0 104508566.538192 0 0 104603031.8532935 0 0 106122392.6275048 0 0 107524408.3474395 0 0 108779832.2368476 0 0 109913295.1344253 0 0 110960304.5213266 0 0 111804277.2596035 0 0 111119122.4198879 0 0 111949751.1645407 0 0 111947330.8008769 0 0 112633492.7683092 0 0 112528732.2888105 0 0 111877193.2801491 0 0 113089317.2865102 0 0 113599322.4343249 0 0 114037793.5047497 0 0 114412276.3442386 0 0 114064237.1999656 0 0 113573856.2751811 0 0 114336517.8497026 0 0 114565041.1942726 0 0 114751397.1588965 0 0 114898891.745142 0 0 115010197.8811616 0 0 114195979.8678547 0 0 114593878.4137397 0 0 114282264.6311523 0 0 114633595.7292954 0 0 114648660.9800052 0 0 114641267.7303282 0 0 114613609.4144645 0 0 114108549.6596718 0 0 113890536.8409107 0 0 114060067.3217407 0 0 113996178.1687117 0 0 113917928.5253984 0 0 113827339.952365 0 0 113726032.1315978 0 0 113012443.1213943 0 0 113614313.221231 0 0 113137811.0165835 0 0 113022435.7532261 0 0 112900761.212698 0 0 112771414.700518 0 0 112635699.8231122 0 0 112494299.6631046 0 0 111993673.0363894 0 0 112069894.6792491 0 0 111934252.8915263 0 0 111777463.9652672 0 0 111625460.9176885 0 0 111191580.6456233 0 0 111243715.3752 0 0 111105310.8022711 0 0 110964965.0598472 0 0 110822808.163366 0 0 110679115.4791037 0 0 110534901.7144344 0 0 110385640.2809897 0 0 110193381.0332305 0 0 109984671.0933956 0 0 109951381.7110266 0 0 109791443.7644336 0 0 109632864.2435879 0 0 109481201.6395153 0 0 112706824.2085205 0 0 28840099.18595165 0 0 28120734.94386876 0 0 28768364.51766693 0 0 25942085.5170736 0 0 27928029.79752022 0 0 30740504.93632654 0 0 35231403.65012912 0 0 36213489.11958025 0 0 39530604.95731043 0 0 44072466.82892154 0 0 48746519.53113795 0 0 53470478.2664997 0 0 58172348.71034526 0 0 62804770.8170107 0 0 67320834.44381887 0 0 71689338.45445751 0 0 75842460.8181475 0 0 76581742.93495706 0 0 80416334.53191563 0 0 84050659.3157308 0 0 87477350.45682243 0 0 90698022.15432042 0 0 89684741.35941471 0 0 93572453.60367349 0 0 96243965.90186673 0 0 98720635.26984014 0 0 101010334.4725687 0 0 103129845.8888369 0 0 105070596.8164023 0 0 105177373.1297211 0 0 106205746.4675106 0 0 107752944.6856632 0 0 109160999.8077455 0 0 110436364.5450651 0 0 111582710.5270738 0 0 112589240.8392953 0 0 111852779.7930397 0 0 112665653.8962385 0 0 113470674.162301 0 0 111944583.4967659 0 0 112582088.5260966 0 0 112460743.7905827 0 0 113242254.6747031 0 0 112990229.2761277 0 0 113461362.6563921 0 0 113870616.9550397 0 0 114217269.3106776 0 0 113872727.2937769 0 0 114720790.7011813 0 0 114127523.2478605 0 0 114340242.8381023 0 0 114513194.5726489 0 0 114649303.4364864 0 0 114751781.4406082 0 0 115089172.9869985 0 0 114341498.0393795 0 0 115139399.0147452 0 0 114375920.1420383 0 0 114387078.5910471 0 0 114376937.7049666 0 0 114347481.2066066 0 0 113857728.3948676 0 0 114567479.0496711 0 0 113808735.7364844 0 0 113744978.726639 0 0 113668089.5008912 0 0 113578211.6749881 0 0 113478230.8275178 0 0 113493522.1827645 0 0 113368499.5272507 0 0 112905723.1058278 0 0 112793330.0310971 0 0 112673806.3368456 0 0 112547625.476919 0 0 112413810.8641125 0 0 112276452.1331529 0 0 112348807.6602372 0 0 111863247.1808644 0 0 111724627.4779494 0 0 111586071.1779546 0 0 111432936.2321802 0 0 111481677.5071633 0 0 111058608.2119435 0 0 110923242.9013105 0 0 110785942.7853254 0 0 110646967.4571585 0 0 110506344.9264594 0 0 110365850.0028563 0 0 110221670.6618302 0 0 110135283.7166692 0 0 109843476.5112938 0 0 109719095.8651829 0 0 109570312.2329042 0 0 112682260.6795094 0 0 30934155.23694417 0 0 29569140.50032738 0 0 27700129.78014067 0 0 30275474.15819445 0 0 32515154.1297975 0 0 35582763.79394387 0 0 40209384.27444134 0 0 34204085.33420135 0 0 44498582.10922085 0 0 48951233.96540753 0 0 53478856.30834295 0 0 58006140.73819597 0 0 62475541.01041918 0 0 66846452.44750785 0 0 71081611.33259705 0 0 75154702.97311959 0 0 75882408.29103489 0 0 79580928.12117721 0 0 83135139.89242616 0 0 86494181.11865166 0 0 89653707.2943919 0 0 92525125.12622711 0 0 90692811.31411441 0 0 95169582.70810387 0 0 97629283.72717561 0 0 99909891.48616996 0 0 102032098.1506064 0 0 103976028.0434737 0 0 105749776.7945845 0 0 106835621.1368853 0 0 106739788.3642427 0 0 108169535.9311808 0 0 109468659.8628454 0 0 110645140.055607 0 0 111705716.1082521 0 0 112615112.5319985 0 0 113469304.5282547 0 0 112681986.9254727 0 0 113423410.2401432 0 0 113395229.5336518 0 0 114012812.9034534 0 0 113804459.9105029 0 0 113157093.1934241 0 0 114296158.2485921 0 0 114728436.5002553 0 0 115093807.8202062 0 0 115395732.7534717 0 0 114981551.610912 0 0 114505428.9993619 0 0 115197175.4838137 0 0 115370188.602225 0 0 115503755.5560252 0 0 115601280.4992266 0 0 115665326.9244104 0 0 114823016.5732567 0 0 115163923.2227669 0 0 114867266.4226097 0 0 115163649.6943634 0 0 115140916.6177629 0 0 115097585.3789827 0 0 115035966.7215582 0 0 114504597.4567521 0 0 114300438.8127877 0 0 114426411.2868965 0 0 114334126.4931633 0 0 114229436.8998423 0 0 114113506.905971 0 0 113988017.200291 0 0 113249908.8478909 0 0 113853908.2988123 0 0 113364839.9164172 0 0 113230020.5231588 0 0 113088948.178761 0 0 112941670.6944554 0 0 112788475.2364496 0 0 112632891.996782 0 0 112137833.7344754 0 0 112204292.9750977 0 0 112050507.875494 0 0 111879456.725607 0 0 111719829.0676275 0 0 111290312.0819378 0 0 111334794.6340144 0 0 111185808.6347362 0 0 111035228.0103655 0 0 110883426.8360062 0 0 110729958.5742471 0 0 110576095.983817 0 0 110423142.1843034 0 0 110111941.3785931 0 0 109954343.5848762 0 0 109777606.0545749 0 0 109615355.1524704 0 0 114181189.7127955 0 0 33329600.50963683 0 0 31800644.16769065 0 0 30351456.94321951 0 0 29213375.87194282 0 0 30896058.54823157 0 0 33656683.96719018 0 0 38201311.30960193 0 0 39210602.55306526 0 0 42573400.35744867 0 0 47188172.42080664 0 0 51930667.77471391 0 0 56712920.18861733 0 0 61466923.09198849 0 0 66131808.41626562 0 0 70668587.92851204 0 0 75040725.10074674 0 0 79043426.59695983 0 0 79881387.60180742 0 0 83678466.4680976 0 0 87261431.12170239 0 0 90623273.92392321 0 0 93693350.54300913 0 0 92613652.91772147 0 0 96482209.13613659 0 0 99060173.41497983 0 0 101435864.2031916 0 0 103628883.2800985 0 0 105635824.7210528 0 0 107458331.6131634 0 0 107362708.797006 0 0 108427165.9905011 0 0 109872184.660976 0 0 111177560.694536 0 0 112348453.4597593 0 0 113386675.1710558 0 0 114291609.6349817 0 0 113432348.8420392 0 0 114254253.2767919 0 0 114971863.9289797 0 0 113324570.7973357 0 0 113893544.1704225 0 0 113676533.3629851 0 0 114552425.8229835 0 0 114136006.4045112 0 0 114536653.3900436 0 0 114873737.6114689 0 0 115156091.0820336 0 0 114748413.3953421 0 0 115645856.9358025 0 0 114948503.4609251 0 0 115108307.0099373 0 0 115230817.2110086 0 0 115319776.5264684 0 0 115376976.5554958 0 0 115699458.0385634 0 0 114886827.5037784 0 0 115707223.0326848 0 0 114883205.9908949 0 0 114858260.2365079 0 0 114813832.4507932 0 0 114751915.1391045 0 0 114237292.4788905 0 0 114957529.607111 0 0 114159687.6825246 0 0 114068790.2256774 0 0 113966179.0430046 0 0 113852532.9474146 0 0 113729436.9757926 0 0 113712119.703004 0 0 113598167.1818284 0 0 113124376.3022863 0 0 112992091.9237541 0 0 112854246.5752034 0 0 112709968.4628472 0 0 112561163.6715978 0 0 112411300.7313996 0 0 112475057.5832313 0 0 111982040.5262925 0 0 111827289.0548858 0 0 111685167.737402 0 0 111524029.6292128 0 0 111565433.5773181 0 0 111145926.3874226 0 0 111000095.8241762 0 0 110852825.8373674 0 0 110704355.9630258 0 0 110554241.1321648 0 0 110406014.7054579 0 0 110233586.9619444 0 0 110054898.4755519 0 0 110266976.8102427 0 0 109867620.7140449 0 0 109711209.62393 0 0 114080569.4062189 0 0 36076396.46268241 0 0 33834192.72231118 0 0 30880865.98155351 0 0 31436408.89781199 0 0 33340636.45600042 0 0 35573973.77288348 0 0 38568826.93851879 0 0 43257300.0194526 0 0 37147479.70268381 0 0 47591596.61784742 0 0 52089340.49121826 0 0 56656785.42954019 0 0 61214423.10705639 0 0 65709470.99167791 0 0 70090030.78216138 0 0 74321663.68474118 0 0 78376824.735101 0 0 79221644.95509775 0 0 82749063.69742474 0 0 86252476.59854184 0 0 89548638.33654383 0 0 92634970.60833792 0 0 95367343.92740808 0 0 93760937.15670267 0 0 97924108.62316729 0 0 100285928.0534929 0 0 102475846.1785879 0 0 104486431.5127498 0 0 106320243.630399 0 0 107991244.1323671 0 0 109109718.3333202 0 0 108834204.4428288 0 0 110167402.9081054 0 0 111369633.5777389 0 0 112456626.3889475 0 0 113390534.6887088 0 0 114230723.2533993 0 0 115080880.8898233 0 0 114179006.4781274 0 0 114834227.9003866 0 0 114797936.2541435 0 0 115327274.1424174 0 0 115025484.366162 0 0 114388639.0905037 0 0 115448938.5855636 0 0 115800169.2885078 0 0 116093678.9841757 0 0 116329945.6688542 0 0 115848049.0501399 0 0 115387298.7760528 0 0 116006664.6371196 0 0 116125006.506422 0 0 116206690.7522313 0 0 116254812.0165424 0 0 116272049.1198351 0 0 115405490.6766735 0 0 115690407.5959977 0 0 115409612.9612608 0 0 115651189.817047 0 0 115591899.6536642 0 0 115513660.7921515 0 0 115418912.731873 0 0 114864116.273055 0 0 114674053.8853379 0 0 114757222.2451764 0 0 114637489.4110973 0 0 114507227.7227184 0 0 114367227.639467 0 0 114218955.1725347 0 0 113459591.3269734 0 0 114063311.5074451 0 0 113563622.6213939 0 0 113409682.9230148 0 0 113250267.181595 0 0 113086083.1552616 0 0 112916091.5775513 0 0 112745965.3993015 0 0 112250321.256163 0 0 112311092.4613835 0 0 112139009.3049278 0 0 111965608.8668858 0 0 111797736.3932515 0 0 111369460.8473606 0 0 111407536.4643664 0 0 111248119.8172523 0 0 111087994.7717498 0 0 110927483.1802784 0 0 110763496.3026868 0 0 110607493.1657378 0 0 110429381.8080586 0 0 110083785.5263042 0 0 110223125.5931199 0 0 109912115.5947253 0 0 109743130.0724527 0 0 115587016.6515418 0 0 39160198.12857096 0 0 35679196.71539241 0 0 35140877.04827789 0 0 31343486.87653182 0 0 32140789.33380167 0 0 33854581.66990852 0 0 36552809.63110438 0 0 41190846.66747865 0 0 42190396.18509629 0 0 45622895.3993031 0 0 50303533.03358866 0 0 55113585.53613441 0 0 59959209.05630243 0 0 64764688.72695188 0 0 69469114.04171251 0 0 74025559.72633077 0 0 78398507.81500205 0 0 82241245.35883147 0 0 83193204.64950508 0 0 86943843.72837141 0 0 90464155.427522 0 0 93752141.44174434 0 0 96676054.59642175 0 0 95511403.98299623 0 0 99365404.68989368 0 0 101840558.3764358 0 0 104118054.4079725 0 0 106197829.8636675 0 0 108086473.4739006 0 0 109794342.6892788 0 0 109505859.3596109 0 0 110596611.1832315 0 0 111935782.3557228 0 0 113133477.9842624 0 0 114195524.5617596 0 0 115130478.5235033 0 0 115937450.7795651 0 0 114961020.7134432 0 0 115781218.7225412 0 0 116393115.221907 0 0 114641861.6479119 0 0 115133698.6040756 0 0 114841691.2612668 0 0 115791387.1132164 0 0 115229715.359995 0 0 115554141.7819667 0 0 115825265.8199373 0 0 116043579.7351865 0 0 115574007.7115864 0 0 116517625.8549313 0 0 115719872.6928955 0 0 115828191.4229714 0 0 115901822.7721941 0 0 115943662.743222 0 0 115956215.0794284 0 0 116262355.7893047 0 0 115390167.4416592 0 0 116228742.2169117 0 0 115349437.4229332 0 0 115289381.0238546 0 0 115211934.5076907 0 0 115118452.2985465 0 0 114581635.2475491 0 0 115309389.0540446 0 0 114476535.2461181 0 0 114359480.0112678 0 0 114231926.057412 0 0 114095296.917358 0 0 113950531.5411086 0 0 113901288.2270205 0 0 113798765.1637907 0 0 113314729.0664909 0 0 113164175.2569902 0 0 113008604.8241858 0 0 112848274.7103641 0 0 112687656.1503839 0 0 112516882.0989044 0 0 112570971.370367 0 0 112079922.1221533 0 0 111911889.0418125 0 0 111761378.7462777 0 0 111594959.1670924 0 0 111630095.1508091 0 0 111214988.9519454 0 0 111059234.897488 0 0 110902816.85969 0 0 110745843.179238 0 0 110587364.0544069 0 0 110437781.068784 0 0 110325771.3419483 0 0 110186858.2380434 0 0 110019314.5778731 0 0 109843027.9841881 0 0 115406260.8491318 0 0 42553788.36513434 0 0 39737634.45384905 0 0 38945361.35507327 0 0 34020967.52092151 0 0 35157113.79306359 0 0 36352326.78242415 0 0 38476345.15986374 0 0 41425391.87214053 0 0 46261445.5223146 0 0 40035874.61390775 0 0 50636567.64138962 0 0 55180339.35191099 0 0 59791882.57866712 0 0 64389677.67832778 0 0 68911294.70234226 0 0 73305687.12605542 0 0 77535936.71708284 0 0 81576733.39558169 0 0 82561296.61803643 0 0 85900873.49826954 0 0 89347539.18939589 0 0 92575459.40627886 0 0 95582269.0384994 0 0 98175241.23497531 0 0 96803490.56422314 0 0 100633764.2654147 0 0 102904493.6525983 0 0 104989049.6841231 0 0 106889784.3443988 0 0 108617337.3114417 0 0 110179677.1248506 0 0 111329630.6831622 0 0 110875804.2012946 0 0 112105950.0143521 0 0 113211039.6158824 0 0 114184216.4208943 0 0 115037713.708569 0 0 115787976.9485526 0 0 116638389.3712764 0 0 115607161.1099176 0 0 116180115.737747 0 0 116121518.6129612 0 0 116577842.8390234 0 0 116196714.3998721 0 0 115571702.1423189 0 0 116533224.050034 0 0 116810195.055816 0 0 117032494.2942845 0 0 117204734.762033 0 0 116660511.9587944 0 0 116216284.9526502 0 0 116762763.5831656 0 0 116827451.2884222 0 0 116858261.5089921 0 0 116857967.8005543 0 0 116830105.9470266 0 0 115943231.4919487 0 0 116172277.3167101 0 0 115907685.6055497 0 0 116095301.9357144 0 0 116000481.1569244 0 0 115888665.4775822 0 0 115762052.2582995 0 0 115186500.1039351 0 0 115010707.6629308 0 0 115051703.1289604 0 0 114906177.5334025 0 0 114751176.785232 0 0 114588280.7791144 0 0 114418401.7393829 0 0 113640650.2859055 0 0 114242336.5993911 0 0 113733803.24896 0 0 113561635.7522778 0 0 113385270.3043962 0 0 113204821.9898772 0 0 113016595.8841702 0 0 112830674.8865285 0 0 112337973.0106972 0 0 112389515.5757271 0 0 112209172.9105724 0 0 112031655.1077261 0 0 111853504.0584134 0 0 111430523.4661268 0 0 111461425.9597279 0 0 111292382.4794594 0 0 111123579.4659298 0 0 110955920.7546605 0 0 110770413.3824749 0 0 110589897.9685825 0 0 110401256.1808611 0 0 110213182.0104692 0 0 110038631.0573711 0 0 109865496.1842776 0 0 116926032.5579015 0 0 46545922.32920296 0 0 42110942.19673626 0 0 39330068.03872454 0 0 38669136.35873901 0 0 34415511.17352408 0 0 35054903.97365161 0 0 36683278.01482255 0 0 39304903.28618409 0 0 44112793.88351471 0 0 45040353.93431753 0 0 48607688.98428381 0 0 53364211.34551015 0 0 58254344.83348857 0 0 63175904.04248257 0 0 68045115.8759305 0 0 72794116.51740246 0 0 77371526.80992545 0 0 81743814.69278984 0 0 85408438.67990255 0 0 86497249.06174709 0 0 90194634.18292826 0 0 93645827.87088296 0 0 96851472.84489517 0 0 99621317.11191431 0 0 98368315.75422479 0 0 102209180.3826986 0 0 104581918.3777988 0 0 106745478.0333254 0 0 108707616.5158678 0 0 110477034.3765408 0 0 112064573.6974823 0 0 111588519.4915148 0 0 112705964.6006642 0 0 113930760.5044773 0 0 115015353.2467283 0 0 115966320.9189907 0 0 116795236.1835837 0 0 117508562.3004576 0 0 116403975.9646072 0 0 117219847.2354373 0 0 117747353.7938221 0 0 115898458.7566021 0 0 116316849.4496642 0 0 115944764.2141384 0 0 116960028.7501868 0 0 116258774.7491028 0 0 116510971.6569276 0 0 116716585.5710053 0 0 116874364.4801127 0 0 116347130.4504902 0 0 117331342.2603809 0 0 116439786.6273512 0 0 116497738.9657893 0 0 116522705.278818 0 0 116518518.6385545 0 0 116488576.5263461 0 0 116778290.3957657 0 0 115850497.3163605 0 0 116703697.8730423 0 0 115773889.4658449 0 0 115679702.4150388 0 0 115570300.2552962 0 0 115446505.2389066 0 0 114890201.7297361 0 0 115622540.4255439 0 0 114758335.2575861 0 0 114616444.4114169 0 0 114465459.6476782 0 0 114306734.16831 0 0 114141180.2906889 0 0 114061010.9216454 0 0 113969675.338575 0 0 113477410.5934161 0 0 113309662.5423594 0 0 113137829.0434834 0 0 112962677.7467446 0 0 112783411.088865 0 0 112593985.8024105 0 0 112639371.6206164 0 0 112161107.0307805 0 0 111988354.0947426 0 0 111821501.1522611 0 0 111646820.8601042 0 0 111675136.2116336 0 0 111265901.5474731 0 0 111100823.9478363 0 0 110936048.7611604 0 0 110770472.3997877 0 0 110612378.1797772 0 0 110468559.6743439 0 0 110315901.5842164 0 0 110141270.7084884 0 0 109972374.9869229 0 0 116671152.6642487 0 0 50692069.39160613 0 0 46768062.06290925 0 0 44406562.74914178 0 0 43375137.95986268 0 0 38205391.20402463 0 0 38371883.02319278 0 0 39277276.14341336 0 0 41198690.7061697 0 0 44060883.6193739 0 0 49142077.20064297 0 0 42772844.21422178 0 0 53567203.6978194 0 0 58173730.43415183 0 0 62847450.2313461 0 0 67501054.30416238 0 0 72061629.24414819 0 0 76476437.49116805 0 0 80710344.33443327 0 0 84734465.75559261 0 0 85885318.12501355 0 0 89020625.18404542 0 0 92404392.53014998 0 0 95556919.4325687 0 0 98479431.60747156 0 0 100937116.408699 0 0 99810308.63873142 0 0 103298962.8468 0 0 105466075.9961887 0 0 107441128.7425164 0 0 109231785.9235848 0 0 110847456.8302534 0 0 112299621.6625922 0 0 113481876.9306373 0 0 112849406.5269728 0 0 113974459.0136839 0 0 114967147.2705421 0 0 115839488.4738816 0 0 116596750.7379785 0 0 117258515.4408075 0 0 118114863.9738239 0 0 116974590.0421081 0 0 117456359.3775312 0 0 117374426.1737877 0 0 117748179.3931113 0 0 117285011.6755274 0 0 116677598.1863813 0 0 117548971.7083989 0 0 117753976.6273387 0 0 117909214.4162597 0 0 118018200.4445553 0 0 117416388.1441807 0 0 116989482.1983002 0 0 117463168.5413665 0 0 117475445.2005961 0 0 117456681.7524465 0 0 117409903.5322612 0 0 117338462.5592693 0 0 116435196.0262851 0 0 116608664.0792253 0 0 116360679.6499079 0 0 116495224.9511013 0 0 116365824.532987 0 0 116221798.182712 0 0 116064853.9531471 0 0 115471344.7176894 0 0 115310257.6969613 0 0 115309903.5147292 0 0 115139652.7646624 0 0 114961558.4728695 0 0 114776766.7601245 0 0 114586174.8151995 0 0 113793115.3272488 0 0 114390727.5298948 0 0 113875421.8010143 0 0 113686630.0044999 0 0 113494144.1186236 0 0 113294197.6238524 0 0 113092174.9945574 0 0 112892960.5928177 0 0 112409586.6892854 0 0 112450171.6166171 0 0 112262926.8598767 0 0 112076751.0030068 0 0 111888836.3909082 0 0 111472775.6222534 0 0 111496881.6788001 0 0 111318711.8072309 0 0 111141898.5870613 0 0 110964246.7343544 0 0 110754453.4839477 0 0 110535351.3579119 0 0 110344585.8393982 0 0 110162275.0663415 0 0 109983505.787964 0 0 118192773.9642202 0 0 55731347.49753097 0 0 50065245.89970946 0 0 45997999.9876589 0 0 43402373.32064859 0 0 42063823.84364898 0 0 37792904.13343572 0 0 37957081.80194769 0 0 39325961.00883206 0 0 41819492.97148523 0 0 46892692.80621129 0 0 47672027.85583837 0 0 51468966.2206131 0 0 56326565.14748322 0 0 61320400.44147469 0 0 66341633.76056185 0 0 71284839.29261944 0 0 76087308.88127154 0 0 80689025.37803321 0 0 85061981.29001935 0 0 88532353.68608257 0 0 89779809.45985596 0 0 93417464.05780444 0 0 96794598.48389407 0 0 99910349.26256961 0 0 102526155.2778611 0 0 101172744.9871619 0 0 105005092.6077112 0 0 107264512.2208548 0 0 109309504.0024194 0 0 111148610.0307921 0 0 112794523.1421817 0 0 114258119.8080954 0 0 113596321.4066517 0 0 114739038.8273463 0 0 115846609.5344146 0 0 116814581.4044298 0 0 117654601.5167679 0 0 118375514.9329285 0 0 118980969.8109876 0 0 117787302.9680323 0 0 118580511.2740092 0 0 119025203.7373311 0 0 117081923.701744 0 0 117429766.5539429 0 0 116976329.0888534 0 0 118056844.600532 0 0 117218116.8793822 0 0 117405793.841084 0 0 117547868.3115337 0 0 117646232.8796391 0 0 117065614.9569861 0 0 118085048.2898109 0 0 117106245.9037938 0 0 117114750.3307078 0 0 117092274.1770414 0 0 117044271.2629852 0 0 116972639.3109319 0 0 117244654.0284262 0 0 116266872.9908753 0 0 117130836.729306 0 0 116155888.2108393 0 0 116028893.3016464 0 0 115888516.1462904 0 0 115735705.7851203 0 0 115162721.5113487 0 0 115896866.6463798 0 0 115005394.9442983 0 0 114839692.9492379 0 0 114666428.7907465 0 0 114486706.5912454 0 0 114301372.512673 0 0 114191278.0937192 0 0 114111172.4045427 0 0 113612493.1759038 0 0 113428842.110615 0 0 113243269.0984754 0 0 113053009.5675899 0 0 112854225.9639112 0 0 112655699.9373978 0 0 112693956.3442865 0 0 112226793.4163208 0 0 112044249.5110696 0 0 111862882.8544682 0 0 111679553.0458517 0 0 111701272.0196516 0 0 111298783.7530411 0 0 111124799.6330551 0 0 110950370.1352087 0 0 110773701.2310639 0 0 110632551.6289379 0 0 110456616.1085643 0 0 110273972.6023885 0 0 110092782.6539068 0 0 117864151.1815731 0 0 60676221.35289682 0 0 54186158.16383122 0 0 51998929.62693441 0 0 50083900.4104331 0 0 47607656.34742865 0 0 42158296.90326253 0 0 41291332.26842188 0 0 41857113.62766991 0 0 43564049.98032875 0 0 46355140.05059017 0 0 51824714.96588199 0 0 45275318.88303819 0 0 56331433.13402042 0 0 61030227.18718082 0 0 65795354.07453442 0 0 70525306.04129769 0 0 75140278.78200991 0 0 79585873.10292402 0 0 83827882.75430326 0 0 87837295.76672675 0 0 89179616.39515534 0 0 92094070.55684453 0 0 95410331.29090627 0 0 98485561.65886828 0 0 101319941.00521 0 0 103640191.2989765 0 0 102769802.9480278 0 0 105903431.9479597 0 0 107962189.4994621 0 0 109824326.9762843 0 0 111500955.4442104 0 0 113002317.6132682 0 0 114339139.0395459 0 0 115551800.9459693 0 0 114747202.3623977 0 0 115760525.4048509 0 0 116647708.297262 0 0 117417820.0208037 0 0 118091532.9176652 0 0 118634764.8361475 0 0 119475375.2148467 0 0 118262341.0327843 0 0 118656890.7448636 0 0 118555745.4858814 0 0 118849402.7225953 0 0 118304542.4202717 0 0 117712301.4313069 0 0 118493484.1266442 0 0 118630569.9273568 0 0 118720789.2717105 0 0 118767987.7828672 0 0 118113337.8138975 0 0 117704759.0032103 0 0 118106238.2982563 0 0 118067733.7250562 0 0 118001018.517628 0 0 117908856.0646902 0 0 117794550.237713 0 0 116879521.1146021 0 0 116998823.8133105 0 0 116767460.4014744 0 0 116850391.4365054 0 0 116687832.9529393 0 0 116513062.088566 0 0 116327385.1935069 0 0 115718765.887787 0 0 115572071.0832245 0 0 115532194.96819 0 0 115338325.7719877 0 0 115138123.757618 0 0 114932559.8228059 0 0 114722561.7968587 0 0 113917144.0514237 0 0 114508869.8017453 0 0 113988675.2516664 0 0 113785096.6453443 0 0 113574183.9181342 0 0 113361392.889835 0 0 113147397.2158054 0 0 112937955.7388041 0 0 112462552.5486925 0 0 112496226.2188919 0 0 112298566.8173465 0 0 112101516.603794 0 0 111904682.493041 0 0 111496651.6083503 0 0 111514292.6641373 0 0 111327868.1933166 0 0 111146224.150334 0 0 110964831.0898706 0 0 110641429.0708804 0 0 110463761.604385 0 0 110275995.0730068 0 0 110094150.5271419 0 0 119379681.0321286 0 0 66507775.28796792 0 0 60583400.47952212 0 0 53203540.78590357 0 0 50568539.07944209 0 0 48296569.49683708 0 0 45142106.64513555 0 0 40908042.94261504 0 0 40547965.38891397 0 0 41610615.96631394 0 0 43985571.60694355 0 0 49465487.72590285 0 0 49996945.72067369 0 0 54161175.5530618 0 0 59160408.60515288 0 0 64294552.93954143 0 0 69430628.5536491 0 0 74470855.44850582 0 0 79335795.03168762 0 0 83967813.35010962 0 0 88341275.89567892 0 0 91602308.00113827 0 0 93028249.57389924 0 0 96602006.85434985 0 0 99897347.25767905 0 0 102916357.0788462 0 0 105375102.3316032 0 0 103914493.4011643 0 0 107741385.7784173 0 0 109879918.7087393 0 0 111798867.666493 0 0 113510842.936113 0 0 115027550.9549648 0 0 116363266.9265954 0 0 115521365.3490982 0 0 116686881.5471191 0 0 117674680.1481454 0 0 118527281.0997789 0 0 119255411.9028824 0 0 119863816.1487033 0 0 120360391.7345745 0 0 119084988.4640925 0 0 119868844.6679581 0 0 120218770.2657785 0 0 118199860.0079118 0 0 118466572.8403407 0 0 117938784.5160129 0 0 119077677.1554372 0 0 118111825.475643 0 0 118236363.1567979 0 0 118316898.4971801 0 0 118356991.3864583 0 0 117727275.6442668 0 0 118776411.6841181 0 0 117717125.5421683 0 0 117677851.4448927 0 0 117610791.8107974 0 0 117519607.5452277 0 0 117407467.5639154 0 0 117660707.9433378 0 0 116638385.4602761 0 0 117509472.988041 0 0 116494263.4616744 0 0 116336032.3537004 0 0 116166257.6732163 0 0 115985872.007014 0 0 115398904.314486 0 0 116132012.2435358 0 0 115217515.5021988 0 0 115029159.6991014 0 0 114834685.7298308 0 0 114634980.9680255 0 0 114430991.188482 0 0 114292403.480239 0 0 114223406.5424745 0 0 113720217.2876291 0 0 113522408.3446754 0 0 113320100.504097 0 0 113113720.1481164 0 0 112906986.4280772 0 0 112697387.0965165 0 0 112728684.3844322 0 0 112269674.9517569 0 0 112077252.1221253 0 0 111885222.0175027 0 0 111693349.1731274 0 0 111708574.789731 0 0 111314429.2723014 0 0 111132702.8673135 0 0 110941925.1967335 0 0 110751313.9940416 0 0 110597500.9926828 0 0 110795238.386384 0 0 110394428.0682729 0 0 110208158.3907302 0 0 118982556.7380788 0 0 73699645.78808609 0 0 67943896.66550629 0 0 60393103.54837967 0 0 58898791.03067373 0 0 55947768.26558803 0 0 51237629.96508885 0 0 45649386.56580298 0 0 43778601.2724489 0 0 43919398.05588102 0 0 45437617.49237674 0 0 48198176.56308337 0 0 54250610.06932228 0 0 47460309.14959129 0 0 58888530.87538807 0 0 63724103.57371705 0 0 68616813.65517128 0 0 73445513.71991983 0 0 78133325.581962 0 0 82621667.80218899 0 0 86877811.86826293 0 0 90878280.99761409 0 0 92432890.26837507 0 0 95110520.29514739 0 0 98360527.29898039 0 0 101353276.9400685 0 0 104094593.8607241 0 0 106285226.2999064 0 0 105668334.3651242 0 0 108438965.5027477 0 0 110383563.3284888 0 0 112129629.7140235 0 0 113688023.631836 0 0 115071451.2441099 0 0 116290424.8445551 0 0 117530137.4478734 0 0 116559118.2726488 0 0 117463779.7941362 0 0 118245047.3384495 0 0 118920162.8144771 0 0 119473890.8209809 0 0 119921956.7976143 0 0 120761662.3248787 0 0 119468395.0684109 0 0 119777724.5240774 0 0 119660086.7049371 0 0 119871388.6787623 0 0 119249832.4094282 0 0 118675846.1000038 0 0 119368552.5763761 0 0 119438752.8459194 0 0 119465283.3151919 0 0 119452161.1082719 0 0 118749437.7079609 0 0 118360337.6475852 0 0 118690487.0830678 0 0 118602520.1224418 0 0 118489732.4659135 0 0 118354426.7600473 0 0 118198712.1464079 0 0 117275873.6092013 0 0 117341667.9336015 0 0 117127804.1724271 0 0 117159852.5529541 0 0 116966179.2190138 0 0 116762142.5056711 0 0 116549007.8864673 0 0 115928438.6436415 0 0 115796134.5196153 0 0 115718101.4469272 0 0 115501925.5047271 0 0 115280870.8512082 0 0 115055856.3929938 0 0 114827724.4440824 0 0 114013078.1667033 0 0 114596957.5007473 0 0 114073734.1909209 0 0 113857547.2877889 0 0 113627715.1040733 0 0 113400526.0258565 0 0 113178335.9091928 0 0 112960055.5008757 0 0 112494352.9147892 0 0 112520479.6129006 0 0 112313175.777274 0 0 112106541.5382107 0 0 111901646.2870064 0 0 111502001.0818187 0 0 111513409.995339 0 0 111319981.5713404 0 0 111130660.3993726 0 0 110920873.8232964 0 0 110570520.9829304 0 0 110722320.916721 0 0 110383818.5889027 0 0 110198337.3494898 0 0 120485368.3640169 0 0 81391490.41911003 0 0 73774628.38697815 0 0 68870981.27688944 0 0 58894677.92193535 0 0 56866465.96269314 0 0 52935816.2152379 0 0 47713279.49253524 0 0 43550093.89030733 0 0 42676268.44973121 0 0 43420556.39633907 0 0 45693856.62509168 0 0 51777840.62454799 0 0 51946059.75717466 0 0 56656402.58779558 0 0 61842954.99094347 0 0 67153211.49725138 0 0 72441787.19380023 0 0 77598150.71127293 0 0 82531349.03570811 0 0 87200367.43982761 0 0 91574658.23703039 0 0 94613096.33581436 0 0 96233057.44280998 0 0 99734852.53232583 0 0 102943151.0285505 0 0 105859605.6195517 0 0 108158497.8234151 0 0 106590378.1916495 0 0 110404541.3566433 0 0 112415058.2376222 0 0 114203270.7648029 0 0 115782254.2947356 0 0 117166551.8496722 0 0 118370658.353019 0 0 117356585.287655 0 0 118541291.2744044 0 0 119409165.359832 0 0 120146105.025743 0 0 120760486.4595565 0 0 121259943.7555274 0 0 121648958.1119733 0 0 120288164.8218205 0 0 121077543.2838767 0 0 121325293.5012622 0 0 119236716.7128698 0 0 119430269.6323456 0 0 118832474.1289987 0 0 120023309.0862966 0 0 118939350.4467948 0 0 119000981.6886358 0 0 119021653.7545138 0 0 119004807.7643278 0 0 118330432.4254486 0 0 119403561.8040064 0 0 118271206.5186262 0 0 118185293.9430821 0 0 118075062.6679114 0 0 117942906.7066034 0 0 117792463.2308861 0 0 118025784.8081911 0 0 116964914.2542646 0 0 117838429.795846 0 0 116788926.1006825 0 0 116601380.1702965 0 0 116403539.3046702 0 0 116196668.347371 0 0 115598629.2444784 0 0 116327846.6428215 0 0 115394489.4855937 0 0 115184705.4578144 0 0 114970211.6885808 0 0 114751863.9097172 0 0 114530401.3116031 0 0 114364384.4276358 0 0 114306303.8863415 0 0 113801003.8082267 0 0 113583613.9925001 0 0 113367318.1560554 0 0 113151922.9042603 0 0 112934907.2035269 0 0 112717895.509979 0 0 112741490.1619278 0 0 112291587.6647094 0 0 112089780.119314 0 0 111888472.3108931 0 0 111688402.1783155 0 0 111697533.7376119 0 0 111311306.716722 0 0 111122008.7323014 0 0 110939427.7648301 0 0 110825945.9396648 0 0 110509119.1998974 0 0 110683289.7437691 0 0 110315750.1467733 0 0 120020230.858135 0 0 85650433.65359485 0 0 81908714.47232062 0 0 69071810.57854642 0 0 67674579.32116908 0 0 60093609.91835131 0 0 54146405.03405395 0 0 48907410.46553717 0 0 45645235.12783745 0 0 45336209.50793248 0 0 46683510.34454953 0 0 49506703.29839018 0 0 56381536.23266482 0 0 49258196.30999479 0 0 61217723.02532645 0 0 66242883.22350669 0 0 71297103.32560104 0 0 76255460.2596374 0 0 81037112.03223293 0 0 85580025.49832657 0 0 89858134.96840191 0 0 93852169.70511611 0 0 95633787.46056348 0 0 98065883.54555836 0 0 101244303.8830063 0 0 104153507.0885779 0 0 106795730.7389785 0 0 108854992.0692017 0 0 108496178.6277619 0 0 110894347.7698989 0 0 112721090.7692051 0 0 114346831.1221978 0 0 115784866.6082767 0 0 117047019.5432364 0 0 118146535.9898451 0 0 119408809.9589964 0 0 118281800.399677 0 0 119076968.0532035 0 0 119754973.0857166 0 0 120321278.9899597 0 0 120771305.5904586 0 0 121125164.5599146 0 0 121947593.3996572 0 0 120587480.7119094 0 0 120813410.661119 0 0 120681160.8324351 0 0 120812772.9896619 0 0 120122043.9817632 0 0 119567655.2769457 0 0 120171596.8790758 0 0 120176032.9469566 0 0 120140785.9443582 0 0 120069397.3378988 0 0 119323742.0506289 0 0 118954507.5541873 0 0 119214031.7161341 0 0 119078724.6129969 0 0 118921752.147593 0 0 118744797.0654202 0 0 118550606.0894841 0 0 117624191.9462028 0 0 117637025.6595553 0 0 117441177.5950054 0 0 117423600.8128307 0 0 117200909.7804983 0 0 116969248.9000393 0 0 116729865.7988358 0 0 116100404.9441265 0 0 115982326.6465122 0 0 115867612.5842301 0 0 115630492.1528938 0 0 115389999.7517115 0 0 115146936.1753056 0 0 114902090.8726595 0 0 114080718.8711085 0 0 114655391.9433129 0 0 114130050.8216643 0 0 113895847.2556733 0 0 113654105.4775865 0 0 113421965.4164656 0 0 113190277.3344813 0 0 112960621.4019239 0 0 112505032.0042321 0 0 112523603.4255568 0 0 112307576.3011113 0 0 112092031.0597007 0 0 111880414.714231 0 0 111488876.236872 0 0 111494337.5848019 0 0 111294891.3638501 0 0 111105144.0683294 0 0 110886006.5645012 0 0 110487483.4517755 0 0 110683852.0490897 0 0 110296167.6632547 0 0 121504127.5430608 0 0 100171005.9612045 0 0 84808300.29764907 0 0 80835447.72351615 0 0 67480590.98661998 0 0 64733935.06953883 0 0 57186081.47164757 0 0 49558742.0215069 0 0 45657548.74960761 0 0 44224550.31461407 0 0 44606583.73674549 0 0 46847416.37953189 0 0 53799358.3627346 0 0 53487782.77670439 0 0 58932690.77433916 0 0 64364932.97738257 0 0 69907509.76065248 0 0 75378599.0404864 0 0 80663302.98555458 0 0 85676674.89549999 0 0 90383822.82632323 0 0 94755197.07688518 0 0 97553740.74058907 0 0 99384613.48156928 0 0 102817728.0319963 0 0 105923265.890412 0 0 108729171.3810764 0 0 110866093.0346995 0 0 109189510.6170345 0 0 112983478.1057058 0 0 114859122.4191842 0 0 116511189.811513 0 0 117953664.9559893 0 0 119201211.9270045 0 0 120271413.0908311 0 0 119096260.0077545 0 0 120295561.3518024 0 0 121043088.7808848 0 0 121662250.9686727 0 0 122163350.0777405 0 0 122556032.2045234 0 0 122840878.1588397 0 0 121407688.5253121 0 0 122175324.154465 0 0 122339971.0100245 0 0 120198292.7157769 0 0 120317210.4909884 0 0 119655575.8081511 0 0 120889692.925911 0 0 119697697.1344306 0 0 119697918.6467239 0 0 119660647.9427646 0 0 119589342.0631907 0 0 118874435.027853 0 0 119965623.0116444 0 0 118767552.5107535 0 0 118636931.5892571 0 0 118484340.7088399 0 0 118312478.9816103 0 0 118124885.9528661 0 0 118341038.7134037 0 0 117246091.2041985 0 0 118118591.3282031 0 0 117039819.9794419 0 0 116823943.0215863 0 0 116599714.8093331 0 0 116368211.2106393 0 0 115761941.9418517 0 0 116484527.1636181 0 0 115536296.3276063 0 0 115306464.1406688 0 0 115073321.2419674 0 0 114837681.7463644 0 0 114600264.2411001 0 0 114407477.7899734 0 0 114361577.4081357 0 0 113857382.5341888 0 0 113619047.6019904 0 0 113391188.3113666 0 0 113164052.6616471 0 0 112941528.701852 0 0 112716980.6816744 0 0 112733047.0310097 0 0 112292866.3434329 0 0 112081810.8802243 0 0 111872764.3694354 0 0 111664532.4434653 0 0 111669215.1577213 0 0 111291466.6629736 0 0 111098938.5449977 0 0 110926070.2927997 0 0 110758822.1410898 0 0 110600193.0666328 0 0 110415780.8588876 0 0 120977225.5782441 0 0 96784027.13477749 0 0 81344527.8590927 0 0 78972606.77504729 0 0 63909044.10620968 0 0 67368442.55685206 0 0 55325103.69490752 0 0 51470370.74606039 0 0 46738243.08170063 0 0 45932210.61677942 0 0 47172231.38839578 0 0 50264107.4440155 0 0 58197118.55955714 0 0 50652080.91941836 0 0 63306432.44314145 0 0 68578774.68130419 0 0 73844800.12408875 0 0 78968372.25125945 0 0 83854526.74913968 0 0 88463312.01459113 0 0 92770227.72622468 0 0 96760091.6005654 0 0 98791663.44614872 0 0 100954616.1877543 0 0 104061208.6640921 0 0 106874780.3054464 0 0 109416236.9547626 0 0 111341478.5207053 0 0 111241396.0662834 0 0 113261123.4968182 0 0 114966124.4256975 0 0 116468945.818779 0 0 117782837.3122103 0 0 118921595.9542477 0 0 119900998.0083094 0 0 121180883.0638817 0 0 119908624.2601349 0 0 120594251.4482044 0 0 121161879.937989 0 0 121623404.9350092 0 0 121978639.5872646 0 0 122234010.9546259 0 0 123035615.385626 0 0 121617328.9665424 0 0 121763828.1837245 0 0 121617088.5359559 0 0 121672257.876508 0 0 120917396.2958844 0 0 120384499.8283377 0 0 120899559.6823751 0 0 120840578.908462 0 0 120746003.719588 0 0 120618370.0042377 0 0 119833665.9941669 0 0 119487617.288655 0 0 119675858.0264407 0 0 119495689.3319806 0 0 119296145.9061748 0 0 119079547.1314044 0 0 118848265.9235639 0 0 117922589.9359042 0 0 117885313.1842968 0 0 117707202.3152727 0 0 117642148.9324589 0 0 117391437.1840825 0 0 117133635.051284 0 0 116870365.3365692 0 0 116234679.0269356 0 0 116130817.0293125 0 0 115980909.5135212 0 0 115724315.1198609 0 0 115465849.0369301 0 0 115206036.3514415 0 0 114945971.1097609 0 0 114118272.2582663 0 0 114684147.2973177 0 0 114169354.096268 0 0 113914223.4990114 0 0 113659184.23318 0 0 113419166.4842061 0 0 113178577.4139584 0 0 112938844.2581778 0 0 112494368.8367804 0 0 112505883.7645377 0 0 112281973.9961108 0 0 112058369.2455232 0 0 111840610.7254651 0 0 111458496.9948858 0 0 111459623.1400781 0 0 111253374.5560365 0 0 111061859.6984481 0 0 110821461.5937492 0 0 110591181.344078 0 0 110388205.6379067 0 0 122432903.148377 0 0 95730211.90636951 0 0 79106164.89323002 0 0 64891747.96187903 0 0 77982064.46369617 0 0 60931131.66313896 0 0 50159696.81219194 0 0 47265485.89871651 0 0 44995617.06265128 0 0 45008059.59233552 0 0 47448294.51832648 0 0 55514627.86828114 0 0 54599057.49449117 0 0 60987575.67551819 0 0 66735180.38156722 0 0 72560221.55809504 0 0 78254211.60275781 0 0 83675576.2503944 0 0 88776791.39817631 0 0 93523098.22740357 0 0 97891958.30882385 0 0 100428298.7030776 0 0 102484535.0691692 0 0 105831270.3020333 0 0 108834772.7844946 0 0 111516400.1833835 0 0 113483573.5988009 0 0 111699965.3990165 0 0 115466371.4147052 0 0 117201953.2481653 0 0 118713953.287773 0 0 120014800.0187458 0 0 121122240.34126 0 0 122058687.3226983 0 0 120734771.0538362 0 0 121943352.9878788 0 0 122568296.0520094 0 0 123069293.1680664 0 0 123455041.1729885 0 0 123741307.9920504 0 0 123931956.3603317 0 0 122435315.1557734 0 0 123184681.6882852 0 0 123258646.2227337 0 0 121078217.4987009 0 0 121125607.4431757 0 0 120405742.1316836 0 0 121675823.3444027 0 0 120384804.4550523 0 0 120325631.6077449 0 0 120231909.9632942 0 0 120107909.5180712 0 0 119358831.473831 0 0 120462206.2616266 0 0 119206239.2337707 0 0 119032060.0093682 0 0 118839149.2375185 0 0 118630130.4178029 0 0 118406951.9269342 0 0 118604174.3950205 0 0 117481569.9955436 0 0 118349315.8342437 0 0 117247107.0126575 0 0 117004331.7953155 0 0 116754888.5689403 0 0 116500297.0512096 0 0 115888889.4398078 0 0 116602402.3121174 0 0 115643138.87688 0 0 115394662.1162291 0 0 115144232.5087251 0 0 114892455.942914 0 0 114640499.3062896 0 0 114410476.126304 0 0 114391940.6974482 0 0 113876136.9733398 0 0 113629203.3763787 0 0 113397589.5012115 0 0 113160487.2230059 0 0 112926804.0409319 0 0 112694771.0484003 0 0 112701960.1802323 0 0 112273575.7296185 0 0 112053933.889764 0 0 111838816.2412069 0 0 111624173.4014468 0 0 111624293.0098274 0 0 111255010.3598649 0 0 111061038.2216812 0 0 110863011.6610728 0 0 110703159.6127937 0 0 110510977.8252062 0 0 121849443.3418296 0 0 92806261.09859116 0 0 72778590.52197459 0 0 77801044.84453396 0 0 55892088.5917111 0 0 60345779.46597227 0 0 52518324.38256518 0 0 46866414.45311652 0 0 45555403.66341121 0 0 46950369.20310753 0 0 50450002.69701717 0 0 59693571.04033335 0 0 51603821.8329621 0 0 65163875.27450082 0 0 70763042.92287037 0 0 76285728.72288056 0 0 81588515.75429352 0 0 86596948.04505208 0 0 91280013.17084609 0 0 95617159.65175264 0 0 99605126.20691884 0 0 101894176.1551349 0 0 103771076.1493195 0 0 106791308.2130517 0 0 109515194.3144123 0 0 111949223.8079551 0 0 113734162.5415615 0 0 113896917.3747517 0 0 115532052.4179258 0 0 117111270.6139986 0 0 118486943.0153453 0 0 119674281.506286 0 0 120689338.4889079 0 0 121549426.5246219 0 0 122840950.0440276 0 0 121433279.244782 0 0 122006514.613565 0 0 122466369.6318612 0 0 122821846.3535474 0 0 123090306.3261282 0 0 123254936.2797276 0 0 124029925.3417769 0 0 122558742.6426466 0 0 122624012.5468015 0 0 122466399.2638755 0 0 122446075.5847261 0 0 121634273.0867829 0 0 121124428.703325 0 0 121551520.7573396 0 0 121431336.232169 0 0 121278989.6684786 0 0 121097551.3235655 0 0 120280333.5195241 0 0 119957315.4234579 0 0 120076932.2329341 0 0 119853473.0870012 0 0 119613037.8588391 0 0 119359034.5330654 0 0 119092567.4375295 0 0 118171612.0362631 0 0 118086324.8390912 0 0 117926024.6505328 0 0 117815179.7497431 0 0 117538187.417781 0 0 117256075.8838514 0 0 116970610.6045252 0 0 116331579.1232022 0 0 116241695.8021058 0 0 116058291.2764602 0 0 115783790.7951758 0 0 115508790.0786877 0 0 115233551.0771736 0 0 114959176.4922519 0 0 114141751.9660984 0 0 114686382.7475502 0 0 114164290.3476946 0 0 113901536.7756878 0 0 113645262.0216731 0 0 113393223.1307572 0 0 113143407.2436438 0 0 112897640.5551784 0 0 112462947.7777195 0 0 112466989.4700172 0 0 112234471.1904884 0 0 112006040.9967487 0 0 111782945.0676264 0 0 111416017.6240641 0 0 111409514.1103307 0 0 111203240.724052 0 0 111025379.3056755 0 0 110670881.9166836 0 0 110468574.1407652 0 0 123270189.3247607 0 0 72438274.37367226 0 0 88589198.48199108 0 0 58703353.2473342 0 0 68671092.47831157 0 0 49920993.12504228 0 0 47845336.71651335 0 0 44711936.50080523 0 0 44723096.5567134 0 0 47456198.35553304 0 0 56920876.41499031 0 0 55274549.54920209 0 0 62834038.1337316 0 0 68979543.41573985 0 0 75148860.06117599 0 0 81069319.26245326 0 0 86647352.6143018 0 0 91840271.27545333 0 0 96616825.94201775 0 0 100985777.5632876 0 0 103234720.8333605 0 0 105528907.6206806 0 0 108768594.5626888 0 0 111654387.452132 0 0 114212390.3809663 0 0 116004417.7659795 0 0 114116318.4125749 0 0 117840465.4738531 0 0 119431194.4012361 0 0 120792110.3512813 0 0 121952251.7259616 0 0 122926122.8049344 0 0 123731814.4571361 0 0 122265458.4316727 0 0 123476250.8848337 0 0 123977781.3505285 0 0 124364466.0196025 0 0 124636535.833515 0 0 124814559.4169609 0 0 124911349.6433962 0 0 123365006.4747055 0 0 124090853.323916 0 0 124081591.9320895 0 0 121875995.0800723 0 0 121853289.758791 0 0 121081201.6072572 0 0 122378681.8955661 0 0 120999491.0440282 0 0 120883166.503255 0 0 120735331.5074853 0 0 120561082.5781404 0 0 119781825.3426205 0 0 120891017.3298703 0 0 119585610.6530731 0 0 119370899.5898179 0 0 119139613.5431354 0 0 118894802.0496816 0 0 118638132.6680843 0 0 118816032.5764471 0 0 117671790.1483644 0 0 118531062.1761556 0 0 117410506.2380905 0 0 117142388.2653474 0 0 116869872.5547021 0 0 116593320.7946654 0 0 115979815.0234652 0 0 116681971.3495671 0 0 115715397.6227446 0 0 115449704.291666 0 0 115183299.1139204 0 0 114916877.7928755 0 0 114651113.7931023 0 0 114397519.0325495 0 0 114386351.8575008 0 0 113876892.2288119 0 0 113623476.172388 0 0 113379364.8419035 0 0 113133751.9603496 0 0 112891062.0519229 0 0 112648964.1229022 0 0 112651124.1827379 0 0 112234610.0953464 0 0 112008833.1548207 0 0 111787063.9780344 0 0 111566737.1978725 0 0 111562923.8801231 0 0 111209472.2289392 0 0 111009771.3688649 0 0 110825859.7880415 0 0 110838871.4537317 0 0 110612035.5397583 0 0 122634410.3599001 0 0 83366445.11659205 0 0 59991828.46858842 0 0 68252466.71292309 0 0 53103999.33005032 0 0 45833766.91400705 0 0 44411345.94581869 0 0 45934393.44829398 0 0 50046759.80139442 0 0 60897536.83728103 0 0 52078781.01947831 0 0 66825905.03088592 0 0 72831268.57120778 0 0 78645132.98994015 0 0 84139120.47749905 0 0 89282859.26767471 0 0 94044205.20236194 0 0 98412174.78796697 0 0 102393126.1009059 0 0 104950575.3535571 0 0 106512565.5717203 0 0 109448965.7357002 0 0 112069404.7899068 0 0 114387126.0849094 0 0 116026383.6928932 0 0 116456515.9609126 0 0 117696529.6669528 0 0 119145076.5046038 0 0 120392143.7452014 0 0 121453518.5802439 0 0 122345304.3528171 0 0 123085395.2933619 0 0 124377102.3570701 0 0 122848696.9025045 0 0 123311527.9166524 0 0 123669330.649717 0 0 123923749.0162085 0 0 124087841.3092973 0 0 124171185.9985286 0 0 124930489.1785599 0 0 123406720.3430261 0 0 123394320.9756319 0 0 123226008.943775 0 0 123133652.2749449 0 0 122271017.7305724 0 0 121785838.8228246 0 0 122125899.7526761 0 0 121947108.4663511 0 0 121739164.5249584 0 0 121506598.4022167 0 0 120662612.3041594 0 0 120363025.0407049 0 0 120415278.2251882 0 0 120151067.8545493 0 0 119872699.7605641 0 0 119583397.2147511 0 0 119284019.2774812 0 0 118371843.1961508 0 0 118240355.3161326 0 0 118097588.6816444 0 0 117942933.8741633 0 0 117641324.7174938 0 0 117336860.5936295 0 0 117030531.36907 0 0 116391935.0735547 0 0 116314994.6102754 0 0 116100515.9667052 0 0 115809526.7592445 0 0 115519508.4328611 0 0 115229935.6213322 0 0 114942692.4161927 0 0 114123801.9531569 0 0 114655904.0330207 0 0 114136026.0332131 0 0 113868344.4498526 0 0 113605486.5917563 0 0 113344093.1198238 0 0 113085499.4000452 0 0 112831703.166355 0 0 112410622.0208863 0 0 112408825.604522 0 0 112170597.6308393 0 0 111936484.7315034 0 0 111706292.5361629 0 0 111352675.3619705 0 0 111327912.2121339 0 0 111074880.5838132 0 0 111033718.4422822 0 0 110714327.6647296 0 0 110542684.0814026 0 0 124013253.1341504 0 0 61465839.8769967 0 0 76681866.58362918 0 0 47725017.37315604 0 0 47695749.08615401 0 0 43651144.66411525 0 0 43626692.69949266 0 0 46771963.1191652 0 0 58050410.6261831 0 0 55531478.77416941 0 0 64504603.0159633 0 0 71180136.86274947 0 0 77714319.84295744 0 0 83861607.74521774 0 0 89599980.43202297 0 0 94881002.58625899 0 0 99687687.49205543 0 0 104030031.9357957 0 0 105974677.3914526 0 0 108484588.8398802 0 0 111622106.911708 0 0 114385266.7101246 0 0 116800820.4732907 0 0 118411690.3072358 0 0 116429906.6338711 0 0 120096802.3306932 0 0 121533022.9687123 0 0 122747192.1210315 0 0 123773914.8804589 0 0 124605826.0853915 0 0 125269623.8220748 0 0 123681528.5089405 0 0 124887365.9361641 0 0 125269545.6383606 0 0 125541518.1027194 0 0 125703789.5522355 0 0 125774942.733377 0 0 125782926.9584101 0 0 124196936.127694 0 0 124898827.5943894 0 0 124806109.7139112 0 0 122589342.6299467 0 0 122499474.195568 0 0 121680468.1464634 0 0 122997700.5140841 0 0 121539894.5832184 0 0 121369115.7991463 0 0 121170323.5989574 0 0 120948346.1618009 0 0 120143913.2445291 0 0 121252593.2477232 0 0 119905888.8231748 0 0 119652511.9378793 0 0 119384821.4565035 0 0 119106189.0221803 0 0 118818616.2036435 0 0 118977006.3204809 0 0 117816048.3846395 0 0 118664005.1967361 0 0 117530075.3325518 0 0 117238951.2699769 0 0 116945110.8821503 0 0 116648857.0479573 0 0 116034687.8596467 0 0 116723095.7590691 0 0 115753540.9759136 0 0 115471872.7443871 0 0 115190800.1331192 0 0 114910932.2733853 0 0 114633352.8546368 0 0 114358287.7883425 0 0 114358691.8139551 0 0 113852162.0399575 0 0 113594001.6298091 0 0 113338185.8339671 0 0 113084711.2822995 0 0 112834874.5627693 0 0 112584681.1438548 0 0 112579655.1614422 0 0 112175388.8607401 0 0 111944176.3923692 0 0 111716790.9045163 0 0 111491999.5344121 0 0 111480354.4084277 0 0 111145872.4942856 0 0 110882847.9132723 0 0 110668761.5374751 0 0 110886180.6380737 0 0 123329642.6646311 0 0 67815179.77640304 0 0 55302293.14572795 0 0 43322267.78412338 0 0 41938791.05068716 0 0 44168044.99738424 0 0 49156436.51800099 0 0 61857272.41548823 0 0 52126330.66561382 0 0 68401933.33881295 0 0 74825740.32682823 0 0 80933567.8729898 0 0 86654686.65583934 0 0 91938488.23644616 0 0 96771639.23479763 0 0 101163393.0500946 0 0 105127883.2033314 0 0 107932215.3459646 0 0 109177308.368577 0 0 112018428.8783472 0 0 114526306.7892839 0 0 116727433.6042119 0 0 118210831.1942563 0 0 118898391.341778 0 0 119750922.9372428 0 0 121064300.9568324 0 0 122174370.3358919 0 0 123109166.2847144 0 0 123885176.8404404 0 0 124501273.2488699 0 0 125783333.521606 0 0 124150870.5309295 0 0 124506964.7975885 0 0 124760025.9613545 0 0 124916246.5874099 0 0 124982467.5957537 0 0 124985612.5715241 0 0 125719406.8224924 0 0 124160143.6649366 0 0 124072556.324129 0 0 123894569.6498562 0 0 123731973.4800733 0 0 122825346.8846764 0 0 122368755.7039453 0 0 122620294.6702896 0 0 122386273.4010921 0 0 122126884.3580145 0 0 121846640.3841591 0 0 120980310.8347268 0 0 120704766.6948022 0 0 120691431.6046527 0 0 120389081.9873205 0 0 120074816.6288464 0 0 119752227.9970614 0 0 119422710.8462582 0 0 118523537.9565481 0 0 118346498.7606234 0 0 118222592.9510013 0 0 118025205.0106816 0 0 117701421.9373461 0 0 117376807.5441131 0 0 117051533.9680974 0 0 116415736.7668318 0 0 116352032.9511123 0 0 116108252.2356934 0 0 115802228.8686561 0 0 115498680.9337806 0 0 115196140.3504114 0 0 114898424.5264899 0 0 114091511.5785174 0 0 114602813.1876016 0 0 114087303.2513238 0 0 113812967.1169055 0 0 113541118.31381 0 0 113271440.0586339 0 0 113006341.579037 0 0 112746132.5858233 0 0 112339874.0100865 0 0 112331549.8432124 0 0 112088346.7645046 0 0 111848696.1726457 0 0 111613929.2240156 0 0 111270554.228389 0 0 111248962.967497 0 0 111022583.0542791 0 0 110610092.7294881 0 0 110774950.0397624 0 0 124660826.8133731 0 0 51956301.25164524 0 0 43242163.47338179 0 0 45669096.39302745 0 0 40732530.96908584 0 0 41545516.32910404 0 0 45196933.81925637 0 0 58906663.71241867 0 0 55345701.95973306 0 0 66202614.81192035 0 0 73358649.22517198 0 0 80244951.11795755 0 0 86662977.49153097 0 0 92556195.10236916 0 0 97924053.56400296 0 0 102738867.5552651 0 0 107043885.4753377 0 0 108647857.1451713 0 0 111370297.0389933 0 0 114384743.4096899 0 0 117010799.4975058 0 0 119277731.3018809 0 0 120701592.908673 0 0 118638573.7961612 0 0 122229322.5820087 0 0 123502385.6368078 0 0 124572243.01466 0 0 125452241.8526468 0 0 126145834.0056927 0 0 126674552.6185053 0 0 124977614.2921121 0 0 126169364.2826467 0 0 126437553.3381916 0 0 126593410.5905299 0 0 126655112.4236828 0 0 126633925.3202876 0 0 126543684.5044798 0 0 124928918.0541418 0 0 125601995.7662295 0 0 125431125.5621655 0 0 123216709.6862864 0 0 123061306.3435556 0 0 122203247.5642817 0 0 123531432.922329 0 0 122005847.2922875 0 0 121782202.9409445 0 0 121535162.7361127 0 0 121267572.8736205 0 0 120443677.044852 0 0 121547590.2681464 0 0 120166477.1937581 0 0 119876675.498719 0 0 119575447.0461194 0 0 119265226.0737883 0 0 118948700.6629294 0 0 119087690.5998515 0 0 117915891.009803 0 0 118748656.3017734 0 0 117606470.0760097 0 0 117294465.940214 0 0 116980936.0704297 0 0 116666916.8921207 0 0 116054367.1809206 0 0 116726941.6576287 0 0 115757517.7924863 0 0 115461674.6381106 0 0 115167750.2267937 0 0 114876354.067303 0 0 114585924.6104753 0 0 114297169.8685573 0 0 114298367.8918468 0 0 113804972.7634269 0 0 113537797.6060316 0 0 113274008.7014055 0 0 113014356.5447115 0 0 112755923.4554162 0 0 112501104.6172633 0 0 112489411.4765623 0 0 112100234.061968 0 0 111863124.0095985 0 0 111629433.1233173 0 0 111401025.8450088 0 0 111386808.1234719 0 0 111044252.1440845 0 0 110857525.679289 0 0 110736272.0403734 0 0 123934957.0992141 0 0 61881088.45986868 0 0 49055283.23606702 0 0 40535236.8367963 0 0 38217733.41360009 0 0 41771760.90454551 0 0 48029530.20102401 0 0 62840697.39033134 0 0 51750066.22142373 0 0 69911754.49845381 0 0 76787268.77533127 0 0 83238610.63306066 0 0 89177221.19688271 0 0 94596478.73714611 0 0 99491371.01208316 0 0 103888292.7767441 0 0 107797691.299579 0 0 110841056.1243282 0 0 111760028.8367071 0 0 114498394.9950154 0 0 116888253.6739372 0 0 118957795.111529 0 0 120287691.6921775 0 0 121218670.4790588 0 0 121681230.8882484 0 0 122852375.7324243 0 0 123828935.9770437 0 0 124648239.5319619 0 0 125299715.3456656 0 0 125789999.1328554 0 0 127057193.6018149 0 0 125333316.4385623 0 0 125582331.6948192 0 0 125732051.2616259 0 0 125794047.4761662 0 0 125775850.038228 0 0 125695678.9819567 0 0 126400047.4753547 0 0 124816433.1955652 0 0 124655830.7419114 0 0 124470680.8749742 0 0 124241694.941346 0 0 123297563.3301416 0 0 122870348.2812493 0 0 123035654.7998376 0 0 122748563.7632304 0 0 122441070.4048738 0 0 122116172.1177359 0 0 121233051.976265 0 0 120981858.5625135 0 0 120905287.0538033 0 0 120567149.403731 0 0 120220211.7318094 0 0 119867053.956025 0 0 119509470.2867126 0 0 118626870.7910287 0 0 118406778.0714366 0 0 118300917.1153196 0 0 118063387.3182396 0 0 117719661.4486633 0 0 117376412.6770461 0 0 117034128.8784773 0 0 116403442.5127213 0 0 116353211.216785 0 0 116081674.127435 0 0 115764047.0114737 0 0 115450588.1225218 0 0 115135215.4860732 0 0 114828009.7388728 0 0 114027640.5069535 0 0 114519979.3515178 0 0 114014316.0120325 0 0 113732371.127093 0 0 113453808.839773 0 0 113178500.2861023 0 0 112907143.9211039 0 0 112641888.4332229 0 0 112251791.7110252 0 0 112237166.2440637 0 0 111989063.3754492 0 0 111744860.0649745 0 0 111512987.4805987 0 0 111168910.7256125 0 0 111150087.4692287 0 0 110896923.4382344 0 0 110667732.5492533 0 0 125212457.9796959 0 0 46660846.61071544 0 0 39710334.61903089 0 0 38690016.54261571 0 0 38667855.13786961 0 0 42286638.29190946 0 0 60077131.22138933 0 0 55050234.17453005 0 0 67961801.90564422 0 0 75536315.94758335 0 0 82863225.43574671 0 0 89510625.07189134 0 0 95557960.71022989 0 0 100986699.2110266 0 0 105779390.6054043 0 0 110010012.8706089 0 0 111251195.9507811 0 0 114166335.8322905 0 0 117044595.3385236 0 0 119517404.4069446 0 0 121631003.082927 0 0 122858508.5938204 0 0 120733416.714687 0 0 124220735.7807142 0 0 125345399.1836005 0 0 126257777.1544796 0 0 126985907.1435562 0 0 127545991.4762764 0 0 127939424.2331693 0 0 126152205.4333505 0 0 127323547.1119364 0 0 127477886.9135831 0 0 127521587.5322328 0 0 127484589.5367793 0 0 127371040.9862026 0 0 127196147.7955674 0 0 125561826.6688137 0 0 126199881.0281947 0 0 125954520.6491834 0 0 123755345.7267857 0 0 123537804.2588047 0 0 122647300.9492252 0 0 123979556.1009489 0 0 122396969.5487043 0 0 122123686.056173 0 0 121830390.8860708 0 0 121519345.7989746 0 0 120680823.5283834 0 0 121774324.6269511 0 0 120367257.7466922 0 0 120043446.9060939 0 0 119711292.0179442 0 0 119372144.5077846 0 0 119029111.0071802 0 0 119148702.7599013 0 0 117971761.6864363 0 0 118785955.8817198 0 0 117641149.9882288 0 0 117309960.9762971 0 0 116978841.8499272 0 0 116648857.159048 0 0 116040686.235258 0 0 116693937.5437011 0 0 115730034.4172957 0 0 115420988.1118172 0 0 115112897.5144245 0 0 114811435.4329134 0 0 114508967.0931739 0 0 114205941.0610664 0 0 114210479.2138133 0 0 113732532.034779 0 0 113459028.2498104 0 0 113188084.6660963 0 0 112920748.509455 0 0 112658136.1672825 0 0 112398473.5707256 0 0 112380913.8396591 0 0 112006608.8717956 0 0 111765435.991563 0 0 111529000.3137831 0 0 111293131.610106 0 0 111285844.2061548 0 0 110957497.7717162 0 0 110782666.0659083 0 0 124450201.7523054 0 0 51945308.10357608 0 0 41593980.97327088 0 0 33564930.43152796 0 0 31874483.19787845 0 0 39186965.87624793 0 0 46449536.53445686 0 0 63625021.75369094 0 0 54106097.91363449 0 0 71431202.76200724 0 0 78863505.50102076 0 0 85609571.16707695 0 0 91755499.14171708 0 0 97287730.48321331 0 0 102212974.9955107 0 0 106592383.9084726 0 0 110436778.5986765 0 0 113688787.8425137 0 0 114264241.8267821 0 0 116884975.581507 0 0 119144960.105126 0 0 121076244.9683062 0 0 122237477.4775246 0 0 123403266.3121897 0 0 123490591.8683837 0 0 124520488.9391392 0 0 125368655.9779863 0 0 126055307.7199293 0 0 126579978.8094805 0 0 126948051.0544599 0 0 128197041.7832358 0 0 126393844.1611023 0 0 126542970.6481708 0 0 126586626.2898373 0 0 126557503.318653 0 0 126461496.3050175 0 0 126304467.9960373 0 0 126969004.4464373 0 0 125376670.5246062 0 0 125145699.4451078 0 0 124954050.0071838 0 0 124660969.3186788 0 0 123687230.2228527 0 0 123289479.0409254 0 0 123371152.5132194 0 0 123034788.5390198 0 0 122682070.6550583 0 0 122314546.9530718 0 0 121420572.1776349 0 0 121194477.13285 0 0 121057030.8233037 0 0 120685982.3470384 0 0 120309043.5602566 0 0 119928117.5193708 0 0 119545115.1959317 0 0 118682576.0496504 0 0 118422393.0879321 0 0 118333956.0652983 0 0 118059229.3502496 0 0 117697439.5172865 0 0 117337446.2138833 0 0 116980333.4190201 0 0 116356444.1038288 0 0 116320397.7956433 0 0 116021152.2075916 0 0 115692036.728038 0 0 115364010.6843255 0 0 115041760.3007614 0 0 114725355.8637268 0 0 113935824.5968576 0 0 114412047.917366 0 0 113916115.9724249 0 0 113629593.0810587 0 0 113343797.5553464 0 0 113063862.4331338 0 0 112787823.5089037 0 0 112518630.2270885 0 0 112145280.3543186 0 0 112124788.1571226 0 0 111874231.349349 0 0 111629979.0104153 0 0 111380893.5292074 0 0 111061740.4077372 0 0 111072116.6502159 0 0 110708007.5645818 0 0 125665749.2941097 0 0 37568738.94580593 0 0 31745793.59685447 0 0 34392962.55301895 0 0 36084722.78483615 0 0 45677415.56433659 0 0 35445524.42256892 0 0 61072008.47922602 0 0 56609337.02430541 0 0 69604924.09186977 0 0 77969616.81992894 0 0 85580880.89699753 0 0 92446985.11875565 0 0 98634903.67684966 0 0 104069887.334936 0 0 108826158.2568343 0 0 112940076.0685073 0 0 113778880.1618513 0 0 116876332.7522682 0 0 119599107.2825814 0 0 121912807.2376982 0 0 123852140.1481543 0 0 124873811.476324 0 0 122706914.976722 0 0 126081992.8311712 0 0 127050161.7495178 0 0 127804623.2020083 0 0 128380571.1079202 0 0 128800117.1505725 0 0 129067786.9478288 0 0 127192739.6857282 0 0 128342094.7934943 0 0 128382960.0381599 0 0 128327271.2746179 0 0 128188605.7967595 0 0 127990285.7837098 0 0 127735409.9552667 0 0 126093829.0072489 0 0 126693745.8344016 0 0 126376666.0205601 0 0 124207297.7136239 0 0 123931374.9135403 0 0 123013105.4755601 0 0 124340060.9270869 0 0 122712498.1419582 0 0 122392794.2945202 0 0 122056406.7289903 0 0 121705154.4681299 0 0 120856736.2235866 0 0 121933970.5887847 0 0 120509267.7613313 0 0 120154285.6597608 0 0 119793707.1192279 0 0 119428134.7075428 0 0 119060642.4964947 0 0 119161031.5148553 0 0 117984323.7033949 0 0 118776963.434318 0 0 117634725.6414049 0 0 117286081.3760234 0 0 116939112.4491655 0 0 116594674.4892917 0 0 115994482.4450733 0 0 116626468.999626 0 0 115672633.3489506 0 0 115352973.9272053 0 0 115034186.5011245 0 0 114721947.7572502 0 0 114409522.1034648 0 0 114103373.6157276 0 0 114100773.1095577 0 0 113639565.6319231 0 0 113357570.3404982 0 0 113080839.2435071 0 0 112807497.5220177 0 0 112540292.22235 0 0 112277364.5719178 0 0 112254442.1854121 0 0 111896650.4341566 0 0 111655356.4480216 0 0 111416133.8509323 0 0 111189194.6571139 0 0 111187219.8503183 0 0 110828329.9768056 0 0 110851091.4824437 0 0 124875056.7605928 0 0 42283922.60041491 0 0 28401875.53349232 0 0 29599886.10424094 0 0 50379522.51267702 0 0 37103080.70679592 0 0 64848661.30702531 0 0 50728719.75464818 0 0 73317701.67984912 0 0 81135263.62811516 0 0 88101336.23488295 0 0 94421072.02093793 0 0 100030415.1340701 0 0 104957146.2903904 0 0 109278415.8988662 0 0 113011966.7645308 0 0 116493630.3692415 0 0 116682856.8255843 0 0 119163570.832104 0 0 121285527.6301238 0 0 123075008.7566081 0 0 124056106.6981617 0 0 125452279.0786518 0 0 125173110.6765772 0 0 126075058.6895729 0 0 126790630.5157633 0 0 127326867.701215 0 0 127725316.3216287 0 0 127982446.8067739 0 0 129200959.0231172 0 0 127328519.7342101 0 0 127373402.9238692 0 0 127332883.8472722 0 0 127217108.4142616 0 0 127040285.9270687 0 0 126806473.4723431 0 0 127430478.7245065 0 0 125837755.665739 0 0 125539905.9659967 0 0 125342343.7645441 0 0 124991104.1629167 0 0 123994457.5909495 0 0 123627637.9967045 0 0 123627969.9373561 0 0 123246087.2558435 0 0 122851329.3416093 0 0 122444171.1882876 0 0 121544507.9594548 0 0 121343731.0394519 0 0 121148152.997605 0 0 120747043.9041772 0 0 120342944.9324618 0 0 119936857.4343087 0 0 119530807.4542295 0 0 118691808.5539435 0 0 118394027.7183385 0 0 118322750.6349837 0 0 118013290.9205224 0 0 117635323.7531202 0 0 117260787.4367317 0 0 116890330.2711033 0 0 116276536.9272715 0 0 116253190.0261998 0 0 115928402.7995512 0 0 115592060.9137393 0 0 115252892.1918972 0 0 114921964.4845629 0 0 114599321.3100039 0 0 113815658.2806305 0 0 114280031.0755291 0 0 113801269.2462599 0 0 113505977.0471486 0 0 113214830.4374686 0 0 112928962.0135855 0 0 112650316.0290596 0 0 112377263.7988659 0 0 112020324.4344603 0 0 111993537.3063435 0 0 111736593.5876072 0 0 111444976.534327 0 0 111210533.6452515 0 0 110977924.4728448 0 0 110991717.3937301 0 0 110744001.9682471 0 0 126022998.9861128 0 0 28883029.12908152 0 0 31059188.66807717 0 0 37551829.04135567 0 0 24437457.62065764 0 0 61563037.24125039 0 0 56098980.2551743 0 0 71745521.5658156 0 0 80618660.5644678 0 0 88553300.21572031 0 0 95580451.67629412 0 0 101799662.3736542 0 0 107236558.1608215 0 0 111873505.3925813 0 0 115852472.6357814 0 0 116246997.6046279 0 0 119509917.1825762 0 0 122060250.621452 0 0 124188581.2105743 0 0 125942903.8455462 0 0 126756915.1514311 0 0 124542862.5318381 0 0 127795391.4503537 0 0 128604700.6806268 0 0 129211745.4764091 0 0 129642466.5746437 0 0 129911339.2723476 0 0 130048546.2842716 0 0 128121738.670811 0 0 129220399.1509847 0 0 129150016.3706788 0 0 128999962.7625185 0 0 128775434.8099755 0 0 128495651.8755344 0 0 128162838.8950571 0 0 126523199.9975886 0 0 127082490.9968336 0 0 126697627.030073 0 0 124572038.9015367 0 0 124241131.7605073 0 0 123300569.5696525 0 0 124615344.8841327 0 0 122953269.7428334 0 0 122590109.2847759 0 0 122213392.2636917 0 0 121826010.9825857 0 0 120972112.1273225 0 0 122028031.5949842 0 0 120593518.0671002 0 0 120209890.5885378 0 0 119823112.9144157 0 0 119433855.8174044 0 0 119044319.3523325 0 0 119125914.3471964 0 0 117954544.9205902 0 0 118722876.6717081 0 0 117588008.1620919 0 0 117223854.5086961 0 0 116862779.6339263 0 0 116505557.4948432 0 0 115915769.0999497 0 0 116524581.5457297 0 0 115584211.1657944 0 0 115248564.9850226 0 0 114925783.4157304 0 0 114604253.2764335 0 0 114288255.9437647 0 0 113968622.6818893 0 0 113980232.0669066 0 0 113522168.6948508 0 0 113233836.3924938 0 0 112951758.7441544 0 0 112674969.387733 0 0 112403936.2821689 0 0 112138520.6973998 0 0 112111300.2953906 0 0 111765880.5277314 0 0 111512370.6420811 0 0 111338769.8248768 0 0 111109087.9887394 0 0 110812873.7782005 0 0 125209100.2649694 0 0 17904026.15627058 0 0 39571563.43727305 0 0 25186365.7089588 0 0 66157855.96948312 0 0 52197529.41263928 0 0 75295265.20508 0 0 83475071.55867928 0 0 90762923.33737856 0 0 97229915.98997535 0 0 102847012.6154207 0 0 107745037.5813215 0 0 111969410.2838098 0 0 115594963.5492169 0 0 119215788.5733984 0 0 119003223.4796517 0 0 121348868.7376868 0 0 123313079.3556937 0 0 124940325.988227 0 0 125752069.6827219 0 0 127367063.599661 0 0 126727693.3413418 0 0 127493830.460915 0 0 128073753.1830134 0 0 128487005.97192 0 0 128755796.6873485 0 0 128896957.0105968 0 0 130062366.5703678 0 0 128152530.9976792 0 0 128096237.3540014 0 0 127965894.6368136 0 0 127766706.0746139 0 0 127508210.3685603 0 0 127200619.7536391 0 0 127781771.8530982 0 0 126199416.7558436 0 0 125840414.4328652 0 0 125639088.4682974 0 0 125233064.0494709 0 0 124219874.1347028 0 0 123885940.0592586 0 0 123806971.1205044 0 0 123382482.4341617 0 0 122949411.085779 0 0 122507059.7768885 0 0 121605810.016546 0 0 121430687.347629 0 0 121179708.8619108 0 0 120751517.3139311 0 0 120322823.0753056 0 0 119894354.9934141 0 0 119467896.9307586 0 0 118655624.0232603 0 0 118322857.4578284 0 0 118268388.2658169 0 0 117926608.4400331 0 0 117534481.2667584 0 0 117147283.7475187 0 0 116765566.6941548 0 0 116163999.8428941 0 0 116152441.0406779 0 0 115802841.2656891 0 0 115457063.9187492 0 0 115117191.1820515 0 0 114777765.9019778 0 0 114448869.0755808 0 0 113682422.9127062 0 0 114125769.7968871 0 0 113661539.2067071 0 0 113360032.6755043 0 0 113065021.1043178 0 0 112775915.6035189 0 0 112493735.4132619 0 0 112218292.4053335 0 0 111879711.9876192 0 0 111843812.6660426 0 0 111605914.5332151 0 0 111143544.0607068 0 0 110983374.9456525 0 0 110776434.2954938 0 0 126283419.1644538 0 0 20770731.20653477 0 0 25435353.03615285 0 0 42480961.43937013 0 0 10233712.53275457 0 0 64294789.95740481 0 0 56684890.97318757 0 0 74440751.6529986 0 0 83646063.35640934 0 0 91791230.28373601 0 0 98955090.62620106 0 0 105178245.8718327 0 0 110454843.4540072 0 0 114913254.7410622 0 0 118714683.8063424 0 0 118667120.0784362 0 0 122043536.0053898 0 0 124401165.0263686 0 0 126333271.5726122 0 0 127887945.210125 0 0 128490919.6292818 0 0 126263280.4758347 0 0 129360310.2996506 0 0 130008393.5194659 0 0 130464802.2437968 0 0 130750914.878248 0 0 130886307.7965075 0 0 130894991.4987431 0 0 128925265.7847399 0 0 129974681.4472384 0 0 129802529.4281339 0 0 129553742.6889745 0 0 129242536.5257872 0 0 128882020.8098743 0 0 128472840.1281364 0 0 126850621.756274 0 0 127365239.3770126 0 0 126919050.728164 0 0 124849451.9232469 0 0 124466930.1456233 0 0 123510869.3466071 0 0 124806091.2185112 0 0 123120828.8631592 0 0 122717367.9684274 0 0 122302904.7034688 0 0 121881372.8628962 0 0 121028028.8831642 0 0 122058579.2005426 0 0 120621042.6187469 0 0 120211654.1239271 0 0 119801285.2415442 0 0 119390656.2851125 0 0 118981516.0295933 0 0 119044838.2004239 0 0 117883628.9239196 0 0 118625348.8388894 0 0 117502123.0749324 0 0 117124402.796356 0 0 116751055.3907682 0 0 116382537.5970725 0 0 115804148.1384801 0 0 116389588.9081384 0 0 115467724.9474486 0 0 115126556.8284504 0 0 114788728.7558517 0 0 114466280.571808 0 0 114145911.6873474 0 0 113809708.6732151 0 0 113832984.8925756 0 0 113384059.6096663 0 0 113091582.4068204 0 0 112804211.2013566 0 0 112524647.2814841 0 0 112249966.3310425 0 0 111981914.7688407 0 0 111953630.4599578 0 0 111620692.6100158 0 0 111306085.4770766 0 0 111136020.3911192 0 0 111358589.8506673 0 0 110914591.530536 0 0 125453133.6998829 0 0 26516066.51404421 0 0 42593327.27358571 0 0 11543704.6837272 0 0 68284577.19261664 0 0 55698985.14248069 0 0 77848587.39531092 0 0 86301331.65989535 0 0 93739435.35364053 0 0 100179206.108122 0 0 105788882.0056663 0 0 110611397.2974189 0 0 114684277.9351605 0 0 118120008.3927664 0 0 121867149.9881497 0 0 121273529.199738 0 0 123449707.1856667 0 0 125240420.8157131 0 0 126698405.7221108 0 0 127324908.3481668 0 0 129125953.9148332 0 0 128154374.3741469 0 0 128780398.4702778 0 0 129220518.7980161 0 0 129515209.5907436 0 0 129658361.6958169 0 0 129684121.6958206 0 0 130794075.9879674 0 0 128855146.9721814 0 0 128704067.5768055 0 0 128484104.8820221 0 0 128204332.0159129 0 0 127867857.2486034 0 0 127490664.3263125 0 0 128023677.9693882 0 0 126463890.1117559 0 0 126047712.2296248 0 0 125844181.9169362 0 0 125386945.5391791 0 0 124364054.4806758 0 0 124064299.0601968 0 0 123908914.0149612 0 0 123445634.4381992 0 0 122976720.8171383 0 0 122502089.0516829 0 0 121606112.9627951 0 0 121455418.2622631 0 0 121153063.9767594 0 0 120700888.7419844 0 0 120250582.2314206 0 0 119802327.3391259 0 0 119358238.4093563 0 0 118575115.0945389 0 0 118210202.0198873 0 0 118172006.1549622 0 0 117800377.3010166 0 0 117396216.5789275 0 0 116998290.2739451 0 0 116606876.761983 0 0 116019399.3151642 0 0 116019805.1780851 0 0 115655178.8570237 0 0 115296939.7291519 0 0 114953919.4149287 0 0 114611263.3603761 0 0 114275561.8889726 0 0 113526595.3684962 0 0 113948557.6797431 0 0 113498328.8382362 0 0 113193433.1425447 0 0 112895845.1622507 0 0 112604642.1311233 0 0 112319992.1284193 0 0 112045229.1947729 0 0 111725868.9798268 0 0 111678813.357016 0 0 111444708.0634789 0 0 111050919.7281619 0 0 111063077.9276861 0 0 110790320.4240268 0 0 126448808.855602 0 0 10983417.37933334 0 0 30118801.40741391 0 0 46443368.17205541 0 0 67030293.84965606 0 0 60131138.40949552 0 0 77700415.83877683 0 0 87173396.99602829 0 0 95538090.69179529 0 0 102590708.9668778 0 0 108628629.9622501 0 0 113685840.7723956 0 0 117971323.5910148 0 0 121544374.6038377 0 0 121030613.8400639 0 0 124491725.4130173 0 0 126634856.4465209 0 0 128346843.7684536 0 0 129698854.88271 0 0 130070224.8220902 0 0 127862399.0966621 0 0 130770060.1496047 0 0 131252725.6312025 0 0 131564689.585002 0 0 131716721.5601575 0 0 131720886.8810453 0 0 131600544.580411 0 0 129605718.9973378 0 0 130596342.6237512 0 0 130323322.6079391 0 0 129983545.6318079 0 0 129588709.9877327 0 0 129151655.5606339 0 0 128671676.3554608 0 0 127077665.4486684 0 0 127545102.3786958 0 0 127042450.5003517 0 0 125040904.3278424 0 0 124609913.8593553 0 0 123645589.9456709 0 0 124913734.6661954 0 0 123215515.4652371 0 0 122775430.5990835 0 0 122327534.1200604 0 0 121875652.4109161 0 0 121025716.7438439 0 0 122025890.1775252 0 0 120593206.934919 0 0 120160732.5630186 0 0 119729880.9049641 0 0 119300257.4876512 0 0 118874065.8977073 0 0 118919746.6296366 0 0 117772774.7652727 0 0 118485676.6156126 0 0 117378345.5451602 0 0 116989018.7237947 0 0 116605389.8307598 0 0 116227619.9888637 0 0 115663541.8513961 0 0 116223060.2755226 0 0 115318064.5486166 0 0 114974207.5956896 0 0 114631968.5032224 0 0 114300917.7502426 0 0 113977157.2993256 0 0 113628708.3352624 0 0 113660240.9473925 0 0 113224332.6185372 0 0 112928468.9487183 0 0 112639244.6100221 0 0 112356519.7982158 0 0 112080760.4407295 0 0 111809165.7550047 0 0 111772554.2645625 0 0 111461773.6389513 0 0 111207703.582679 0 0 110929984.9889696 0 0 111233993.1620738 0 0 125607911.7651275 0 0 12003679.25582326 0 0 32453941.13213621 0 0 47186835.71996291 0 0 71245614.73327877 0 0 58598038.71388492 0 0 81047211.86724302 0 0 89595583.38277507 0 0 97005732.64601891 0 0 103411432.828832 0 0 108878582.8019651 0 0 113576687.3808311 0 0 117340772.5277822 0 0 120643219.4516489 0 0 124449298.3338855 0 0 123457396.417206 0 0 125444394.2386886 0 0 127054636.6413692 0 0 128334029.23835 0 0 128767136.7192554 0 0 130736552.3397957 0 0 129444915.9398357 0 0 129922038.4346849 0 0 130229176.3791978 0 0 130394307.3890669 0 0 130426179.5409831 0 0 130337660.7441664 0 0 131387253.6091435 0 0 129432948.5070696 0 0 129189714.163049 0 0 128885155.3771892 0 0 128527619.2627399 0 0 128120501.9384565 0 0 127678398.1598403 0 0 128159930.6226071 0 0 126632832.4757631 0 0 126163460.7302749 0 0 125958351.8257125 0 0 125454539.7896217 0 0 124428992.3007065 0 0 124163857.3772858 0 0 123935711.056815 0 0 123437004.8962304 0 0 122936856.3656359 0 0 122434351.2882477 0 0 121547644.1135657 0 0 121420399.2977283 0 0 121070305.8004679 0 0 120597007.5779916 0 0 120129649.7624805 0 0 119663793.268966 0 0 119203943.1022932 0 0 118451051.0355061 0 0 118057234.1641221 0 0 118033942.6001811 0 0 117636158.9488693 0 0 117222069.7007642 0 0 116815690.6267231 0 0 116417078.6259297 0 0 115845972.6070818 0 0 115858291.492213 0 0 115476067.0118623 0 0 115114186.4920678 0 0 114763499.7360027 0 0 114417944.2785507 0 0 114078637.6590047 0 0 113348900.0515497 0 0 113749747.7489292 0 0 113314419.2963349 0 0 113008007.8931952 0 0 112708357.2325279 0 0 112415278.8265295 0 0 112127759.5887846 0 0 111818153.7284974 0 0 111555081.0339131 0 0 111499598.8948588 0 0 111249560.2312185 0 0 110798013.1574453 0 0 110953052.8708451 0 0 126521065.9457517 0 0 21312777.5383473 0 0 36354642.86412879 0 0 52183840.48850875 0 0 70619357.94998778 0 0 64045292.02158609 0 0 81700827.7562149 0 0 91364822.83061329 0 0 99540394.26311694 0 0 106419361.0480186 0 0 112176628.6313564 0 0 116953532.7213957 0 0 121081865.1138272 0 0 124311122.4943303 0 0 123335709.3453124 0 0 126834232.7418499 0 0 128720599.697477 0 0 130213040.043628 0 0 131354518.1067457 0 0 131497117.0108816 0 0 129328001.826156 0 0 132023369.1170246 0 0 132339765.3558082 0 0 132501844.6419227 0 0 132519037.8648896 0 0 132400017.71304 0 0 132160867.1022673 0 0 130155941.3538529 0 0 131082626.6794816 0 0 130711905.7826476 0 0 130286747.1041876 0 0 129815091.5482106 0 0 129307555.3198218 0 0 128763795.9172783 0 0 127205882.1835212 0 0 127624504.7135535 0 0 127070523.8741273 0 0 125148216.5532551 0 0 124672875.1928376 0 0 123705509.0432145 0 0 124939563.1511379 0 0 123238872.3971928 0 0 122765845.0592824 0 0 122287657.7608564 0 0 121808874.9072161 0 0 120966040.0615496 0 0 121932039.7381646 0 0 120512158.5877331 0 0 120058826.233617 0 0 119609516.5078819 0 0 119162902.0307244 0 0 118720950.5746798 0 0 118749599.9400138 0 0 117623534.7581693 0 0 118303179.6759403 0 0 117218236.8351668 0 0 116819362.6568448 0 0 116427637.1241017 0 0 116043496.314222 0 0 115496324.9676701 0 0 116026301.7331384 0 0 115141418.9230923 0 0 114794830.8806204 0 0 114447730.5249052 0 0 114112140.0799411 0 0 113786698.4133045 0 0 113427507.0770584 0 0 113465644.0865456 0 0 113044176.3717518 0 0 112746709.6498981 0 0 112455826.624194 0 0 112170843.6199264 0 0 111885701.3623246 0 0 111678226.5242443 0 0 111620786.2660982 0 0 111300375.862616 0 0 111122595.5412979 0 0 110950421.3034775 0 0 125675083.3298705 0 0 22376687.44009447 0 0 45136613.91067368 0 0 46650442.94134502 0 0 75070430.83099163 0 0 61935962.47952012 0 0 84844893.05646679 0 0 93409263.51701346 0 0 100626264.2486746 0 0 106793599.0454021 0 0 112161157.9829314 0 0 116425962.0616283 0 0 120053838.4223052 0 0 123142254.1894699 0 0 126953739.3263431 0 0 125540167.3569603 0 0 127326801.4772043 0 0 128742108.160199 0 0 129836819.5359237 0 0 130071107.2611548 0 0 132189228.4110312 0 0 130596080.5493888 0 0 130928603.3816533 0 0 131094309.4457242 0 0 131124220.3771292 0 0 131045718.2312586 0 0 130857381.3235755 0 0 131836060.5198366 0 0 129887806.8447476 0 0 129554558.968245 0 0 129171311.9255943 0 0 128739363.1195624 0 0 128265639.6633504 0 0 127764118.6048458 0 0 128192651.172842 0 0 126707741.0578209 0 0 126189855.5842008 0 0 125985053.2047386 0 0 125438946.5477378 0 0 124416785.4490341 0 0 124186766.2080549 0 0 123889341.108931 0 0 123359398.3907851 0 0 122830535.061577 0 0 122304309.162221 0 0 121432993.9935983 0 0 121329301.0793932 0 0 120937787.6321181 0 0 120443826.9521557 0 0 119961931.8262026 0 0 119478180.2595576 0 0 119003422.483421 0 0 118287132.4829787 0 0 117865844.0111256 0 0 117858988.2376761 0 0 117436029.5338854 0 0 117014167.088726 0 0 116602922.6523421 0 0 116194518.2176467 0 0 115641699.8766547 0 0 115666678.1564658 0 0 115271234.9110807 0 0 114904903.4803886 0 0 114550530.8384255 0 0 114202279.0854002 0 0 113863153.0430915 0 0 113151554.2179973 0 0 113530622.4405456 0 0 113111704.2070377 0 0 112803982.3075608 0 0 112504090.5011258 0 0 112210987.0054843 0 0 111941773.9029423 0 0 111479353.6396579 0 0 111331433.904676 0 0 111313201.4607593 0 0 111017991.9059099 0 0 110788750.2439094 0 0 126502872.5277525 0 0 35116583.09920522 0 0 35598636.21523099 0 0 57085558.22297737 0 0 75268823.99977098 0 0 68552856.75429286 0 0 86698030.04018512 0 0 96037037.42369521 0 0 103865909.8658339 0 0 110408757.7509272 0 0 115748205.1592882 0 0 120414994.6892048 0 0 124079062.7094909 0 0 126963292.1185893 0 0 125549749.0624875 0 0 129028887.6545665 0 0 130671014.7185054 0 0 131931072.0180389 0 0 132844749.8267228 0 0 132759131.3622029 0 0 130654011.8217209 0 0 133115237.7105756 0 0 133268080.3807911 0 0 133273874.6701549 0 0 133159027.2050143 0 0 132916243.4256933 0 0 132568025.1636872 0 0 130575422.3927 0 0 131432924.3691024 0 0 130972056.9680736 0 0 130466180.0300209 0 0 129922446.6106497 0 0 129349852.1484377 0 0 128749323.7040733 0 0 127237948.4112188 0 0 127605948.7917134 0 0 127006009.5682735 0 0 125171842.1093138 0 0 124656900.4241645 0 0 123692356.7210816 0 0 124886224.3054816 0 0 123192614.6891852 0 0 122690180.646418 0 0 122186822.6061515 0 0 121683319.2167103 0 0 120851447.9099042 0 0 121779314.6595665 0 0 120376040.3955977 0 0 119906306.8639658 0 0 119439983.738583 0 0 118979693.0189168 0 0 118527966.6041479 0 0 118539539.1406066 0 0 117437158.1631528 0 0 118081952.3979066 0 0 117023606.2955042 0 0 116618176.4722532 0 0 116218245.3986717 0 0 115828269.9238746 0 0 115300089.7082771 0 0 115797370.415585 0 0 114938705.5691647 0 0 114586993.3344292 0 0 114239427.877389 0 0 113902181.200691 0 0 113573046.247304 0 0 113206465.3206623 0 0 113250986.0615568 0 0 112845643.1621919 0 0 112547312.6629524 0 0 112256825.4551059 0 0 111974661.8596898 0 0 111630166.591269 0 0 111658989.9010763 0 0 111527835.9918624 0 0 111131222.4243521 0 0 110934687.1929059 0 0 125657550.0393798 0 0 35453674.26904125 0 0 50459557.61079929 0 0 50492276.77299888 0 0 79602589.17429157 0 0 67856271.16328984 0 0 89293202.80038127 0 0 97516486.43176028 0 0 104470815.5462804 0 0 110493534.0201848 0 0 115292460.5288067 0 0 119372028.7696397 0 0 122769890.6867477 0 0 125526950.2495456 0 0 129331005.771367 0 0 127527277.8677253 0 0 129090045.8497047 0 0 130297996.6107508 0 0 131197145.7018186 0 0 131227266.037772 0 0 133471846.8054262 0 0 131601438.0137933 0 0 131796370.4593165 0 0 131820608.5400169 0 0 131721179.9737906 0 0 131527536.703963 0 0 131240625.4751593 0 0 132141508.8192135 0 0 130220128.6034308 0 0 129802054.5306105 0 0 129342769.5609293 0 0 128843244.1970626 0 0 128308962.387013 0 0 127750672.4465294 0 0 128125454.9856158 0 0 126691220.5141415 0 0 126129492.593998 0 0 125925602.3703792 0 0 125342387.5185207 0 0 124329683.6964016 0 0 124135000.5886923 0 0 123772066.4632469 0 0 123214975.8976987 0 0 122664154.1515065 0 0 122117124.1277503 0 0 121260475.4682135 0 0 121183738.008208 0 0 120745384.6406948 0 0 120234995.7555637 0 0 119747194.3300101 0 0 119248627.3445325 0 0 118759959.3175824 0 0 118081213.2612344 0 0 117638588.692145 0 0 117648098.3262564 0 0 117205708.8815738 0 0 116777260.7644327 0 0 116356969.4936695 0 0 115942410.7935549 0 0 115414222.7664478 0 0 115448557.5508428 0 0 115040787.8186117 0 0 114674492.1538718 0 0 114315103.9066287 0 0 113965270.4621778 0 0 113624566.9004724 0 0 112935660.9577669 0 0 113291670.038071 0 0 112890083.0897956 0 0 112581737.7207174 0 0 112281302.5176039 0 0 111981718.132519 0 0 111671067.2763199 0 0 111397164.9209804 0 0 111183532.6494248 0 0 111009824.5787732 0 0 110767133.7089251 0 0 126397207.358363 0 0 40065661.5752145 0 0 62133328.80440277 0 0 81495461.1951561 0 0 74229415.90515421 0 0 92260216.25099148 0 0 101109387.2480667 0 0 108461764.3491597 0 0 114458047.3085564 0 0 119672335.7275357 0 0 123730791.7705793 0 0 126974427.0680287 0 0 129551056.8619882 0 0 127686005.6078267 0 0 131093133.5639403 0 0 132472155.9976418 0 0 133474061.5953578 0 0 134162944.6979543 0 0 133855020.4658399 0 0 131828981.3995723 0 0 134039247.1264977 0 0 134036638.3412657 0 0 133887773.9746739 0 0 133640385.3553153 0 0 133281848.9390973 0 0 132826743.1784229 0 0 130865659.9795887 0 0 131648610.0417226 0 0 131110073.8607045 0 0 130527985.2985253 0 0 129917135.6519988 0 0 129285852.7269993 0 0 128632463.2348874 0 0 127177192.212938 0 0 127492902.31541 0 0 126852305.0516827 0 0 125114952.3921782 0 0 124564817.5038345 0 0 123608300.5947516 0 0 124756560.5854999 0 0 123079598.3776735 0 0 122551160.3931753 0 0 122025048.0376588 0 0 121500426.1754576 0 0 120688512.453871 0 0 121571794.6754966 0 0 120195429.9396954 0 0 119712808.8974062 0 0 119222859.7099899 0 0 118753211.6412528 0 0 118295371.1178185 0 0 118289515.6341945 0 0 117217596.3506019 0 0 117828597.4907995 0 0 116795157.5109316 0 0 116383139.0071797 0 0 115977508.4780641 0 0 115587742.2899149 0 0 115077483.2176582 0 0 115550790.6976231 0 0 114711749.8257172 0 0 114357217.4781554 0 0 114010332.9108641 0 0 113672573.8464886 0 0 113340739.0261817 0 0 112967162.5776341 0 0 113017159.0018666 0 0 112628687.320133 0 0 112329150.8781818 0 0 112036499.6295158 0 0 111745273.0797854 0 0 111603730.4840601 0 0 111387687.7232701 0 0 111186627.4212427 0 0 110944469.0828273 0 0 125557893.9596188 0 0 49200512.46599139 0 0 61953490.63796943 0 0 85108861.9641256 0 0 77286824.08922589 0 0 94278342.25896603 0 0 102065518.5259025 0 0 108702109.73452 0 0 114073275.4701022 0 0 118604877.2306477 0 0 122344437.948128 0 0 125394316.4723052 0 0 127789930.6665545 0 0 131545784.1003534 0 0 129398362.4580073 0 0 130721721.3734371 0 0 131710018.8444121 0 0 132412285.502364 0 0 132235320.1633022 0 0 134581443.2867606 0 0 132445177.6887743 0 0 132498846.3485728 0 0 132406642.5080356 0 0 132179382.0638201 0 0 131878592.8173934 0 0 131492254.6918134 0 0 132307929.809373 0 0 130429542.6439458 0 0 129930861.9993504 0 0 129400889.9495163 0 0 128840367.6639265 0 0 128250040.7054334 0 0 127641780.5234116 0 0 127962187.0576391 0 0 126585797.0054596 0 0 125985067.4720986 0 0 125783595.1203524 0 0 125168073.0896883 0 0 124170466.0466941 0 0 124011096.7100375 0 0 123587179.7765786 0 0 123006462.4521891 0 0 122441289.969838 0 0 121873226.1621796 0 0 121038221.528492 0 0 120984449.7885518 0 0 120506130.4450547 0 0 119984261.8739585 0 0 119487079.3429218 0 0 118980269.0338608 0 0 118487667.8798173 0 0 117842056.7751095 0 0 117374051.5612246 0 0 117398429.0020684 0 0 116938061.7247912 0 0 116508936.7437748 0 0 116087177.9153983 0 0 115673995.518196 0 0 115166311.3566761 0 0 115202975.0458732 0 0 114787351.5162299 0 0 114418454.199122 0 0 114059752.963321 0 0 113708646.6271606 0 0 113367373.323112 0 0 112701912.1186406 0 0 113035312.650729 0 0 112650742.612168 0 0 112341996.2352055 0 0 112041109.0682254 0 0 111761767.0090582 0 0 111325983.202055 0 0 111173228.3695803 0 0 110952194.2111523 0 0 110733836.0031702 0 0 126207594.7813665 0 0 57035097.95782918 0 0 69925407.79129061 0 0 88831674.68356723 0 0 81519452.69672394 0 0 98431855.94780497 0 0 106531124.2970778 0 0 113250570.4715099 0 0 118989529.2522849 0 0 123439450.4445562 0 0 126996695.8654282 0 0 129813886.66697 0 0 131979668.5099668 0 0 129702533.7170572 0 0 133004844.4679846 0 0 134105082.3791517 0 0 134844004.4867322 0 0 135298958.8453469 0 0 134775670.8419178 0 0 132861875.4436043 0 0 134782627.988654 0 0 134627873.4034406 0 0 134342633.0191981 0 0 133964741.7667294 0 0 133493679.6549055 0 0 132944597.1471724 0 0 131029185.6389178 0 0 131731870.4050708 0 0 131122411.7191568 0 0 130471871.1780173 0 0 129797644.2850791 0 0 129115649.1007026 0 0 128415412.7496357 0 0 127024688.0209333 0 0 127288868.1583841 0 0 126613090.70457 0 0 124980162.0120316 0 0 124399138.1137347 0 0 123456031.2167102 0 0 124553634.2276136 0 0 122902400.557119 0 0 122355545.2080677 0 0 121804448.730692 0 0 121262917.191636 0 0 120467649.9605188 0 0 121308721.065738 0 0 119963434.6671021 0 0 119472983.4964693 0 0 118965300.6653891 0 0 118491109.1996859 0 0 118024038.6540853 0 0 118005162.2085083 0 0 116969710.2721097 0 0 117541513.6809772 0 0 116540242.9388636 0 0 116120411.7169265 0 0 115710129.3589851 0 0 115321690.8549484 0 0 114828334.6220873 0 0 115277242.2421361 0 0 114464427.8442078 0 0 114108079.9561228 0 0 113759972.9505951 0 0 113420284.6966457 0 0 113089209.8673889 0 0 112711486.1926763 0 0 112766580.46763 0 0 112394383.0211688 0 0 112093636.2061982 0 0 111799708.8848076 0 0 111481595.4840341 0 0 111355427.6891071 0 0 111467432.373951 0 0 111124918.9128206 0 0 110888869.6658695 0 0 125378891.9772371 0 0 63394338.61620243 0 0 74655047.07799433 0 0 91454459.10831673 0 0 86469913.63153867 0 0 99808384.77357526 0 0 106935318.386618 0 0 112932975.6437459 0 0 117870750.4649065 0 0 121944991.8995263 0 0 125261559.3742032 0 0 127906721.9554096 0 0 129986307.5137957 0 0 133603981.156925 0 0 131131934.4236594 0 0 132222020.8239629 0 0 132994678.5015488 0 0 133486079.0639746 0 0 133095531.8256094 0 0 135514986.8346218 0 0 133145196.330691 0 0 133059061.3192275 0 0 132849258.2867427 0 0 132515998.9664222 0 0 132097243.6544599 0 0 131615298.4483856 0 0 132335731.9567416 0 0 130516771.9087807 0 0 129946079.325386 0 0 129351927.55898 0 0 128736563.371389 0 0 128094088.6373048 0 0 127442117.9315329 0 0 127706082.3920245 0 0 126394936.6695203 0 0 125760099.7397058 0 0 125562322.1455185 0 0 124919221.4348615 0 0 123942245.4297852 0 0 123817934.7218473 0 0 123338385.5585411 0 0 122738689.1034728 0 0 122154663.0070129 0 0 121573767.1249515 0 0 120758803.4605452 0 0 120731952.8032369 0 0 120220494.395081 0 0 119694872.6817185 0 0 119172260.5738296 0 0 118668352.0552599 0 0 118170622.6782464 0 0 117567344.4845807 0 0 117094044.2239256 0 0 117120978.1876254 0 0 116646126.2784973 0 0 116211256.9124817 0 0 115790408.8804399 0 0 115377965.1933122 0 0 114889504.9730859 0 0 114938298.3850306 0 0 114510222.0540736 0 0 114141876.8622628 0 0 113782611.2913091 0 0 113432764.6535306 0 0 113092609.9734965 0 0 112452201.0448785 0 0 112761954.8288114 0 0 112396173.7925255 0 0 112089241.178697 0 0 111792330.501691 0 0 111520870.7378439 0 0 111120008.5288021 0 0 111234387.1525489 0 0 110901881.5993476 0 0 110691614.2141511 0 0 125937636.8463857 0 0 70057646.67250049 0 0 80325111.25089629 0 0 96519619.51662256 0 0 89894494.85581069 0 0 105132703.2600844 0 0 112366509.66538 0 0 118401841.025203 0 0 123353306.1202678 0 0 127164618.8363541 0 0 130177136.0550746 0 0 132502835.4254421 0 0 134247153.9580875 0 0 131592248.8300447 0 0 134758478.381685 0 0 135547048.599459 0 0 136046763.623701 0 0 136270715.2662134 0 0 135517517.4259402 0 0 133746277.074577 0 0 135357384.7982619 0 0 135057358.6447034 0 0 134656844.8490239 0 0 134148388.2569132 0 0 133565361.6804928 0 0 132924772.9319182 0 0 131073810.3437641 0 0 131685444.2978637 0 0 131006422.788577 0 0 130296338.2329533 0 0 129574040.135733 0 0 128845302.0598199 0 0 128105520.6215919 0 0 126785864.3005537 0 0 126998285.3883916 0 0 126292986.3769255 0 0 124770649.1420337 0 0 124163067.2216909 0 0 123239475.3264147 0 0 124280866.2594436 0 0 122665350.5788768 0 0 122101770.9946963 0 0 121531555.6961574 0 0 120972236.6836931 0 0 120206969.3115468 0 0 120999376.4602202 0 0 119689772.3031609 0 0 119183612.5304935 0 0 118687493.7766759 0 0 118198053.5339011 0 0 117722883.3208451 0 0 117689408.4909852 0 0 116679921.1618217 0 0 117224309.8978695 0 0 116252674.2945543 0 0 115832866.5933127 0 0 115426165.6408674 0 0 115033743.7486079 0 0 114561591.8346505 0 0 114979143.3050251 0 0 114195188.9654024 0 0 113839005.5422804 0 0 113490394.7534137 0 0 113150941.4580425 0 0 112820901.8811422 0 0 112440413.2630106 0 0 112499944.9879956 0 0 112145982.0624485 0 0 111848151.9286636 0 0 111553649.8642891 0 0 111264533.1784196 0 0 111060871.1364245 0 0 111212709.4354587 0 0 110851141.5276468 0 0 125123769.9586662 0 0 77856196.49813204 0 0 86982076.14625271 0 0 98325115.93101618 0 0 96486265.98523307 0 0 105704375.0250614 0 0 112023132.9478198 0 0 117332874.8506461 0 0 121707892.2068154 0 0 125260589.5307479 0 0 128103836.8590283 0 0 130336112.9721589 0 0 132051535.024487 0 0 135499440.8374404 0 0 132750211.2846709 0 0 133567918.7307137 0 0 134112569.4208943 0 0 134398522.5353242 0 0 133808218.6778205 0 0 136271917.1058928 0 0 133708027.1155319 0 0 133481597.1556005 0 0 133132758.6876636 0 0 132695030.1499762 0 0 132180008.2975108 0 0 131609384.8446591 0 0 132235601.0944082 0 0 130485243.120689 0 0 129851446.1169364 0 0 129198181.4366892 0 0 128530609.5454336 0 0 127844945.842149 0 0 127154077.2676122 0 0 127361843.9352451 0 0 126122572.0041996 0 0 125457751.3815569 0 0 125265405.6501994 0 0 124599336.2259851 0 0 123647970.7161511 0 0 123558799.5207437 0 0 123023956.1753611 0 0 122412297.9547172 0 0 121811069.5927511 0 0 121223209.1930522 0 0 120439170.6687075 0 0 120429548.1086095 0 0 119894888.3072031 0 0 119365957.4696635 0 0 118825144.1507298 0 0 118317018.5287417 0 0 117818189.5639714 0 0 117260950.7426968 0 0 116770364.3153678 0 0 116818768.7246471 0 0 116322775.842883 0 0 115886805.0054454 0 0 115466333.0155382 0 0 115056235.0887177 0 0 114589793.0629633 0 0 114646540.4418085 0 0 114212268.5526039 0 0 113844550.9771486 0 0 113486679.7780238 0 0 113139152.6991808 0 0 112801519.0370324 0 0 112187782.1710311 0 0 112473698.0484342 0 0 112127915.4949203 0 0 111824445.007829 0 0 111533198.2264864 0 0 111268775.7967273 0 0 110880331.945002 0 0 110973115.8486322 0 0 110637943.8985164 0 0 125591058.3673663 0 0 83227525.49323434 0 0 90976406.94952826 0 0 105050961.2070257 0 0 98447494.73978418 0 0 112272983.4006044 0 0 118515168.8652705 0 0 123657924.345426 0 0 127640457.9934921 0 0 130788573.5678466 0 0 133216368.2593607 0 0 135029613.3301658 0 0 136325688.454568 0 0 133313158.2121881 0 0 136325381.6997717 0 0 136815565.3982754 0 0 137054343.2858088 0 0 137047995.8454356 0 0 136092702.1379879 0 0 134463179.8710704 0 0 135773463.9743542 0 0 135334471.0448345 0 0 134793336.455652 0 0 134175556.8065191 0 0 133496848.2140594 0 0 132772982.3347401 0 0 130994707.6012575 0 0 131515276.1073793 0 0 130776649.6095927 0 0 130016703.8335487 0 0 129250948.567703 0 0 128481032.6523458 0 0 127708017.5621667 0 0 126465385.2126697 0 0 126625432.0080705 0 0 125895031.2431901 0 0 124489544.9346377 0 0 123859279.9059131 0 0 122960750.3201039 0 0 123940437.0416716 0 0 122370565.2088428 0 0 121788909.8672441 0 0 121209839.8640599 0 0 120641178.1974545 0 0 119898847.4709023 0 0 120642418.5841608 0 0 119374374.643589 0 0 118850126.2245846 0 0 118353910.1188356 0 0 117861894.8441557 0 0 117388515.429008 0 0 117330769.8160554 0 0 116372624.8094223 0 0 116871231.410466 0 0 115938702.7802833 0 0 115523897.9179927 0 0 115116269.7962938 0 0 114719288.8977611 0 0 114270410.6679816 0 0 114656917.0037718 0 0 113905664.0358898 0 0 113548898.0430148 0 0 113201657.8270361 0 0 112864542.8529288 0 0 112536993.1785583 0 0 112155516.3844045 0 0 112218800.5159038 0 0 111884405.3594103 0 0 111589888.8372648 0 0 111310228.086604 0 0 111020400.8231072 0 0 110783522.0529163 0 0 111014408.710122 0 0 124797077.9638324 0 0 92577701.57828999 0 0 99590411.82643494 0 0 105484126.5557405 0 0 107093532.506891 0 0 111921344.5857328 0 0 117328188.2161587 0 0 121821999.5125815 0 0 125526332.5264203 0 0 128503967.4350966 0 0 130845456.6045612 0 0 132639276.6069905 0 0 133962430.1666167 0 0 137181842.4015663 0 0 134203936.8487754 0 0 134761430.0548014 0 0 135059146.4473285 0 0 135131295.8845053 0 0 134360246.9041786 0 0 136841380.1769947 0 0 134109292.67782 0 0 133748370.0385595 0 0 133280463.3588837 0 0 132737911.3739817 0 0 132132866.0192906 0 0 131481178.3227786 0 0 132019549.0862567 0 0 130337519.5426139 0 0 129645727.4752554 0 0 128943344.1035208 0 0 128229743.1251758 0 0 127506262.6273269 0 0 126782621.6539826 0 0 126936959.9189194 0 0 125772555.3909703 0 0 125084088.7046918 0 0 124897260.0653657 0 0 124212846.5687939 0 0 123288259.4079498 0 0 123236227.3509723 0 0 122652809.057984 0 0 122033225.80737 0 0 121422967.9007666 0 0 120824164.8990538 0 0 120081109.3401018 0 0 120090137.0181373 0 0 119526432.7360184 0 0 118983380.1204785 0 0 118444007.3012807 0 0 117932996.3101612 0 0 117432767.0380899 0 0 116937088.3192269 0 0 116416155.1312767 0 0 116477199.2734082 0 0 115972623.1247993 0 0 115540018.7676042 0 0 115119001.2309295 0 0 114711260.1740585 0 0 114270039.1975202 0 0 114333792.5860207 0 0 113894239.6679153 0 0 113528656.9182415 0 0 113173905.0723191 0 0 112829476.7985236 0 0 112495442.3071118 0 0 111910109.9448992 0 0 112171480.2418351 0 0 111846983.8315892 0 0 111549889.0739343 0 0 111266020.072577 0 0 110979958.4018047 0 0 110562385.4822131 0 0 110690778.6759959 0 0 125173213.951179 0 0 96710946.92519481 0 0 101810254.1397998 0 0 113651807.2339552 0 0 107566234.0667036 0 0 119651864.2909968 0 0 124757850.5982915 0 0 128718425.4182017 0 0 131837720.0120441 0 0 134265347.0610995 0 0 136075246.962512 0 0 137354259.3289884 0 0 138189000.4255837 0 0 134885401.2318619 0 0 137681622.3162282 0 0 137891540.9491404 0 0 137857850.2884238 0 0 137623620.0094669 0 0 136490464.8170263 0 0 135017571.3538107 0 0 136014562.9911943 0 0 135436865.8427297 0 0 134776845.2756991 0 0 134057515.3912734 0 0 133292002.2880206 0 0 132494736.8745829 0 0 130791354.4153583 0 0 131236507.6767687 0 0 130446956.2806824 0 0 129635978.1575274 0 0 128828729.5585275 0 0 128028981.1104376 0 0 127225251.5710287 0 0 126063607.97823 0 0 126175147.6680424 0 0 125425623.4991911 0 0 124141052.1244222 0 0 123492685.2683042 0 0 122625529.7239474 0 0 123539491.3763517 0 0 122022291.2850777 0 0 121423077.7298734 0 0 120837387.8437354 0 0 120264928.1750052 0 0 119546673.763158 0 0 120239556.0656832 0 0 119011240.5418471 0 0 118482843.7732644 0 0 117985652.4024836 0 0 117492071.2640983 0 0 117019204.4174699 0 0 116944262.2306689 0 0 116033621.0338516 0 0 116491816.1819891 0 0 115603776.3751113 0 0 115185384.6869365 0 0 114778619.9189949 0 0 114383512.8342936 0 0 113960435.9023885 0 0 114315148.8689893 0 0 113595588.2742137 0 0 113240834.0775917 0 0 112896695.6198636 0 0 112562720.2034493 0 0 112238482.9311941 0 0 111856981.4104773 0 0 111923744.6987213 0 0 111611285.0601268 0 0 111325454.2870132 0 0 111055273.4032638 0 0 110839466.3308487 0 0 110714048.4531901 0 0 124402121.4822978 0 0 107429914.2179613 0 0 112359667.0405251 0 0 113182543.4797019 0 0 117527790.1205247 0 0 118284853.4907019 0 0 122652125.7631667 0 0 126274180.2285634 0 0 129257430.8722483 0 0 131626119.5911745 0 0 133442516.2791283 0 0 134775175.739012 0 0 135695120.5323488 0 0 138656450.2785284 0 0 135471824.3115741 0 0 135764986.69433 0 0 135823469.2124164 0 0 135689387.1841049 0 0 134748912.1175055 0 0 137228235.8660728 0 0 134354385.552362 0 0 133862247.3980156 0 0 133286565.8279931 0 0 132648291.0771748 0 0 131961634.5356563 0 0 131240989.7552037 0 0 131677189.6141321 0 0 130080274.7565213 0 0 129335443.5934 0 0 128592740.1336811 0 0 127840418.1688785 0 0 127082653.877142 0 0 126332483.6197913 0 0 126434694.3626631 0 0 125349647.3832463 0 0 124641502.3727256 0 0 124462366.9463552 0 0 123764132.1480369 0 0 122877009.4071224 0 0 122854433.2133982 0 0 122228572.7775754 0 0 121604989.075168 0 0 120987253.4715694 0 0 120384284.4413462 0 0 119678959.0437345 0 0 119708234.2746471 0 0 119118655.6531305 0 0 118568133.0432697 0 0 118033221.7462442 0 0 117522704.2930453 0 0 117026878.1753741 0 0 116570973.9967022 0 0 116042327.8500026 0 0 116112120.4375614 0 0 115597921.6567256 0 0 115167233.8045769 0 0 114749391.7165047 0 0 114345177.0969564 0 0 113931023.9317524 0 0 114001895.266039 0 0 113558107.4537796 0 0 113196393.7200617 0 0 112845564.9997556 0 0 112505417.9681109 0 0 112175960.7286629 0 0 111617631.8451217 0 0 111856820.8708391 0 0 111550297.2300641 0 0 111245821.9144395 0 0 110938687.856567 0 0 110695321.0387844 0 0 110477060.7774205 0 0 124688663.2924783 0 0 109798032.4998796 0 0 113023358.6158264 0 0 122705210.1100229 0 0 116663180.3619104 0 0 127159056.9217431 0 0 130722383.9236593 0 0 133568173.6550274 0 0 135835732.6748599 0 0 137526163.5440284 0 0 138698669.8993874 0 0 139436161.2458521 0 0 139811329.4390258 0 0 136268140.940015 0 0 138822656.533545 0 0 138734426.5416184 0 0 138447810.7469437 0 0 137998402.1290728 0 0 136705296.967979 0 0 135397402.4143403 0 0 136079820.3912049 0 0 135376575.9612761 0 0 134611543.6820301 0 0 133801301.6004238 0 0 132956596.561282 0 0 132096663.1552262 0 0 130491014.3218911 0 0 130843475.7653584 0 0 130000888.3122082 0 0 129157002.9048807 0 0 128318272.8787655 0 0 127491173.8346708 0 0 126666909.5639363 0 0 125590026.3025866 0 0 125654025.4927889 0 0 124890375.6671602 0 0 123728737.6987698 0 0 123065731.3302466 0 0 122229140.5869524 0 0 123078024.7302273 0 0 121617943.7790681 0 0 121010740.8395042 0 0 120419405.9936287 0 0 119842129.0055095 0 0 119147774.1422462 0 0 119796567.5879698 0 0 118609092.1388536 0 0 118084786.9847938 0 0 117587206.8507852 0 0 117097797.8870833 0 0 116621524.8042939 0 0 116539030.9019937 0 0 115668449.3991508 0 0 116086716.8959198 0 0 115239547.4453581 0 0 114823543.8088062 0 0 114420939.3190738 0 0 114031127.7752385 0 0 113629783.8796959 0 0 113953986.5464857 0 0 113267875.1919237 0 0 112917114.3317147 0 0 112576747.0841398 0 0 112246822.6787024 0 0 111927097.5533239 0 0 111547437.0715718 0 0 111617163.1977786 0 0 111319539.7081357 0 0 111028214.0436661 0 0 110830497.4091472 0 0 110589024.9550345 0 0 123943650.0081348 0 0 122095870.5242051 0 0 124972410.8143632 0 0 120821548.8474361 0 0 128136138.0104747 0 0 124534423.8682641 0 0 127798548.9312287 0 0 130586341.9995578 0 0 132843523.7980945 0 0 134581990.7888954 0 0 135850690.5308642 0 0 136712533.5636978 0 0 137228699.5595989 0 0 139889104.0576185 0 0 136547319.2615622 0 0 136580121.5896001 0 0 136410253.1158618 0 0 136078768.4659943 0 0 134973922.7995468 0 0 137420521.1405104 0 0 134445267.9251876 0 0 133834257.2347901 0 0 133156876.5144418 0 0 132431289.6763842 0 0 131672914.1628024 0 0 130884653.8505798 0 0 131219026.7799068 0 0 129722164.9269639 0 0 128934355.5989017 0 0 128149123.896752 0 0 127365435.3583109 0 0 126579740.1709369 0 0 125810994.8559303 0 0 125856960.0073687 0 0 124857676.9488609 0 0 124135618.452738 0 0 123965670.1746888 0 0 123258663.2094232 0 0 122405535.4556368 0 0 122417660.7647934 0 0 121759950.8413015 0 0 121127624.84681 0 0 120506673.7379462 0 0 119902774.2872158 0 0 119231426.2454167 0 0 119282072.4181208 0 0 118679241.4888573 0 0 118129910.7004971 0 0 117601687.8663855 0 0 117085585.7729415 0 0 116581250.6784064 0 0 116169103.8863834 0 0 115638652.3600881 0 0 115717121.8927563 0 0 115199465.9494912 0 0 114773853.6808244 0 0 114361044.0067723 0 0 113961595.8144994 0 0 113574343.4505981 0 0 113651177.0917055 0 0 113206037.6250529 0 0 112848989.1871704 0 0 112503104.0590398 0 0 112168299.5694352 0 0 111844417.9582848 0 0 111317485.1350777 0 0 111531144.1518454 0 0 111249557.3155549 0 0 110980488.4090989 0 0 110567543.8300577 0 0 110377450.7578267 0 0 124142921.335536 0 0 123060314.1703006 0 0 124008893.7311324 0 0 131685399.6998626 0 0 126136303.3266884 0 0 134169855.9948118 0 0 136306222.4791124 0 0 138184749.0648495 0 0 139577109.9521182 0 0 140508257.4267444 0 0 141039041.706281 0 0 141243344.4916752 0 0 141171026.3999957 0 0 137453144.9976406 0 0 139722678.0475747 0 0 139356206.0642681 0 0 138831684.2242624 0 0 138180456.9653462 0 0 136740721.7378583 0 0 135615030.4243889 0 0 135982212.6526615 0 0 135165138.1501702 0 0 134303906.820896 0 0 133411964.3144539 0 0 132498720.9743024 0 0 131583905.4812132 0 0 130082327.6426764 0 0 130346218.2042416 0 0 129463364.2016319 0 0 128590198.9691236 0 0 127728325.5231399 0 0 126883483.9734221 0 0 126043846.3032491 0 0 125052088.570649 0 0 125067338.3739424 0 0 124295576.0761672 0 0 123257686.2435557 0 0 122585403.5677162 0 0 121789023.5070818 0 0 122569900.186737 0 0 121166439.7785702 0 0 120552893.3528437 0 0 119958616.8601174 0 0 119380259.8268256 0 0 118725856.0498222 0 0 119315723.1681654 0 0 118180253.4343289 0 0 117659521.6366648 0 0 117156338.5667935 0 0 116666437.807487 0 0 116203284.2197665 0 0 116125126.1328294 0 0 115278006.6438277 0 0 115662765.8843314 0 0 114853510.3827103 0 0 114441887.6345024 0 0 114043995.1901827 0 0 113658363.1118737 0 0 113282210.2361773 0 0 113576053.2704768 0 0 112924987.5087491 0 0 112578680.1564891 0 0 112243141.8355111 0 0 111918344.3798115 0 0 111603994.4196121 0 0 111227465.3006148 0 0 111299979.4519802 0 0 111026094.5907467 0 0 110695402.2998623 0 0 110532097.6987941 0 0 110710952.5732031 0 0 123426364.6617049 0 0 136689106.9096882 0 0 137599804.5528547 0 0 128093249.5460586 0 0 139941762.8034043 0 0 130501147.0642833 0 0 132788995.8651762 0 0 134721892.6440073 0 0 136223999.6598192 0 0 137314183.318182 0 0 138030044.8314054 0 0 138423311.8875603 0 0 138539381.8398077 0 0 140873799.1047702 0 0 137430782.5309865 0 0 137206321.224156 0 0 136815833.832135 0 0 136295954.8490263 0 0 135043777.9446043 0 0 137431819.8877042 0 0 134387964.6937013 0 0 133666875.9646441 0 0 132896865.7789231 0 0 132092566.8479054 0 0 131268585.5021445 0 0 130422290.3858329 0 0 130660980.6009963 0 0 129259837.8783479 0 0 128442707.827186 0 0 127624481.5633533 0 0 126813941.6788745 0 0 126005357.4030788 0 0 125217173.9975882 0 0 125224167.548553 0 0 124304422.9663016 0 0 123570992.7668324 0 0 123411856.4327895 0 0 122700315.2394931 0 0 121891226.2760194 0 0 121927765.25293 0 0 121239874.3699498 0 0 120606059.8669505 0 0 119986409.7633785 0 0 119384320.086923 0 0 118749472.7448053 0 0 118819828.7063218 0 0 118197366.4536938 0 0 117655986.145805 0 0 117136891.5733258 0 0 116629761.8891429 0 0 116134059.2581664 0 0 115744438.5446429 0 0 115215771.2735221 0 0 115301123.0197492 0 0 114782192.8762306 0 0 114362547.2564391 0 0 113956458.220417 0 0 113563232.32734 0 0 113202200.1064609 0 0 113283526.205448 0 0 112839510.0121996 0 0 112488069.3684936 0 0 112148073.4531862 0 0 111819321.2231247 0 0 111501469.3242277 0 0 111006373.6431963 0 0 111194547.4709826 0 0 110932527.4207955 0 0 110695354.6028972 0 0 110270485.5852188 0 0 110440801.5862812 0 0 123541680.0076436 0 0 136230222.9970505 0 0 134733173.7314951 0 0 140082663.3313385 0 0 134091277.2754384 0 0 140500405.012999 0 0 141646430.0564225 0 0 142488873.4058517 0 0 142961248.4795026 0 0 143144329.9489832 0 0 143054769.9571493 0 0 142754562.1827337 0 0 142254217.8028275 0 0 138422947.2030856 0 0 140389205.9098483 0 0 139757395.9240109 0 0 139010744.9755477 0 0 138173162.665586 0 0 136607714.2659351 0 0 135669538.9432629 0 0 135727459.0183356 0 0 134808962.5706062 0 0 133861742.7400801 0 0 132899051.940751 0 0 131926798.5504561 0 0 130963758.6058104 0 0 129570504.0655521 0 0 129747764.4398763 0 0 128834595.0779776 0 0 127937273.7531807 0 0 127058381.9183836 0 0 126196566.5866863 0 0 125351772.5420932 0 0 124445426.2677948 0 0 124425791.8690332 0 0 123649579.5264012 0 0 122732482.4676689 0 0 122056430.4458628 0 0 121294243.6490818 0 0 122006026.2659302 0 0 120666904.9919969 0 0 120054361.7849328 0 0 119459329.263748 0 0 118882093.3852483 0 0 118269432.3599968 0 0 118799106.8361802 0 0 117729948.1916998 0 0 117211268.1760014 0 0 116703907.7149502 0 0 116214154.1314438 0 0 115764916.6146965 0 0 115673466.1306482 0 0 114868252.4741561 0 0 115216866.2510072 0 0 114449039.6380893 0 0 114043159.802333 0 0 113650114.8651329 0 0 113269945.8628274 0 0 112920204.3006395 0 0 113183577.7556151 0 0 112567998.2425571 0 0 112227116.0332759 0 0 111897240.6923053 0 0 111577980.5879673 0 0 111269264.8635174 0 0 110891594.6759938 0 0 110969339.8752638 0 0 110739844.1510673 0 0 110560684.0917295 0 0 110389170.0959491 0 0 122855303.2969763 0 0 151267324.3651304 0 0 149876161.1740611 0 0 134940842.7774062 0 0 146336784.5795904 0 0 136264346.9153763 0 0 137546058.7858639 0 0 138581131.8022482 0 0 139322859.7601383 0 0 139776987.3982965 0 0 139949361.3080885 0 0 139879352.1119548 0 0 139610864.3719608 0 0 141599748.2448602 0 0 138110838.1970866 0 0 137639369.5473346 0 0 137039839.7530917 0 0 136340950.6863227 0 0 134959562.4947298 0 0 137267612.9475575 0 0 134185966.7244124 0 0 133364318.9393844 0 0 132510827.8348026 0 0 131635707.3947257 0 0 130753117.39316 0 0 129857718.8729209 0 0 130002750.2798134 0 0 128713792.8347549 0 0 127863760.2381866 0 0 127020870.9299961 0 0 126189871.4727357 0 0 125370913.5296054 0 0 124570611.0501247 0 0 124529077.426644 0 0 123690044.5397164 0 0 122951466.8986868 0 0 122807031.2568489 0 0 122097855.726198 0 0 121332914.8099454 0 0 121395728.4676822 0 0 120680919.4612929 0 0 120047076.330816 0 0 119429969.7292595 0 0 118831574.4781404 0 0 118233466.3849279 0 0 118323218.7200011 0 0 117683586.0127352 0 0 117151772.1952889 0 0 116643545.2412107 0 0 116143804.2986196 0 0 115663235.0797071 0 0 115309282.1507031 0 0 114775010.7025038 0 0 114867741.9964761 0 0 114347860.0069288 0 0 113935123.0269754 0 0 113535842.6959306 0 0 113149924.1452291 0 0 112815919.2376927 0 0 112901324.7421043 0 0 112459788.289588 0 0 112115321.6635726 0 0 111782181.4308887 0 0 111460243.0026684 0 0 111149066.61054 0 0 110684883.6932046 0 0 110851671.0885273 0 0 110602417.6755212 0 0 110356377.2073937 0 0 110144804.3929601 0 0 122893856.0863901 0 0 148701928.3094787 0 0 149385652.0789392 0 0 145984456.9832136 0 0 140585102.5111471 0 0 148840221.2332387 0 0 146482685.2768501 0 0 146533170.9751421 0 0 146294276.9971085 0 0 145905774.4130767 0 0 145397013.8216137 0 0 144727315.6555702 0 0 143944394.5877917 0 0 143046464.8880245 0 0 139167113.4684463 0 0 140819784.1007389 0 0 139941939.6770661 0 0 138989203.0180033 0 0 137981193.0417502 0 0 136312376.4956819 0 0 135562831.1983342 0 0 135323617.7817395 0 0 134316070.7942405 0 0 133294275.6765027 0 0 132270544.8961083 0 0 131253583.2051453 0 0 130249136.6602844 0 0 128969319.936462 0 0 129056709.3688013 0 0 128124829.5582598 0 0 127210339.8701764 0 0 126317726.4286125 0 0 125444877.9237085 0 0 124598831.6978109 0 0 123790954.2545148 0 0 123729695.8236123 0 0 122952889.5535087 0 0 122160222.8442527 0 0 121477628.3099807 0 0 120754295.7698352 0 0 121404989.1591807 0 0 120128472.5851905 0 0 119517222.9362192 0 0 118924556.611635 0 0 118351160.1358917 0 0 117775676.1246201 0 0 118253351.7888546 0 0 117245858.9493624 0 0 116736617.214988 0 0 116235702.5531706 0 0 115759585.4021374 0 0 115298475.872116 0 0 115199457.970483 0 0 114440519.3251163 0 0 114750583.8220497 0 0 114027644.4612825 0 0 113627946.986245 0 0 113241375.5119403 0 0 112868505.4764845 0 0 112544076.7313753 0 0 112777955.4535139 0 0 112198546.4322034 0 0 111864153.7589722 0 0 111540782.3692829 0 0 111227468.4122983 0 0 110925146.1200917 0 0 110564959.1729706 0 0 110632209.3880114 0 0 110460798.7223889 0 0 110300668.6292715 0 0 122232756.3109094 0 0 165159246.3737721 0 0 162970537.2201896 0 0 141015799.6825943 0 0 153047864.9662758 0 0 150031280.1174532 0 0 141548434.7969995 0 0 141876689.6961663 0 0 142051020.3626994 0 0 142079928.8901988 0 0 141927393.0198395 0 0 141572583.3593234 0 0 141062763.4937857 0 0 140431220.0770264 0 0 142063697.8599388 0 0 138578862.0157565 0 0 137875110.3308382 0 0 137080248.6961622 0 0 136215871.3978843 0 0 134725372.681443 0 0 136934121.9647714 0 0 133844792.8540522 0 0 132932385.7769823 0 0 132004264.4765406 0 0 131067625.9859187 0 0 130131877.0593967 0 0 129196065.2173948 0 0 129258398.6390804 0 0 128079421.9920598 0 0 127200450.2933907 0 0 126341559.0365745 0 0 125496659.6858058 0 0 124671271.9736794 0 0 123867872.6175925 0 0 123777286.034879 0 0 123030785.4993946 0 0 122290992.5046198 0 0 122156552.7871177 0 0 121449401.9089149 0 0 120734088.5229277 0 0 120818201.6723332 0 0 120083834.6908535 0 0 119453421.5393502 0 0 118839055.1508193 0 0 118250853.3516096 0 0 117693094.2648585 0 0 117793984.5336728 0 0 117151835.6955703 0 0 116628791.051943 0 0 116122589.3754505 0 0 115635134.5936058 0 0 115163806.876912 0 0 114849957.509514 0 0 114316743.6735665 0 0 114415815.1809354 0 0 113897901.4403613 0 0 113493354.4523091 0 0 113102801.9640199 0 0 112725306.9637109 0 0 112418108.4531232 0 0 112506956.9956114 0 0 112069442.2214155 0 0 111732542.1978675 0 0 111407383.4573239 0 0 111093704.8449326 0 0 110792664.959141 0 0 110345291.6482134 0 0 110514507.94325 0 0 110268291.359032 0 0 110007336.3454533 0 0 122198967.1907176 0 0 162133226.985965 0 0 159905262.4113237 0 0 152786895.0302514 0 0 148365523.3779212 0 0 160482685.5075853 0 0 151984576.5573481 0 0 150725033.5794216 0 0 149523341.8656307 0 0 148387609.233698 0 0 147230825.410926 0 0 146025553.6487289 0 0 144799731.6802523 0 0 143546257.0462597 0 0 139680091.7221927 0 0 141012845.7058181 0 0 139910568.9591486 0 0 138772348.8528498 0 0 137612445.838499 0 0 135862456.4911202 0 0 135299822.9862179 0 0 134777962.4668784 0 0 133691753.1239272 0 0 132609241.5431409 0 0 131535482.674653 0 0 130481546.205041 0 0 129446676.8213523 0 0 128274745.0460901 0 0 128288047.2868731 0 0 127343243.673151 0 0 126417889.857553 0 0 125518219.9695448 0 0 124645668.2038297 0 0 123800306.3433111 0 0 123086373.6105157 0 0 122980730.9272972 0 0 122209295.7257686 0 0 121540891.1571623 0 0 120863079.3002759 0 0 120175935.2690429 0 0 120763069.9336838 0 0 119552479.051532 0 0 118944225.0499966 0 0 118360526.3963596 0 0 117791709.2181777 0 0 117255233.0395805 0 0 117679614.5548498 0 0 116734149.7857423 0 0 116228952.5410516 0 0 115741739.1257365 0 0 115270284.9166598 0 0 114814343.6651143 0 0 114708132.1431085 0 0 113996353.1781696 0 0 114268307.8500986 0 0 113590857.1351388 0 0 113198802.0676452 0 0 112819923.3447266 0 0 112454770.0339872 0 0 112156852.731759 0 0 112361556.3324159 0 0 111818422.9055769 0 0 111491662.2135448 0 0 111175861.6273338 0 0 110870975.0929628 0 0 110582130.0906808 0 0 110330207.2522482 0 0 110351862.5907738 0 0 110164212.3358976 0 0 121573675.177346 0 0 179186457.1295922 0 0 174942155.3025054 0 0 147043322.4448428 0 0 160512085.7403694 0 0 158011962.3707435 0 0 146345481.1415702 0 0 145716005.1713199 0 0 145108959.2025695 0 0 144473664.5435641 0 0 143704159.5885081 0 0 142873187.39871 0 0 141964883.2766211 0 0 140993153.141041 0 0 142270661.182537 0 0 138834369.2704698 0 0 137914834.0988764 0 0 136940508.865128 0 0 135925783.4105618 0 0 134347043.5528781 0 0 136440722.827606 0 0 133370850.9713167 0 0 132380349.6288674 0 0 131387098.0199881 0 0 130398819.0847574 0 0 129418562.5954538 0 0 128453936.6450468 0 0 128434398.9336383 0 0 127363727.8241623 0 0 126469721.2758332 0 0 125595461.8999929 0 0 124744207.1925807 0 0 123915740.1416625 0 0 123111332.9624997 0 0 122982480.7227871 0 0 122326885.1473539 0 0 121590893.0703795 0 0 121467609.2677031 0 0 120763927.7398423 0 0 120096673.4164551 0 0 120201622.1477621 0 0 119452795.3674789 0 0 118826326.6598562 0 0 118222532.4519579 0 0 117644297.1855422 0 0 117128422.882699 0 0 117242541.4149388 0 0 116596533.5844973 0 0 116082749.785895 0 0 115586411.7594364 0 0 115108211.9226547 0 0 114646968.0454282 0 0 114373879.8371466 0 0 113843868.0337218 0 0 113948406.4969471 0 0 113434448.6921797 0 0 113039118.9122633 0 0 112658056.530189 0 0 112290473.9291144 0 0 112009603.3896783 0 0 112101373.2444919 0 0 111669587.5410247 0 0 111341414.7982541 0 0 111025015.0262241 0 0 110720475.6460772 0 0 110441773.2607118 0 0 109999451.0053879 0 0 110178552.4946115 0 0 109849750.782868 0 0 121464442.3224724 0 0 174988207.794428 0 0 166620390.0802253 0 0 159591333.2368691 0 0 155276986.8321426 0 0 169015305.0798889 0 0 156614420.4790324 0 0 154226666.0676448 0 0 152230943.9790231 0 0 150370996.644846 0 0 148613084.0744275 0 0 146945727.6912574 0 0 145332195.1527961 0 0 143760671.4265436 0 0 139957701.5273325 0 0 140975194.813096 0 0 139670040.0025805 0 0 138368290.6020224 0 0 137075323.3011779 0 0 135266954.6857461 0 0 134885429.4887573 0 0 134101562.773067 0 0 132952018.8783404 0 0 131818519.495437 0 0 130703938.444639 0 0 129620426.6407648 0 0 128566539.6973745 0 0 127508020.7194024 0 0 127450478.8537417 0 0 126493854.3205479 0 0 125565569.6360388 0 0 124668263.4912165 0 0 123800033.3544106 0 0 122959345.1049451 0 0 122331362.3392276 0 0 122192050.6239636 0 0 121428803.1058396 0 0 120882000.5365834 0 0 120207586.3971888 0 0 119565169.6592285 0 0 120084750.9011202 0 0 118942713.7838199 0 0 118344942.4646862 0 0 117769005.7618368 0 0 117206319.8871349 0 0 116711547.8453525 0 0 117081945.3361969 0 0 116197616.1338925 0 0 115701779.892226 0 0 115222579.009256 0 0 114760184.3175244 0 0 114313858.5736613 0 0 114201797.8715307 0 0 113537649.9795269 0 0 113772579.0964774 0 0 113140659.5791456 0 0 112757743.0318592 0 0 112388350.3690911 0 0 112031726.6171777 0 0 111759382.069886 0 0 111935650.9969209 0 0 111429266.9456016 0 0 111110790.2192975 0 0 110804214.7758511 0 0 110513293.8550211 0 0 110247243.649735 0 0 110013763.3849636 0 0 110122680.8965311 0 0 120876452.1303197 0 0 192511269.7571976 0 0 171670760.089577 0 0 152659240.7876203 0 0 168871064.9616533 0 0 175729719.4022624 0 0 150609090.6988475 0 0 149072579.1007964 0 0 147699841.5418675 0 0 146423090.2017687 0 0 145136941.0097118 0 0 143854429.8067944 0 0 142581985.9846445 0 0 141299491.7463138 0 0 142218947.8533174 0 0 138876918.1519273 0 0 137762248.9014367 0 0 136625585.1560175 0 0 135477504.1281938 0 0 133831339.8136193 0 0 135796693.4638886 0 0 132772140.4397078 0 0 131712996.9367182 0 0 130664627.3333516 0 0 129637080.6226349 0 0 128624975.3233077 0 0 127634362.8204011 0 0 127538744.4926555 0 0 126581287.5284942 0 0 125673644.7415977 0 0 124794318.9686919 0 0 123939365.6195824 0 0 123111194.8116289 0 0 122310499.7711999 0 0 122148219.4250529 0 0 121576281.91856 0 0 120845831.1760229 0 0 120742510.6812086 0 0 120047784.444587 0 0 119426772.8311643 0 0 119554466.7989413 0 0 118789457.5475001 0 0 118174290.0692515 0 0 117582912.7817661 0 0 117015786.4001683 0 0 116542864.062035 0 0 116668031.4806235 0 0 116021411.9541511 0 0 115518486.853225 0 0 115033664.547451 0 0 114566753.0085902 0 0 114117100.975467 0 0 113883248.0556693 0 0 113358686.6662488 0 0 113467619.7288955 0 0 112959709.531624 0 0 112574760.5211864 0 0 112204259.4603886 0 0 111847086.9670069 0 0 111592928.6861274 0 0 111686714.0340058 0 0 111261941.2241013 0 0 110942694.2634809 0 0 110634091.4929425 0 0 110327122.8284797 0 0 110050382.4419266 0 0 109675348.1350046 0 0 109844963.2161409 0 0 120692386.1364759 0 0 185908463.0435833 0 0 186323153.9626518 0 0 164244702.6114333 0 0 160342411.2847607 0 0 165803503.0066773 0 0 160321778.0827465 0 0 157097736.0126131 0 0 154327514.3168248 0 0 151855083.9882395 0 0 149582561.2879953 0 0 147500913.3696022 0 0 145544580.3858124 0 0 143692326.2425052 0 0 140006487.7062108 0 0 140708882.3619756 0 0 139229462.3642198 0 0 137787226.2615374 0 0 136383140.1422518 0 0 134537176.5961147 0 0 134328352.0020124 0 0 133304775.2422468 0 0 132099825.4228782 0 0 130928017.659059 0 0 129785042.6797714 0 0 128682125.1498862 0 0 127616375.175602 0 0 126671759.8916113 0 0 126546932.9526537 0 0 125589444.0649557 0 0 124661460.1218638 0 0 123775743.7360072 0 0 122914015.1455095 0 0 122081922.8694441 0 0 121536885.3113049 0 0 121367580.7876155 0 0 120616156.9429484 0 0 120187202.786887 0 0 119519676.7728517 0 0 118919273.2626771 0 0 119376226.6760143 0 0 118308266.0459144 0 0 117718566.7798819 0 0 117150405.560378 0 0 116600155.1047577 0 0 116145370.7637146 0 0 116464972.3578602 0 0 115642021.9119813 0 0 115156081.8847344 0 0 114687507.7595947 0 0 114235928.8376607 0 0 113800354.1611364 0 0 113683543.2725893 0 0 113066518.2263323 0 0 113265849.8634484 0 0 112679432.6220593 0 0 112306885.5261134 0 0 111947215.1681883 0 0 111599954.7957402 0 0 111353657.0743503 0 0 111502387.9776533 0 0 111032142.2328061 0 0 110721542.6223527 0 0 110419233.4028921 0 0 110137361.7764191 0 0 110002319.2559632 0 0 109836967.179134 0 0 120140541.6084447 0 0 205261502.2133347 0 0 179013981.537051 0 0 157042656.613117 0 0 174371216.1061753 0 0 181848435.052041 0 0 154189695.5390432 0 0 151861304.7754287 0 0 149806264.4968835 0 0 147940992.1217778 0 0 146187813.6308646 0 0 144513350.5720475 0 0 142903639.3243451 0 0 141346524.3647179 0 0 141921513.9104813 0 0 138710942.2629825 0 0 137423340.922206 0 0 136143934.639322 0 0 134879443.6628112 0 0 133187106.8694046 0 0 135014484.6072976 0 0 132056277.8129346 0 0 130943911.1656017 0 0 129851482.3432347 0 0 128790088.0708819 0 0 127755830.0778952 0 0 126744918.8542524 0 0 126583147.1458319 0 0 125732439.9508596 0 0 124822279.6446262 0 0 123946075.138794 0 0 123091093.5906975 0 0 122266438.7630914 0 0 121472584.1512158 0 0 121281083.4646473 0 0 120789963.6805405 0 0 120069862.4500882 0 0 119983387.0558339 0 0 119299654.096108 0 0 118728011.4682936 0 0 118871360.738119 0 0 118101523.3402276 0 0 117501231.4630869 0 0 116924389.8783199 0 0 116367929.7134148 0 0 115938722.9528084 0 0 116073697.6986255 0 0 115429672.7067656 0 0 114939600.9293754 0 0 114467662.1507751 0 0 114013550.9697986 0 0 113576472.6464241 0 0 113380512.5073506 0 0 112863563.8356294 0 0 112975782.6736168 0 0 112475846.2749117 0 0 112102648.7727351 0 0 111743336.0206825 0 0 111397128.5075583 0 0 111169587.2891997 0 0 111264845.715573 0 0 110848435.863968 0 0 110539211.3529375 0 0 110243056.0496226 0 0 109971869.7009597 0 0 109649939.8985624 0 0 109500203.3706279 0 0 119893385.4762405 0 0 197410908.3005843 0 0 196350639.8057822 0 0 167962893.6743411 0 0 165268737.9673081 0 0 171573007.1315921 0 0 163230287.3141084 0 0 159247809.7170008 0 0 155830977.2861481 0 0 152829193.9404553 0 0 150131154.2695738 0 0 147688669.1969479 0 0 145445668.8037315 0 0 143352770.5604907 0 0 139826600.8511995 0 0 140226676.9376455 0 0 138600901.1108754 0 0 137040886.8759071 0 0 135542467.5211039 0 0 133682344.5689243 0 0 133636505.6941519 0 0 132394965.5228024 0 0 131153305.5210589 0 0 129951227.5587749 0 0 128790603.1438005 0 0 127676022.2991948 0 0 126607412.0876362 0 0 125773975.5164904 0 0 125592335.2407372 0 0 124636848.269478 0 0 123720780.747904 0 0 122841943.8516205 0 0 121992032.7781184 0 0 121174702.9352921 0 0 120709612.5338414 0 0 120513914.4295469 0 0 119778037.6267509 0 0 119459385.1615972 0 0 118800919.989482 0 0 118248498.9677837 0 0 118642513.3264156 0 0 117648629.8786145 0 0 117070803.1684878 0 0 116513561.0763828 0 0 115976813.8120304 0 0 115562314.9259733 0 0 115832440.8850281 0 0 115070253.7873469 0 0 114596062.0527399 0 0 114139498.4545715 0 0 113699808.5327824 0 0 113276237.0215446 0 0 113155669.8522194 0 0 112585488.6715314 0 0 112750525.6033738 0 0 112209656.2175698 0 0 111847637.0488839 0 0 111498627.9393036 0 0 111161805.387012 0 0 110941483.1817737 0 0 111063099.8078245 0 0 110629413.3064831 0 0 110328594.5068821 0 0 110045369.3398947 0 0 109783635.3445814 0 0 109655111.1070122 0 0 109792616.5411282 0 0 119375860.9370077 0 0 217681563.7456637 0 0 193948721.0386437 0 0 160717920.3160521 0 0 177258193.7242279 0 0 185611575.0160241 0 0 157107288.413045 0 0 154057866.0491725 0 0 151405359.7936491 0 0 149031616.5640972 0 0 146857090.2725767 0 0 144838915.6825635 0 0 142941050.1722136 0 0 141141958.0059767 0 0 141392890.6480739 0 0 138344307.8442222 0 0 136905269.8081948 0 0 135505045.0404066 0 0 134143320.1371696 0 0 132422222.4042367 0 0 134102470.0935567 0 0 131234727.2367414 0 0 130076883.1521442 0 0 128951066.4202642 0 0 127866613.0328977 0 0 126815832.7762968 0 0 125802050.1039448 0 0 125577675.2663694 0 0 124832352.7788599 0 0 123925371.2653296 0 0 123053455.8615684 0 0 122204313.3947755 0 0 121389584.7413411 0 0 120604335.6247413 0 0 120387364.0245991 0 0 119974881.9408633 0 0 119267770.0633955 0 0 119199684.2523674 0 0 118536398.1911509 0 0 118004923.5074609 0 0 118166038.3915439 0 0 117395254.9546274 0 0 116810112.3754021 0 0 116247665.9104701 0 0 115706824.5522381 0 0 115318957.1699379 0 0 115461364.575315 0 0 114825151.4978674 0 0 114349079.5897203 0 0 113891266.6351894 0 0 113451044.2320729 0 0 113027681.8284379 0 0 112868218.8456498 0 0 112360663.2213328 0 0 112475312.5277612 0 0 111985130.9576351 0 0 111624238.6945179 0 0 111276842.6757453 0 0 110942048.2782111 0 0 110741270.6544385 0 0 110837305.0059159 0 0 110431127.5658101 0 0 110136570.5991036 0 0 109864785.7835996 0 0 109618996.3115826 0 0 109310948.5293861 0 0 109445490.2756295 0 0 119071442.2412557 0 0 209755150.9940564 0 0 186840118.6575143 0 0 208760340.4900619 0 0 170756937.9210578 0 0 174645221.4831175 0 0 168755773.9851408 0 0 165300563.7640647 0 0 160689747.3792442 0 0 156746575.6867271 0 0 153313757.8748777 0 0 150267545.4496766 0 0 147534700.4518719 0 0 145050083.196483 0 0 142760961.6168626 0 0 139422709.9170359 0 0 139545528.5334969 0 0 137799831.682431 0 0 136144750.8822214 0 0 134572785.3834709 0 0 132720059.4455941 0 0 132822727.4503651 0 0 131390511.5640989 0 0 130118243.9504911 0 0 128901305.0789765 0 0 127733612.4669732 0 0 126617325.5649075 0 0 125548590.5361428 0 0 124825895.9017919 0 0 124590589.3591509 0 0 123647084.8468487 0 0 122743219.2037945 0 0 121878672.6900295 0 0 121041770.099956 0 0 120243037.6233514 0 0 119855908.1988794 0 0 119637441.7629452 0 0 118919726.0719969 0 0 118708588.1101789 0 0 118057318.4710324 0 0 117555537.4238339 0 0 117884502.9749569 0 0 116969050.3189881 0 0 116404191.8037192 0 0 115861294.837597 0 0 115339172.778019 0 0 114964691.2967429 0 0 115187879.8370756 0 0 114485359.2017026 0 0 114024522.6806451 0 0 113581078.836646 0 0 113154405.1453524 0 0 112743819.5769392 0 0 112620528.0647079 0 0 112096783.3810101 0 0 112228909.1275044 0 0 111732983.1543221 0 0 111382356.5652784 0 0 111044330.3195859 0 0 110718597.2938862 0 0 110524707.0614048 0 0 110619284.4084707 0 0 110224170.5248763 0 0 109940767.5929747 0 0 109675561.6551273 0 0 109552963.4957044 0 0 109436891.9417859 0 0 118588731.9549669 0 0 230152621.0333105 0 0 199247860.7509372 0 0 198538110.852459 0 0 163583794.197352 0 0 188515323.2298354 0 0 179705605.0278626 0 0 159294917.5863346 0 0 155658765.2759404 0 0 152492050.9672917 0 0 149685149.5216152 0 0 147152195.3740385 0 0 144836372.9647599 0 0 142694704.3848621 0 0 140693700.1844874 0 0 140649444.2794603 0 0 137785940.1213929 0 0 136219255.6561944 0 0 134717080.4735012 0 0 133276745.5765503 0 0 131544672.2646629 0 0 133078678.0661155 0 0 130314404.8352274 0 0 129124396.7093998 0 0 127979194.7955322 0 0 126879083.0472906 0 0 125821186.4494321 0 0 124806196.0256713 0 0 124527290.0413063 0 0 123888208.6675957 0 0 122989972.5835109 0 0 122123957.8513223 0 0 121285311.3112935 0 0 120484079.3505366 0 0 119713636.9534328 0 0 119474297.6667757 0 0 119136145.4603721 0 0 118445206.2101984 0 0 118392845.6381074 0 0 117742955.8756242 0 0 117265848.5738523 0 0 117438558.3427573 0 0 116673365.5813899 0 0 116105045.3334632 0 0 115559644.4603249 0 0 115035849.9932643 0 0 114688201.7554341 0 0 114836818.1872983 0 0 114210756.4868129 0 0 113749980.7157744 0 0 113307275.8865333 0 0 112881924.9959688 0 0 112473225.9030529 0 0 112348691.7944577 0 0 111852356.1484538 0 0 111968559.2066165 0 0 111489935.1552343 0 0 111141618.392515 0 0 110806394.6070898 0 0 110483406.6035072 0 0 110308286.5574768 0 0 110404725.3599788 0 0 110006613.8171205 0 0 109717708.9819796 0 0 109455660.2113769 0 0 109272206.6382944 0 0 109104594.7871417 0 0 118231822.3992882 0 0 216090586.5942997 0 0 188958545.0699812 0 0 217049703.0733699 0 0 172566258.3430998 0 0 178412859.1312441 0 0 171416101.8227679 0 0 166534837.0912004 0 0 161447862.7944608 0 0 157104191.2288212 0 0 153333597.0974524 0 0 150011702.5259456 0 0 147051084.5141251 0 0 144374323.0545402 0 0 141942053.0834479 0 0 138816232.7531233 0 0 138681915.8699584 0 0 136841895.8370605 0 0 135115365.5507049 0 0 133490346.7009203 0 0 131657264.1889582 0 0 131896804.1992301 0 0 130303743.8831753 0 0 129015621.1833523 0 0 127788953.5833261 0 0 126621369.7441196 0 0 125509624.8262085 0 0 124450980.8269724 0 0 123835277.7991572 0 0 123554867.0844302 0 0 122624987.9682623 0 0 121736428.1424001 0 0 120889823.3960025 0 0 120074564.9911508 0 0 119294459.1693423 0 0 118981523.4807396 0 0 118744205.0310674 0 0 118046751.0380833 0 0 117935003.8324086 0 0 117303210.1698697 0 0 116844785.7384662 0 0 117116663.0747462 0 0 116273470.5371944 0 0 115724347.4482523 0 0 115197054.9707813 0 0 114690059.742165 0 0 114355739.2084327 0 0 114533259.8696967 0 0 113890696.0970533 0 0 113444122.6331881 0 0 113014844.0391666 0 0 112602227.7859998 0 0 112205547.9972381 0 0 112080512.3136602 0 0 111602714.4427751 0 0 111703132.376256 0 0 111251020.3553362 0 0 110912401.7366437 0 0 110586053.3272967 0 0 110271570.1266084 0 0 110102196.9276615 0 0 110171814.940836 0 0 109808116.2256797 0 0 109546748.8866757 0 0 109371599.812698 0 0 109235621.3694314 0 0 117782798.0255686 0 0 238000847.3241369 0 0 202324318.2350844 0 0 202488774.3117069 0 0 165662746.6126461 0 0 190574751.7711212 0 0 181208034.2960507 0 0 160804128.6423255 0 0 156665369.5549091 0 0 153079721.4472828 0 0 149918985.0938877 0 0 147090381.8039624 0 0 144528314.9576014 0 0 142186420.8893156 0 0 140024264.8503669 0 0 139711067.7584022 0 0 137048624.8571326 0 0 135378595.8698313 0 0 133796847.904897 0 0 132296393.7290047 0 0 130574766.0124465 0 0 131958500.5904263 0 0 129310291.2836437 0 0 128099219.2639387 0 0 126941721.3517394 0 0 125835121.2239226 0 0 124778322.9423652 0 0 123770683.2741928 0 0 123446822.707401 0 0 122908415.4406075 0 0 122018761.7027358 0 0 121165133.5426869 0 0 120341859.4524733 0 0 119556305.8414082 0 0 118804242.9312166 0 0 118547021.6812521 0 0 118279196.2540839 0 0 117607215.5787756 0 0 117574574.3444299 0 0 116943575.7057906 0 0 116514890.3635163 0 0 116698998.3305243 0 0 115940118.3190982 0 0 115390274.4629568 0 0 114862936.1640637 0 0 114357252.6382136 0 0 114050519.5698535 0 0 114203520.8957946 0 0 113589243.1312734 0 0 113144916.3689195 0 0 112718251.1115509 0 0 112308671.9062889 0 0 111915412.0395555 0 0 111824246.9134151 0 0 111340500.6466998 0 0 111457725.4038122 0 0 110991716.6833038 0 0 110656473.8569627 0 0 110334187.4999662 0 0 110023921.2066723 0 0 109870294.481843 0 0 109967714.2845194 0 0 109570573.8157996 0 0 109274218.3426784 0 0 109062884.4855788 0 0 108885702.3767928 0 0 117380456.4737229 0 0 228916585.6970358 0 0 191051430.6292348 0 0 214029948.885444 0 0 173470202.3718395 0 0 181009079.2164091 0 0 173299857.8608623 0 0 167014096.7170055 0 0 161584151.5578143 0 0 156944541.0252456 0 0 152924566.0939125 0 0 149395613.0968758 0 0 146264309.7514364 0 0 143453763.0821733 0 0 140914460.7807592 0 0 138018147.1451959 0 0 137654927.2857229 0 0 135747168.225367 0 0 133969228.8147084 0 0 132309876.0719736 0 0 130512113.4702701 0 0 130872051.4647831 0 0 129144899.320212 0 0 127851012.6194114 0 0 126626186.4663385 0 0 125466318.6470694 0 0 124368285.4922764 0 0 123326583.263273 0 0 122812591.7812914 0 0 122489394.9050003 0 0 121578112.6172665 0 0 120709927.2905541 0 0 119883340.6128702 0 0 119090259.0068502 0 0 118334782.9609799 0 0 118092147.5287225 0 0 117839567.8602023 0 0 117165341.7391067 0 0 117145869.5595849 0 0 116531929.7802878 0 0 116120688.3615888 0 0 116335128.0691971 0 0 115566219.5502192 0 0 115034090.5991348 0 0 114523501.4937713 0 0 114033813.4732924 0 0 113737835.2577208 0 0 113872613.9644927 0 0 113288666.7083667 0 0 112857502.2169217 0 0 112443400.3971463 0 0 112045697.6489477 0 0 111663736.9566811 0 0 111537801.5387992 0 0 111105180.7367067 0 0 111175222.8863359 0 0 110766122.0213871 0 0 110439903.6682046 0 0 110126082.4864773 0 0 109823800.2756256 0 0 109672003.9447427 0 0 109724576.2293205 0 0 109367671.3338597 0 0 109206655.5643034 0 0 109023174.6203453 0 0 116964193.6785033 0 0 250291514.5172054 0 0 224594451.2323347 0 0 202224081.6947321 0 0 203722345.0905947 0 0 166959965.9117514 0 0 191339151.5625374 0 0 181560096.4217381 0 0 161639396.6654532 0 0 157112315.5011194 0 0 153194170.3539485 0 0 149752774.36791 0 0 146691133.8344978 0 0 143935887.8669282 0 0 141437584.8511807 0 0 139151675.0851167 0 0 138602626.8079472 0 0 136149070.3482429 0 0 134398626.3606843 0 0 132759172.3386815 0 0 131215627.7735036 0 0 129519079.5923858 0 0 130756345.9691903 0 0 128233377.3530991 0 0 127011535.6732809 0 0 125850288.6283203 0 0 124746971.1200289 0 0 123697622.8571441 0 0 122707368.7884286 0 0 122340939.6390132 0 0 121896031.1901742 0 0 121020179.1219235 0 0 120184164.1448138 0 0 119380950.5281386 0 0 118615492.0409324 0 0 117884434.6600509 0 0 117611984.3999848 0 0 117410686.2660295 0 0 116759575.3740185 0 0 116743998.3313745 0 0 116134206.7624887 0 0 115753511.466725 0 0 115945613.5615467 0 0 115199329.7770642 0 0 114669302.6025636 0 0 114161304.4587744 0 0 113674761.1296757 0 0 113407862.8083077 0 0 113564208.9867901 0 0 112963785.977219 0 0 112536609.7369997 0 0 112126872.507144 0 0 111733738.9603595 0 0 111356551.6223129 0 0 111296896.778925 0 0 110826997.8289755 0 0 110944483.3945934 0 0 110492365.6146417 0 0 110170920.608962 0 0 109862238.2583549 0 0 109565912.4875763 0 0 109437836.453094 0 0 109532283.5778158 0 0 109189481.2385101 0 0 108797231.6706597 0 0 108655168.3581657 0 0 116522468.284173 0 0 236906122.336869 0 0 217267947.5577786 0 0 191961143.0713136 0 0 217938959.418029 0 0 173505354.3195451 0 0 182259747.4554342 0 0 174184277.2817303 0 0 166805235.3198358 0 0 161152211.7986375 0 0 156316380.4995197 0 0 152127877.9046923 0 0 148460071.1133071 0 0 145214266.3845915 0 0 142315218.5002764 0 0 139706925.5210066 0 0 137050791.2614386 0 0 136485951.4902649 0 0 134534502.697167 0 0 132726906.1030074 0 0 131050352.8663458 0 0 129298705.2684029 0 0 129761519.0889761 0 0 127928203.807487 0 0 126638995.530531 0 0 125424629.2156757 0 0 124277450.2595336 0 0 123196888.6798099 0 0 122179288.8266511 0 0 121760525.0803835 0 0 121404701.0531153 0 0 120514760.9391381 0 0 119669593.3459755 0 0 118868845.0256538 0 0 118102835.2853955 0 0 117370410.5899039 0 0 117193734.2291741 0 0 116929213.4122836 0 0 116280531.7744784 0 0 116346543.5213145 0 0 115753007.3206591 0 0 115386590.9977434 0 0 115548412.5810952 0 0 114850789.4847905 0 0 114336882.9217624 0 0 113844571.5281246 0 0 113373184.0707252 0 0 113114940.3480039 0 0 113209241.8790059 0 0 112682354.9608531 0 0 112267459.6887832 0 0 111869318.251555 0 0 111487224.5058388 0 0 111120580.7420154 0 0 110994660.8482023 0 0 110605602.9009349 0 0 110647382.6696448 0 0 110279925.9703749 0 0 109966931.0343385 0 0 109666411.8409905 0 0 109377795.9231435 0 0 109251482.3711031 0 0 109280757.7716754 0 0 108893436.1189173 0 0 108804287.5359467 0 0 108908516.8728409 0 0 116138124.9499738 0 0 259146154.5287622 0 0 235030809.2667088 0 0 203115037.8299607 0 0 205058016.6706668 0 0 167484503.0091028 0 0 190749380.0538382 0 0 180925230.5090145 0 0 161844231.6135862 0 0 157032142.6318128 0 0 152866894.7477034 0 0 149215873.5815936 0 0 145980215.2761849 0 0 143084466.2558083 0 0 140472679.0740944 0 0 138101093.8967772 0 0 137344268.8024551 0 0 135105417.520178 0 0 133299099.2651618 0 0 131617896.6932156 0 0 130048141.6073589 0 0 128389648.782248 0 0 129489246.1043592 0 0 127095512.8356908 0 0 125872923.0844596 0 0 124715640.5851394 0 0 123624325.0312668 0 0 122594719.8466994 0 0 121618071.6854636 0 0 121218469.5820682 0 0 120859488.4320084 0 0 120002788.4438234 0 0 119188723.9172968 0 0 118407238.6777769 0 0 117663827.4277335 0 0 116957476.4630112 0 0 116673761.88174 0 0 116535094.661255 0 0 115906983.3285562 0 0 115909721.9393423 0 0 115323012.9869543 0 0 114988270.5037864 0 0 115187056.4591571 0 0 114454812.1391296 0 0 113945390.1099288 0 0 113457928.9916958 0 0 112991620.4916797 0 0 112763444.2862493 0 0 112921573.2373814 0 0 112336981.6505238 0 0 111927865.6559845 0 0 111535457.6354808 0 0 111159403.6440649 0 0 110798868.1983901 0 0 110768681.5717724 0 0 110313909.9231693 0 0 110430706.0771884 0 0 109993632.1478297 0 0 109686157.6309242 0 0 109391510.1628489 0 0 109109160.4010245 0 0 109004980.6481359 0 0 109098004.2595375 0 0 108772304.7803927 0 0 108412550.4749834 0 0 108523638.0910422 0 0 115662207.7504709 0 0 247179881.8770994 0 0 227898275.7407251 0 0 192764618.4669724 0 0 215059784.9184461 0 0 172791858.7621313 0 0 182522819.3137662 0 0 174234809.3223553 0 0 165985485.5507826 0 0 160218377.1426684 0 0 155275020.0421699 0 0 150992664.5772642 0 0 147245291.5360803 0 0 143935754.8192456 0 0 140988898.595732 0 0 138345140.6320602 0 0 135933931.8553667 0 0 135191507.0252054 0 0 133218119.2076216 0 0 131401190.2433819 0 0 129723553.7043563 0 0 128033790.3771599 0 0 128579176.7691703 0 0 126671026.7672483 0 0 125392556.5316638 0 0 124193194.3961019 0 0 123067406.2107653 0 0 122013740.6561689 0 0 121021568.4861747 0 0 120688993.4970195 0 0 120307182.8880795 0 0 119443316.8557888 0 0 118624723.6311987 0 0 117850998.1906521 0 0 117110398.1303233 0 0 116409113.3391013 0 0 116292696.0441671 0 0 116019266.4016885 0 0 115396841.1977852 0 0 115541742.4709911 0 0 114968899.0503106 0 0 114647299.6743276 0 0 114758620.9392629 0 0 114130985.2507313 0 0 113636694.4608531 0 0 113163587.8591982 0 0 112711258.4784525 0 0 112489312.4123061 0 0 112545935.9792579 0 0 112074432.3308107 0 0 111676345.1150171 0 0 111294863.803801 0 0 110929068.9052262 0 0 110578245.1740776 0 0 110453110.2545611 0 0 110105988.2998544 0 0 110121356.0578947 0 0 109794098.6791281 0 0 109494547.5382842 0 0 109207509.4709827 0 0 108931734.1493307 0 0 108828003.4422513 0 0 108827665.6860441 0 0 108661357.9637637 0 0 108520876.2857875 0 0 115308288.2590232 0 0 267241987.697487 0 0 245841741.6383367 0 0 221755355.0424413 0 0 201025908.9609153 0 0 204246293.0801718 0 0 167318445.0385706 0 0 189299308.8210119 0 0 179562601.9069988 0 0 161474212.8766454 0 0 156471077.8907419 0 0 152138565.9555193 0 0 148345736.2803827 0 0 144992965.79022 0 0 142003170.2654725 0 0 139317462.6655581 0 0 136890925.2758569 0 0 135958216.0379744 0 0 133936049.4434219 0 0 132096084.6348113 0 0 130394426.3144398 0 0 128814436.0419128 0 0 127201290.6686189 0 0 128169200.9502033 0 0 125907766.4282368 0 0 124691360.8997113 0 0 123549638.0479511 0 0 122478087.8806938 0 0 121466076.3695539 0 0 120511300.8020474 0 0 120088944.4721994 0 0 119809758.0556546 0 0 118976026.3398519 0 0 118186105.2252434 0 0 117430040.1402031 0 0 116712563.0279196 0 0 116030833.0830308 0 0 115739789.655265 0 0 115657926.3848918 0 0 115054338.2709492 0 0 115073419.1411445 0 0 114510752.8635748 0 0 114220908.1074708 0 0 114423727.588907 0 0 113710240.7288018 0 0 113222021.8937993 0 0 112756039.5962875 0 0 112311035.9473134 0 0 112119743.0072911 0 0 112278565.2036144 0 0 111711548.6138242 0 0 111320936.2347551 0 0 110946582.4181033 0 0 110588012.8687567 0 0 110244463.9111845 0 0 110241619.650582 0 0 109803008.4604114 0 0 109918550.9085403 0 0 109497269.1397659 0 0 109203481.2441844 0 0 108922252.3740234 0 0 108653127.3042248 0 0 108567693.0750697 0 0 108671503.4865008 0 0 108320343.7078909 0 0 108158968.4449131 0 0 114804760.7923764 0 0 259744866.0210049 0 0 231591456.6728812 0 0 228516805.1650279 0 0 192014754.0580941 0 0 212351136.5922285 0 0 171460218.9293704 0 0 181925609.4563187 0 0 173564589.2085806 0 0 164645481.7364483 0 0 158853093.896274 0 0 153879810.6759561 0 0 149566524.0952238 0 0 145792557.2143569 0 0 142463672.5158719 0 0 139504392.2149983 0 0 136857980.2532169 0 0 134681792.0709733 0 0 133794600.348429 0 0 131819489.2737955 0 0 130008965.9010188 0 0 128344128.0296802 0 0 126725705.8558414 0 0 127344544.6679492 0 0 125380905.5573044 0 0 124123852.3653643 0 0 122945955.8586414 0 0 121847878.2745695 0 0 120823584.0417032 0 0 119863909.3791779 0 0 119606939.9731661 0 0 119204966.2207376 0 0 118370095.5755664 0 0 117581606.2953995 0 0 116839512.0537667 0 0 116128254.4013738 0 0 115452828.0770936 0 0 115392588.6188645 0 0 115113870.6375822 0 0 114518983.0020289 0 0 114734683.5139026 0 0 114185155.5184846 0 0 113905718.5643822 0 0 113971612.2434607 0 0 113409994.4103984 0 0 112936279.4250279 0 0 112483688.7715997 0 0 112051223.9088206 0 0 111864102.797363 0 0 111885750.4999406 0 0 111467276.681925 0 0 111086874.262469 0 0 110722482.3283502 0 0 110373354.0526303 0 0 110038659.4341508 0 0 109915113.0838268 0 0 109608358.6584373 0 0 109599334.4171303 0 0 109310356.6674118 0 0 109023533.5006608 0 0 108747470.5407905 0 0 108486044.2572068 0 0 108432946.1330946 0 0 108389001.4405836 0 0 108285853.2510789 0 0 114480316.5705601 0 0 280087913.4922094 0 0 250575757.738972 0 0 242731958.3398318 0 0 217415396.406964 0 0 198544031.9159098 0 0 202605835.1064987 0 0 166547203.3565991 0 0 187078867.8054423 0 0 177563276.073023 0 0 160593113.9137939 0 0 155484052.3219021 0 0 151055398.498686 0 0 147182241.5126534 0 0 143763118.0370452 0 0 140721769.7508457 0 0 137999960.5525614 0 0 135547110.0691829 0 0 134476138.5174888 0 0 132662487.9949785 0 0 130809590.1920059 0 0 129103663.5031976 0 0 127527290.8388995 0 0 125970587.9978209 0 0 126807878.9758189 0 0 124685772.2180238 0 0 123485212.6180692 0 0 122364601.1899677 0 0 121314939.0146223 0 0 120329635.8841743 0 0 119397928.3024886 0 0 118959164.1914513 0 0 118752729.1197003 0 0 117945709.703314 0 0 117183356.890092 0 0 116451258.1851703 0 0 115761772.0739979 0 0 115110264.4787453 0 0 114815659.6137718 0 0 114783945.3131931 0 0 114206252.5493009 0 0 114242449.4662701 0 0 113704995.5048863 0 0 113457204.1285785 0 0 113662606.3284682 0 0 112968054.9777441 0 0 112502770.4822157 0 0 112059258.4504359 0 0 111635700.0080342 0 0 111479243.5279991 0 0 111637596.4866861 0 0 111090370.925524 0 0 110718379.4997092 0 0 110362399.2527936 0 0 110021664.6284243 0 0 109695386.8118111 0 0 109717770.1849026 0 0 109296378.1447147 0 0 109409993.8160401 0 0 109005961.3284424 0 0 108727378.5076594 0 0 108468075.2448847 0 0 108242840.7794898 0 0 108120700.8055725 0 0 108210051.0082439 0 0 107896459.0632803 0 0 113954350.0446145 0 0 262264817.5601742 0 0 258228900.5762032 0 0 229738492.4517967 0 0 224487159.1893995 0 0 190546263.1618676 0 0 208660313.9730667 0 0 169596147.8005373 0 0 180580863.4410437 0 0 172259854.6090423 0 0 162864953.1049564 0 0 157125477.7410733 0 0 152185705.342309 0 0 147897951.9451987 0 0 144143367.1612571 0 0 140833366.0117446 0 0 137895324.3152134 0 0 135271553.7504938 0 0 133325028.84977 0 0 132322098.5929717 0 0 130362511.1890256 0 0 128572883.4985614 0 0 126933167.7955631 0 0 125389008.7502097 0 0 126067427.4900913 0 0 124069628.9060852 0 0 122839803.8130402 0 0 121692541.4895983 0 0 120627356.2129447 0 0 119634148.7124032 0 0 118709370.0748335 0 0 118522038.224092 0 0 118106006.2810027 0 0 117302839.2194608 0 0 116546565.3223249 0 0 115835167.1739055 0 0 115154359.0240942 0 0 114512483.0100007 0 0 114499073.3654364 0 0 114217989.0748758 0 0 113652137.7147465 0 0 113930827.2169465 0 0 113403995.2842581 0 0 113165281.7853872 0 0 113188782.6134003 0 0 112691435.2148097 0 0 112239534.4696677 0 0 111807822.8133153 0 0 111395561.5527135 0 0 111242014.3511274 0 0 111231119.7852238 0 0 110863426.8989179 0 0 110501104.1308484 0 0 110154288.3508284 0 0 109822189.1551284 0 0 109504056.1020555 0 0 109382811.2892335 0 0 109114905.9623163 0 0 109082929.8270691 0 0 108832034.0233264 0 0 108561608.8376825 0 0 108315310.6164182 0 0 108102118.4374773 0 0 108034282.7931357 0 0 108060836.5574447 0 0 113657563.4133633 0 0 280465981.4135062 0 0 245282588.0114695 0 0 236454972.3075345 0 0 214468291.4565541 0 0 195315164.9060641 0 0 200090918.2369627 0 0 165241012.201646 0 0 184263930.873961 0 0 175046051.4235319 0 0 159264477.8618305 0 0 154125213.790249 0 0 149667887.9734083 0 0 145766941.4276507 0 0 142326909.9274836 0 0 139273442.8264107 0 0 136546783.8308257 0 0 134096983.4239556 0 0 132916747.9128674 0 0 131300578.5800259 0 0 129452153.249411 0 0 127756898.7460457 0 0 126197635.4350355 0 0 124708934.4253328 0 0 125425758.6972054 0 0 123443337.3403999 0 0 122264343.7075509 0 0 121168214.5505154 0 0 120145898.6165469 0 0 119190625.8312156 0 0 118287786.7864606 0 0 117835263.8957295 0 0 117696164.2576015 0 0 116919039.9571868 0 0 116185516.3676291 0 0 115484657.4082619 0 0 114822987.2373572 0 0 114199056.5348808 0 0 113903941.2361708 0 0 113917811.801329 0 0 113367211.0364459 0 0 113417821.2461805 0 0 112905924.5302053 0 0 112698327.3654811 0 0 112903517.9970607 0 0 112233391.8739498 0 0 111790920.8611671 0 0 111369771.1583831 0 0 110967645.3021789 0 0 110844719.3220604 0 0 111001645.4161585 0 0 110475458.9748919 0 0 110122545.9637046 0 0 109785024.9893162 0 0 109462202.6139816 0 0 109153223.3097338 0 0 109198940.8903878 0 0 108795488.2958181 0 0 108906619.1909677 0 0 108520300.8712572 0 0 108254167.887404 0 0 108010508.6718146 0 0 107804486.1329721 0 0 107614255.9158366 0 0 107707577.9600906 0 0 113115345.4223199 0 0 265081406.767644 0 0 246074625.1481356 0 0 226467582.0473419 0 0 219340215.4902495 0 0 188357227.0721018 0 0 204144667.4362705 0 0 167296368.5758263 0 0 178598935.1584963 0 0 170411555.1497929 0 0 160724461.4924017 0 0 155104567.4044169 0 0 150254234.1066201 0 0 146033689.1685629 0 0 142338085.7281631 0 0 139080983.8331167 0 0 136192798.1783773 0 0 133615435.9325942 0 0 131883265.3122067 0 0 130792136.5396432 0 0 128864081.8788672 0 0 127108774.851634 0 0 125505138.614331 0 0 124038879.5844238 0 0 124758337.8722431 0 0 122747809.4136661 0 0 121550220.7789184 0 0 120443670.4655007 0 0 119413349.5614555 0 0 118454665.9272366 0 0 117562835.7037083 0 0 117442658.4190321 0 0 117017529.8618053 0 0 116248637.1058096 0 0 115526412.1839578 0 0 114848534.2547283 0 0 114199656.2347003 0 0 113588562.0250829 0 0 113617183.0117637 0 0 113337247.7403354 0 0 112799802.9535602 0 0 113132805.0621333 0 0 112630995.1723235 0 0 112430206.5435098 0 0 112415929.0611825 0 0 111978772.4569501 0 0 111548585.677498 0 0 111138339.324142 0 0 110746723.3498336 0 0 110625244.4905559 0 0 110584326.3320944 0 0 110265453.5180645 0 0 109921445.8250534 0 0 109592367.2387157 0 0 109277419.2639239 0 0 108975993.2538593 0 0 108857362.672385 0 0 108626624.3421538 0 0 108573611.7880585 0 0 108358443.9581156 0 0 108098545.5976906 0 0 107916331.3466959 0 0 107794564.7987275 0 0 107737991.9902383 0 0 112845075.0484738 0 0 286749099.9919716 0 0 262823891.1921872 0 0 238737885.5093003 0 0 230048552.6227345 0 0 210425321.5010567 0 0 191483585.2328293 0 0 196812251.2454523 0 0 163478998.5606367 0 0 180942213.5763319 0 0 172110549.8137871 0 0 157556800.9946059 0 0 152452624.5393664 0 0 148020497.4774424 0 0 144141511.1403861 0 0 140722782.4651405 0 0 137690872.9881094 0 0 134987195.3839144 0 0 132563123.7309934 0 0 131305894.7868622 0 0 129874722.2626914 0 0 128046238.0407498 0 0 126375471.2534029 0 0 124844254.9262386 0 0 123421075.2040759 0 0 124038031.9413661 0 0 122183020.3029388 0 0 121037798.9743142 0 0 119970772.7276721 0 0 118979833.8577188 0 0 118054527.4301984 0 0 117188785.0250554 0 0 116728817.3961541 0 0 116649024.213585 0 0 115902421.7608581 0 0 115200546.8784567 0 0 114527397.2217224 0 0 113897893.3343318 0 0 113306900.6558472 0 0 113014736.705925 0 0 113064135.9203495 0 0 112541097.4848263 0 0 112606617.6377022 0 0 112120440.2937074 0 0 111948963.3771704 0 0 112154859.4278774 0 0 111508229.2762102 0 0 111089920.0861652 0 0 110690030.7663076 0 0 110310113.5940425 0 0 110218503.6336363 0 0 110373138.976003 0 0 109869253.527696 0 0 109535303.802545 0 0 109216295.643073 0 0 108911399.7006408 0 0 108619912.9767995 0 0 108687043.3620619 0 0 108301074.5199954 0 0 108409782.3187337 0 0 108039272.0985352 0 0 107780412.9597763 0 0 107532883.8106636 0 0 107422793.9515123 0 0 107325293.6771702 0 0 112290998.6575262 0 0 267324803.3784767 0 0 247194765.2915051 0 0 244215430.2796927 0 0 220947805.2794 0 0 213344060.2561289 0 0 185512787.718451 0 0 199078632.7924186 0 0 164650091.7276215 0 0 176065143.9091401 0 0 168105027.833524 0 0 158300153.8119532 0 0 152849617.7168991 0 0 148134461.6754032 0 0 144022228.6562828 0 0 140417382.8000678 0 0 137240504.2626196 0 0 134423371.3839937 0 0 131913504.7376077 0 0 130379370.4599017 0 0 129225659.8080827 0 0 127342942.8391255 0 0 125633316.7344621 0 0 124074651.3802236 0 0 122684992.9571822 0 0 123433953.5704955 0 0 121436461.0688359 0 0 120276979.6603768 0 0 119207596.7892609 0 0 118216081.5995332 0 0 117297730.1153568 0 0 116439492.1525867 0 0 116374992.0713645 0 0 115945566.1211165 0 0 115213860.534684 0 0 114524857.3725595 0 0 113880779.971811 0 0 113267383.0877549 0 0 112689299.1255204 0 0 112751605.7074305 0 0 112476652.8087211 0 0 111966603.3098942 0 0 112345710.9935478 0 0 111866925.0851591 0 0 111703565.1271502 0 0 111654035.1970402 0 0 111275476.2702962 0 0 110866640.8518122 0 0 110477846.5848237 0 0 110107323.7172758 0 0 110016412.2415028 0 0 109948040.0434417 0 0 109675482.89289 0 0 109349786.2574957 0 0 109038538.8480966 0 0 108741021.5515171 0 0 108456078.4921804 0 0 108340786.3540717 0 0 108143589.3445884 0 0 108073209.0653045 0 0 107886444.859307 0 0 107634490.2449756 0 0 107514024.4894017 0 0 107433443.0244781 0 0 112045231.1355177 0 0 291131735.2175193 0 0 265314766.7166086 0 0 232131765.0579315 0 0 223037941.7655117 0 0 205757431.0817934 0 0 187183595.3945189 0 0 192898195.1648757 0 0 161337982.7407008 0 0 177245036.6421165 0 0 168863569.2966084 0 0 155536331.0032432 0 0 150526177.2280743 0 0 146169045.3027848 0 0 142348513.5904087 0 0 138986868.0815437 0 0 136006326.4636962 0 0 133351342.3818665 0 0 130974778.231282 0 0 129665826.1748007 0 0 128404086.977123 0 0 126609939.599471 0 0 124975195.2881424 0 0 123482750.5846961 0 0 122129996.0584521 0 0 122651808.5978919 0 0 120922558.6439127 0 0 119810216.0468397 0 0 118781246.6552981 0 0 117825359.2768223 0 0 116931433.0824451 0 0 116101515.862714 0 0 115642539.1830465 0 0 115615801.0178074 0 0 114901369.8540542 0 0 114231593.9439951 0 0 113594492.0099232 0 0 112994797.6711956 0 0 112435579.3646791 0 0 112147985.2146407 0 0 112226066.6920417 0 0 111730150.883433 0 0 111808122.7912965 0 0 111348360.9659793 0 0 111212783.4929888 0 0 111415149.8871094 0 0 110796147.9777925 0 0 110399991.9492255 0 0 110023551.6554413 0 0 109665654.1139073 0 0 109602938.2146327 0 0 109754357.4107887 0 0 109273214.9377192 0 0 108958511.1754177 0 0 108657973.6211248 0 0 108370902.9422178 0 0 108096590.7542666 0 0 108183249.4309988 0 0 107816333.0887631 0 0 107922005.9136962 0 0 107574966.6606242 0 0 107362421.5114107 0 0 107104790.3344013 0 0 107034113.9878584 0 0 111483690.1255939 0 0 271482033.1003987 0 0 248787244.7157285 0 0 231296033.0136301 0 0 214983024.7413826 0 0 206903333.0170046 0 0 182136857.7878831 0 0 193638844.9829841 0 0 161746133.620414 0 0 173092754.1046044 0 0 165434329.3250333 0 0 155660008.5277462 0 0 150427181.9236268 0 0 145877798.5336952 0 0 141906491.3121324 0 0 138418798.9824475 0 0 135343942.9377229 0 0 132618109.3315219 0 0 130189579.8102337 0 0 128837331.248579 0 0 127643103.2425431 0 0 125816243.0329883 0 0 124159823.4029573 0 0 122652494.8350293 0 0 121341995.000977 0 0 122106690.112075 0 0 120136588.6014581 0 0 119023054.0989829 0 0 117991969.7417244 0 0 117042781.4779049 0 0 116163360.6187945 0 0 115346706.2084995 0 0 115325882.7399064 0 0 114896895.5744334 0 0 114201527.8531044 0 0 113548655.2205733 0 0 112937751.3747164 0 0 112359556.9257715 0 0 111816833.5411381 0 0 111907473.6583534 0 0 111637160.0309089 0 0 111152163.6553031 0 0 111571102.229334 0 0 111118720.5527315 0 0 110988555.595365 0 0 110908717.611372 0 0 110582497.982478 0 0 110196729.5008182 0 0 109829780.0158245 0 0 109479940.4834569 0 0 109417035.3665859 0 0 109324389.8756782 0 0 109095230.5382791 0 0 108787913.3712304 0 0 108494419.5067772 0 0 108214010.8079076 0 0 107945990.9960691 0 0 107834356.9295876 0 0 107671023.6364992 0 0 107583195.994687 0 0 107435772.5963401 0 0 107166773.5859013 0 0 107181000.6634238 0 0 107129716.5903343 0 0 111261889.1621933 0 0 294615961.3913292 0 0 269125456.6535459 0 0 246307837.1688823 0 0 225118052.6722175 0 0 215005160.842822 0 0 200637875.4010196 0 0 182597641.4456246 0 0 188528604.4620885 0 0 158896087.3432754 0 0 173301159.023497 0 0 165404868.2965651 0 0 153272946.0941035 0 0 148402942.2956317 0 0 144153364.5966161 0 0 140431501.8128404 0 0 137154344.5288655 0 0 134251659.4109084 0 0 131665637.6353981 0 0 129353387.9618675 0 0 128016192.1712388 0 0 126908000.7803008 0 0 125160288.3270539 0 0 123571586.1665172 0 0 122122399.1306442 0 0 120842741.9357249 0 0 121277759.5299524 0 0 119677443.141504 0 0 118600879.0538575 0 0 117611176.7786013 0 0 116690133.5989035 0 0 115836170.9353957 0 0 115041276.1932348 0 0 114586444.1612416 0 0 114601830.2592198 0 0 113922227.0988137 0 0 113285362.2533268 0 0 112682409.9658682 0 0 112118714.8800956 0 0 111590658.6696601 0 0 111309182.0632647 0 0 111407586.5278297 0 0 110940970.2109561 0 0 111029753.4677486 0 0 110596031.0774898 0 0 110492322.6528035 0 0 110691156.4802621 0 0 110099099.847994 0 0 109725790.8581429 0 0 109372010.6627931 0 0 109035875.000505 0 0 108999763.5082573 0 0 109147262.5716879 0 0 108689683.3009746 0 0 108393919.760879 0 0 108111637.0306638 0 0 107842046.5759235 0 0 107584670.7361963 0 0 107689468.1636417 0 0 107341073.6530281 0 0 107444180.2934654 0 0 107114382.4858134 0 0 106945890.3628998 0 0 106802982.1208893 0 0 106735410.7845864 0 0 110699356.223072 0 0 272967497.2759086 0 0 252728498.1422761 0 0 236471857.6934104 0 0 222212096.2042341 0 0 208662851.6756936 0 0 200204986.1607209 0 0 178381371.088441 0 0 188076658.9542677 0 0 158667306.4394656 0 0 169795816.5996476 0 0 162491533.8317202 0 0 152880226.9105633 0 0 147875043.6544583 0 0 143529787.1662988 0 0 139725959.9320067 0 0 136378410.5119036 0 0 133421484.1130894 0 0 130801355.6889016 0 0 128466594.5539117 0 0 127277138.0432279 0 0 126062577.5358386 0 0 124299694.0197705 0 0 122703541.3787933 0 0 121253588.3895329 0 0 120019105.5501151 0 0 120793896.2894975 0 0 118864504.2327667 0 0 117798166.8305512 0 0 116806565.097609 0 0 115899039.7320071 0 0 115061668.7693309 0 0 114285382.7599464 0 0 114302657.0593662 0 0 113878860.607202 0 0 113218300.879862 0 0 112600390.9824383 0 0 112021737.4986686 0 0 111478950.9223914 0 0 110968609.3696841 0 0 111089392.1857165 0 0 110827335.4862115 0 0 110365949.7892284 0 0 110814148.7809128 0 0 110385821.0007911 0 0 110287494.2652067 0 0 110180762.7020699 0 0 109904416.3575059 0 0 109540777.9361596 0 0 109195403.0372066 0 0 108866869.3124156 0 0 108829610.8699145 0 0 108715680.8187261 0 0 108526627.1223073 0 0 108237532.1785582 0 0 107961491.1719997 0 0 107698006.1451308 0 0 107446262.6086913 0 0 107338431.6023287 0 0 107207875.2323942 0 0 107102641.4467266 0 0 107006387.4467776 0 0 106896643.1522304 0 0 106810793.9555055 0 0 110498497.6002263 0 0 294676224.3383887 0 0 270357536.4668233 0 0 251390972.5080788 0 0 232652548.9673814 0 0 216386530.3419492 0 0 206629283.624857 0 0 195134418.1144921 0 0 177878199.3790573 0 0 183872903.0563324 0 0 156225301.2891218 0 0 169214081.2586756 0 0 161826931.4843814 0 0 150827016.7917176 0 0 146132910.2663352 0 0 142032969.4331466 0 0 138432912.4310353 0 0 135263110.4804524 0 0 132456425.5960917 0 0 129956584.5284857 0 0 127722650.0141467 0 0 126377126.1875448 0 0 125405763.0204924 0 0 123713047.4229081 0 0 122176447.9091131 0 0 120777126.2823986 0 0 119575790.4169871 0 0 119933170.0537059 0 0 118451635.4261545 0 0 117412222.2214408 0 0 116461635.5389772 0 0 115582865.8727467 0 0 114768289.4833965 0 0 114012141.1173011 0 0 113564085.969387 0 0 113612268.6244522 0 0 112968018.9655714 0 0 112364199.3726068 0 0 111798427.4838032 0 0 111267080.2901191 0 0 110767315.1967253 0 0 110489314.5953993 0 0 110612214.1289477 0 0 110170499.8211154 0 0 110270324.2544939 0 0 109863553.2337525 0 0 109789179.8109037 0 0 109982936.9789823 0 0 109418733.3149842 0 0 109069440.2338083 0 0 108738098.6746456 0 0 108422973.6986827 0 0 108410827.1593703 0 0 108553811.7323544 0 0 108120217.3678502 0 0 107843087.4620303 0 0 107578678.1612679 0 0 107326299.3120049 0 0 107085502.3161532 0 0 107205213.3866328 0 0 106868695.9675838 0 0 106974455.1267217 0 0 106668891.9519038 0 0 106528728.9579213 0 0 106430462.1704864 0 0 109936258.7503078 0 0 277377615.4515017 0 0 250387710.7372528 0 0 236305839.4865792 0 0 231952529.4988626 0 0 212828037.753152 0 0 201751130.4266891 0 0 193511332.7902345 0 0 174366314.2447547 0 0 182473591.6692743 0 0 155483254.4039963 0 0 166278903.9060845 0 0 159361828.5495571 0 0 150011074.5802441 0 0 145269186.4245874 0 0 141135030.909356 0 0 137517529.6142904 0 0 134324465.120593 0 0 131501077.7778502 0 0 128997200.2409592 0 0 126764094.6193756 0 0 125718337.7185905 0 0 124500053.5154252 0 0 122807758.5432539 0 0 121276829.8406436 0 0 119887456.0078288 0 0 118724674.4788075 0 0 119500268.7828372 0 0 117616793.1607418 0 0 116596459.9673967 0 0 115655053.62633 0 0 114793743.8059824 0 0 113997908.514076 0 0 113261619.1375071 0 0 113309484.9376867 0 0 112893657.8514971 0 0 112268809.2579909 0 0 111685462.8138519 0 0 111140174.528644 0 0 110629948.75114 0 0 110152462.087395 0 0 110294868.3655132 0 0 110035061.7614007 0 0 109602754.7172408 0 0 110076039.6162056 0 0 109674422.2608559 0 0 109602368.3675066 0 0 109473008.2810192 0 0 109242686.1487041 0 0 108901762.7449755 0 0 108577636.7740154 0 0 108269389.3418177 0 0 108255636.4434521 0 0 108123340.0758836 0 0 107971335.6260025 0 0 107700117.5656314 0 0 107441385.7222167 0 0 107194415.306228 0 0 106958684.6416737 0 0 106855117.091976 0 0 106756226.6705675 0 0 106638286.1559469 0 0 106616734.912808 0 0 106526118.1394951 0 0 109756984.8003821 0 0 300129436.3553552 0 0 271181475.6641713 0 0 247670902.9160165 0 0 258104862.1600111 0 0 223358800.2088589 0 0 208514803.7978381 0 0 199314185.7742883 0 0 189436949.4470531 0 0 173075295.1469908 0 0 179055533.4587601 0 0 153406254.5346008 0 0 165074074.1585197 0 0 158196555.925619 0 0 148250394.5553039 0 0 143765990.3497089 0 0 139839242.4156431 0 0 136389360.4278876 0 0 133345974.3457885 0 0 130648865.5029612 0 0 128248176.0268133 0 0 126102501.5305137 0 0 124765486.4741741 0 0 123913600.8798914 0 0 122283008.0780118 0 0 120804467.8703054 0 0 119460112.8496208 0 0 118328073.2221165 0 0 118623095.9493368 0 0 117251543.6347767 0 0 116258890.5040312 0 0 115349678.6368688 0 0 114510811.0761072 0 0 113735305.8621158 0 0 113017483.4561218 0 0 112579089.4485557 0 0 112655139.3946351 0 0 112044294.8044667 0 0 111473876.0693353 0 0 110940764.7137685 0 0 110442009.7383078 0 0 109969799.1662326 0 0 109699610.8616642 0 0 109847180.6690204 0 0 109432183.1117381 0 0 109536711.2430685 0 0 109153111.560672 0 0 109104052.8000467 0 0 109293525.6534691 0 0 108759142.6638923 0 0 108432511.6116665 0 0 108122540.6098307 0 0 107828389.3420436 0 0 107838096.4862673 0 0 107976121.6782646 0 0 107566458.8860762 0 0 107307566.313553 0 0 107060509.5325467 0 0 106824912.5975097 0 0 106601475.495911 0 0 106732969.811338 0 0 106425605.0270704 0 0 106517389.9738039 0 0 106241210.6986978 0 0 106119560.375947 0 0 109203965.6980932 0 0 277427196.7769672 0 0 270380718.3626217 0 0 234175669.141349 0 0 246943965.8148967 0 0 217999954.6174846 0 0 204520033.0163006 0 0 194849674.1468674 0 0 187059842.9794362 0 0 170194344.1724993 0 0 176912022.0474555 0 0 152257749.4009581 0 0 162624006.1065029 0 0 156121629.4033186 0 0 147117861.2899669 0 0 142645444.4487379 0 0 138744433.2831899 0 0 135315226.195693 0 0 132286858.928058 0 0 129608477.7698886 0 0 127225759.5923913 0 0 125099152.3372908 0 0 124178206.5404272 0 0 122970675.345834 0 0 121353099.2892658 0 0 119890437.1410515 0 0 118564565.9111215 0 0 117468455.4925728 0 0 118234370.574874 0 0 116407760.958541 0 0 115437557.8882203 0 0 114546460.5731795 0 0 113729059.2126451 0 0 112975454.0394927 0 0 112279187.8678765 0 0 112351262.6712609 0 0 111945467.6432983 0 0 111355983.1786666 0 0 110806682.058878 0 0 110294273.6736466 0 0 109815397.8046244 0 0 109369101.4895626 0 0 109524088.7986117 0 0 109273330.138818 0 0 108870401.1345224 0 0 109360389.9420038 0 0 108982915.8069256 0 0 108937979.2783926 0 0 108789228.2538747 0 0 108600303.9168116 0 0 108280823.1050266 0 0 107977561.6234971 0 0 107689510.9945834 0 0 107696970.6817134 0 0 107548804.119721 0 0 107431013.1808344 0 0 107177292.5274629 0 0 106935453.7865441 0 0 106705057.2311027 0 0 106485652.755511 0 0 106384813.2948389 0 0 106304826.8478592 0 0 106213180.8565719 0 0 106223004.7338459 0 0 109042349.8758183 0 0 257986275.9160563 0 0 230988333.541835 0 0 246926092.8059397 0 0 216100416.8182093 0 0 200570784.4579251 0 0 193902360.5937919 0 0 183740180.0574704 0 0 168332979.474153 0 0 174168804.3204592 0 0 150493865.8220149 0 0 160928555.8561479 0 0 154585281.7126638 0 0 145609562.920847 0 0 141348359.9957891 0 0 137619363.737897 0 0 134331991.6760311 0 0 131431176.981077 0 0 128855933.604028 0 0 126561458.3732926 0 0 124510637.0402528 0 0 123196407.6091132 0 0 122446601.8113235 0 0 120883144.7138765 0 0 119466958.0156577 0 0 118181015.8738712 0 0 117110765.6468944 0 0 117361183.4769584 0 0 116083419.1674095 0 0 115138116.3306389 0 0 114272726.0281027 0 0 113476200.3061891 0 0 112741062.6237335 0 0 112061312.930969 0 0 111634843.4705006 0 0 111732197.9520013 0 0 111155615.1647504 0 0 110618108.1091822 0 0 110116860.6017669 0 0 109648476.3248284 0 0 109206788.4170772 0 0 108949434.6105359 0 0 109104682.1721842 0 0 108715944.0286035 0 0 108828266.4149734 0 0 108468084.342286 0 0 108441872.6799809 0 0 108624749.9756776 0 0 108121000.8803956 0 0 107816026.6255269 0 0 107527360.2021597 0 0 107253503.542722 0 0 107282829.292022 0 0 107415638.0842936 0 0 107029560.7173304 0 0 106788374.5796 0 0 106558213.032782 0 0 106338839.4950789 0 0 106137486.2156628 0 0 106283383.783987 0 0 106080012.3077878 0 0 106131351.0375905 0 0 105796215.4311774 0 0 108496769.2641674 0 0 226814189.0555691 0 0 236796755.7007372 0 0 205367307.0151489 0 0 202375644.1485026 0 0 188059143.4072469 0 0 180950827.7289163 0 0 165951557.1559404 0 0 171465346.5541514 0 0 149053858.8617994 0 0 158900674.5323011 0 0 152840925.1392239 0 0 144244858.8851829 0 0 140057811.2183857 0 0 136384630.2144937 0 0 133151336.794516 0 0 130298294.05409 0 0 127762283.5214012 0 0 125502312.0977338 0 0 123487366.7305906 0 0 122672387.2260267 0 0 121487551.247293 0 0 119946283.0784223 0 0 118554110.549498 0 0 117293583.084844 0 0 116258982.0384644 0 0 117007925.5586951 0 0 115245524.9238098 0 0 114326841.405825 0 0 113484715.5447786 0 0 112711218.5292207 0 0 111999009.6549155 0 0 111341965.3513927 0 0 111431957.5229391 0 0 111037600.2883893 0 0 110482676.5388564 0 0 109966592.2611558 0 0 109485926.4972172 0 0 109037300.5703062 0 0 108618066.5048409 0 0 108783502.8234022 0 0 108544737.5987881 0 0 108170847.9582888 0 0 108667930.2841254 0 0 108315445.0317853 0 0 108293105.1784598 0 0 108127145.3426286 0 0 107977863.0970449 0 0 107679652.5837361 0 0 107396824.7330418 0 0 107128364.9212196 0 0 107155037.7453348 0 0 106993407.8129756 0 0 106906767.4956386 0 0 106670013.8622659 0 0 106444847.3899392 0 0 106231667.3183229 0 0 106033006.6146161 0 0 105918429.6221036 0 0 105818483.5897779 0 0 105790823.8493369 0 0 105864743.6372963 0 0 108352870.3021374 0 0 217373795.0775607 0 0 211543622.2340104 0 0 194570837.0509335 0 0 189381328.5012462 0 0 178351733.5159252 0 0 163551585.5473214 0 0 169215671.1503007 0 0 147558460.6162362 0 0 156938418.6330985 0 0 151065515.3665689 0 0 142952912.4098262 0 0 138936019.6760045 0 0 135407269.9085424 0 0 132295970.002224 0 0 129545228.2388109 0 0 127096982.4931547 0 0 124913692.2837312 0 0 122963851.5599705 0 0 121684435.783726 0 0 121018512.3234429 0 0 119525144.7574789 0 0 118174390.4398347 0 0 116946506.074612 0 0 115932123.1247448 0 0 116145003.619398 0 0 114955326.2211716 0 0 114061245.1014773 0 0 113240148.7620663 0 0 112485361.8850432 0 0 111789868.9460849 0 0 111147723.5234088 0 0 110734681.4447423 0 0 110847406.5706135 0 0 110304285.5440787 0 0 109798979.2678707 0 0 109327872.0675754 0 0 108887817.0651371 0 0 108478356.16294 0 0 108226622.916319 0 0 108395728.468819 0 0 108030785.0920186 0 0 108146506.9229496 0 0 107809635.5309811 0 0 107805337.085971 0 0 107981540.3959008 0 0 107505724.7871983 0 0 107222021.7851421 0 0 106953866.753465 0 0 106699879.8947156 0 0 106746136.6732646 0 0 106873427.4566113 0 0 106510675.532394 0 0 106286117.2115855 0 0 106071502.4971961 0 0 105857669.1034684 0 0 105666549.9707907 0 0 105852786.4587646 0 0 105820453.276544 0 0 105477964.3627276 0 0 107819197.0725781 0 0 202021166.9710604 0 0 197079944.710942 0 0 182249871.9658156 0 0 174397150.9545231 0 0 161636937.279734 0 0 166555927.0196019 0 0 145880982.6379003 0 0 155250817.0739315 0 0 149581078.96166 0 0 141439639.5481986 0 0 137521983.5580306 0 0 134079414.4267745 0 0 131061016.8700201 0 0 128373267.0043732 0 0 125974766.7457929 0 0 123842723.6203179 0 0 121948212.9021945 0 0 121215256.5644162 0 0 120059366.3146158 0 0 118596499.2117537 0 0 117274668.6415226 0 0 116078815.5246935 0 0 115097540.5087882 0 0 115828556.6292907 0 0 114140136.3455598 0 0 113270193.975433 0 0 112474260.7971393 0 0 111743540.696511 0 0 111071569.4127193 0 0 110452516.179472 0 0 110553810.3439967 0 0 110172641.8739083 0 0 109651459.0098153 0 0 109167452.3140397 0 0 108717466.8483087 0 0 108298327.5985042 0 0 107907483.2301934 0 0 108085036.2588902 0 0 107852425.2600371 0 0 107502583.2957943 0 0 108002999.5218128 0 0 107672388.5345362 0 0 107670949.778052 0 0 107493440.0749433 0 0 107377535.055165 0 0 107099844.5311863 0 0 106836946.7661942 0 0 106587687.7426231 0 0 106630915.4309965 0 0 106458662.9452127 0 0 106399520.7756635 0 0 106178675.9280388 0 0 105966477.5940208 0 0 105763489.4076842 0 0 105647266.6047987 0 0 105540387.5782533 0 0 105459566.8552289 0 0 105500278.1473424 0 0 107692126.4609878 0 0 190130024.862757 0 0 180694116.962159 0 0 185557142.0981011 0 0 172444219.4728324 0 0 159539539.6705038 0 0 164160303.4599272 0 0 144619807.3158721 0 0 153232626.9521754 0 0 147671075.0479846 0 0 140335829.1024968 0 0 136556874.2291489 0 0 133236780.8355396 0 0 130313092.2441396 0 0 127709410.3358917 0 0 125387962.0198336 0 0 123322875.1082969 0 0 121477840.652795 0 0 120233102.6727982 0 0 119639648.1472847 0 0 118219411.1713996 0 0 116934131.9417517 0 0 115760928.8489731 0 0 114807204.1040116 0 0 114982886.5730823 0 0 113880209.7848032 0 0 113032777.8661166 0 0 112255641.9465394 0 0 111541876.6812347 0 0 110885083.9964082 0 0 110279512.1212157 0 0 109881174.508534 0 0 110003547.6544925 0 0 109493022.6385368 0 0 109018600.0172524 0 0 108577461.2321722 0 0 108167151.0334198 0 0 107783479.8445397 0 0 107543051.2394507 0 0 107720326.3359125 0 0 107377434.9160163 0 0 107494119.0057496 0 0 107180917.387345 0 0 107194037.3189185 0 0 107362595.2137926 0 0 106914692.3198088 0 0 106651696.5614451 0 0 106403661.3231515 0 0 106168535.2955576 0 0 106229327.7107107 0 0 106350971.1056407 0 0 106011257.6296144 0 0 105803728.207114 0 0 105613017.7105697 0 0 105438906.0317541 0 0 105272911.510115 0 0 105367918.2146937 0 0 105350798.8039791 0 0 105167767.2057641 0 0 107173910.917238 0 0 174840220.5396779 0 0 179517185.9144853 0 0 170475837.8552604 0 0 157436212.9150707 0 0 162678294.3529636 0 0 142885539.91882 0 0 151690676.5319148 0 0 146403754.9423038 0 0 138715826.7323536 0 0 135042707.8003658 0 0 131894198.4671023 0 0 129049436.5638163 0 0 126513345.0860827 0 0 124268030.9718451 0 0 122289477.3317545 0 0 120467733.4054851 0 0 119814601.8556224 0 0 118696241.3597377 0 0 117311221.2747275 0 0 116063005.173519 0 0 114929581.2176268 0 0 113993863.6050732 0 0 114703409.8791118 0 0 113091782.7266765 0 0 112269874.4308093 0 0 111518125.2012749 0 0 110828812.7903107 0 0 110195594.8929509 0 0 109612976.0188647 0 0 109720206.4204044 0 0 109352997.8057625 0 0 108863969.3837296 0 0 108410808.5299946 0 0 107989912.3521877 0 0 107598281.9767186 0 0 107235436.9494842 0 0 107414448.6147458 0 0 107191667.8344277 0 0 106864104.1010959 0 0 107364366.8324996 0 0 107056873.4452163 0 0 107072970.5063795 0 0 106885364.1755536 0 0 106800403.3775318 0 0 106542839.0461889 0 0 106299245.4901098 0 0 106068373.8366268 0 0 106125927.9687894 0 0 105945346.3407889 0 0 105911258.5441823 0 0 105709219.7569399 0 0 105517913.1618792 0 0 105306850.8370229 0 0 105296740.8640474 0 0 105319565.5671889 0 0 105248481.7813419 0 0 107061449.1563415 0 0 175248981.8624049 0 0 166867519.2324105 0 0 155903052.5844947 0 0 159924376.0474225 0 0 141727678.6498103 0 0 149185227.5279034 0 0 144441455.5671229 0 0 137770985.8245477 0 0 134235673.0965644 0 0 131154046.502626 0 0 128384291.3302005 0 0 125944761.4670707 0 0 123759993.8299115 0 0 121800864.2659303 0 0 120051900.9140685 0 0 118856438.3539885 0 0 118320383.7063148 0 0 116973305.4978691 0 0 115753534.8329124 0 0 114637788.6099352 0 0 113738411.4108612 0 0 113889733.6951699 0 0 112859630.3629461 0 0 112057255.0764426 0 0 111322697.1678738 0 0 110648759.0116645 0 0 110029379.3896765 0 0 109459088.4162753 0 0 109075969.5846803 0 0 109202849.5224659 0 0 108723904.2537275 0 0 108279742.0337213 0 0 107866379.5271086 0 0 107482948.8223036 0 0 107123666.0554009 0 0 106893329.5897341 0 0 107073666.4568756 0 0 106755444.6721237 0 0 106872570.4513128 0 0 106584538.9643824 0 0 106608372.8323937 0 0 106769413.8411804 0 0 106350103.2313752 0 0 106107250.5250776 0 0 105877478.7391858 0 0 105660138.8899988 0 0 105733374.9285973 0 0 105849267.3528583 0 0 105532209.3490405 0 0 105339911.6694891 0 0 105163329.4144223 0 0 105021844.976431 0 0 104933660.2687975 0 0 104902684.6489935 0 0 104852892.0040633 0 0 106561520.4522685 0 0 170805619.071599 0 0 166929519.3503563 0 0 153724763.7988751 0 0 159406571.4897621 0 0 140137449.9814445 0 0 148629361.4783508 0 0 142999329.307482 0 0 136029892.0410524 0 0 132797098.663218 0 0 129817341.1492717 0 0 127195920.9739544 0 0 124787968.7448425 0 0 122723577.6045225 0 0 120774321.2864863 0 0 119077207.1192919 0 0 118481937.6346768 0 0 117404658.0698215 0 0 116096418.8783816 0 0 114916378.0533325 0 0 113841599.0523969 0 0 112953844.3570376 0 0 113635961.5994219 0 0 112103244.1952779 0 0 111327760.2525435 0 0 110618498.192485 0 0 109968786.3200648 0 0 109372726.3647716 0 0 108824762.222689 0 0 108933088.648167 0 0 108580231.490234 0 0 108121852.6922329 0 0 107697513.9102928 0 0 107304412.9307543 0 0 106938808.3644887 0 0 106595516.5462998 0 0 106777379.1613706 0 0 106561959.5502135 0 0 106261672.9327143 0 0 106759495.8639821 0 0 106471683.088395 0 0 106501767.1499803 0 0 106308233.4828033 0 0 106249285.7021722 0 0 106009907.2240853 0 0 105784601.6208744 0 0 105571095.7607394 0 0 105641001.4444692 0 0 105453680.315992 0 0 105442868.1922514 0 0 105255397.6925865 0 0 105091347.2104138 0 0 105015495.0757097 0 0 104971957.8027993 0 0 104938909.3311415 0 0 106462396.8956856 0 0 163021467.5867665 0 0 152801737.4463126 0 0 156205053.4938801 0 0 139081012.0273824 0 0 144602443.9461956 0 0 144090826.6056258 0 0 135325337.4686741 0 0 132005022.78897 0 0 129165455.8576932 0 0 126571085.6531415 0 0 124256633.8947231 0 0 122174495.0900032 0 0 120358341.3458292 0 0 118705041.9894941 0 0 117557581.9889406 0 0 117068230.7435856 0 0 115792672.3086324 0 0 114637270.5666783 0 0 113585494.1361411 0 0 112725137.7383814 0 0 112862098.8034677 0 0 111895420.470148 0 0 111137363.9241346 0 0 110443919.3897715 0 0 109808354.7389846 0 0 109224862.1438466 0 0 108688169.700262 0 0 108320277.4905608 0 0 108447257.7585565 0 0 107998138.1766311 0 0 107582158.4980714 0 0 107196041.4823903 0 0 106835313.120889 0 0 106498440.0270287 0 0 106275159.5019105 0 0 106460918.6651797 0 0 106168421.2985719 0 0 106281193.656961 0 0 106015851.4667786 0 0 106049704.3237579 0 0 106203067.8415189 0 0 105812955.1520978 0 0 105590374.283758 0 0 105375890.6383548 0 0 105174089.8739805 0 0 105257667.2983 0 0 105368317.987914 0 0 105071817.8144302 0 0 104892967.0784348 0 0 104740629.9728229 0 0 104634587.0448079 0 0 104577967.996525 0 0 104530078.6195187 0 0 105982267.9941187 0 0 149381921.4749704 0 0 136669953.9057191 0 0 147777410.4648999 0 0 140213098.405326 0 0 133808697.7551994 0 0 130977257.1194864 0 0 127931044.1989215 0 0 125313139.8120977 0 0 123190793.0024605 0 0 121383894.1221846 0 0 119350893.6641151 0 0 117757255.9679061 0 0 117224321.1785339 0 0 116193016.6791561 0 0 114959484.3361631 0 0 113842238.8040022 0 0 112830218.9968897 0 0 111981130.8493262 0 0 112637929.7904801 0 0 111177850.2890555 0 0 110445809.5304914 0 0 109776888.7702737 0 0 109165162.6005095 0 0 108603967.4520028 0 0 108088612.287767 0 0 108193843.8008071 0 0 107855212.1083026 0 0 107425853.6512787 0 0 107028536.2414933 0 0 106661143.9867573 0 0 106318447.4483778 0 0 105992434.7421404 0 0 106177780.4478408 0 0 105970107.5144833 0 0 105692392.9903555 0 0 106184177.4259093 0 0 105919780.3158754 0 0 105956200.6334996 0 0 105763135.373915 0 0 105724671.2535685 0 0 105502346.2495553 0 0 105293430.210946 0 0 105096086.4530366 0 0 105175923.4605659 0 0 104983693.6326594 0 0 104993099.8140639 0 0 104815724.7040267 0 0 104715928.8515406 0 0 104655248.1518302 0 0 104606156.306866 0 0 105895246.5601777 0 0 140208937.5688585 0 0 136635078.2766713 0 0 144168678.4910515 0 0 142859377.1924489 0 0 132912191.9358643 0 0 129860431.0019473 0 0 127200856.7612834 0 0 125045748.5987845 0 0 122535742.0074249 0 0 120743017.5893267 0 0 118992181.3299449 0 0 117434150.3572536 0 0 116355614.4602653 0 0 115891495.6943031 0 0 114683954.4793881 0 0 113590632.6873335 0 0 112596953.4300271 0 0 111776334.7435623 0 0 111905575.3313196 0 0 110991390.0690961 0 0 110275190.7129217 0 0 109621254.1523638 0 0 109022175.7926882 0 0 108472597.8067742 0 0 107967662.8598837 0 0 107614824.6662346 0 0 107737991.5458625 0 0 107317033.6546383 0 0 106926902.7529052 0 0 106566474.0823613 0 0 106224489.167421 0 0 105905861.5074388 0 0 105693232.06716 0 0 105882750.854245 0 0 105613372.2528878 0 0 105723296.705851 0 0 105477670.7990606 0 0 105525783.2055521 0 0 105671634.7830437 0 0 105305931.5072962 0 0 105100419.4274968 0 0 104899909.9477514 0 0 104712177.1552569 0 0 104802613.5043229 0 0 104908474.8297126 0 0 104628968.7750574 0 0 104458308.650839 0 0 104318224.5301503 0 0 104253283.2556631 0 0 104215881.9057005 0 0 105436223.2228815 0 0 137994600.6989001 0 0 133881538.1415688 0 0 140277767.2491359 0 0 132619281.5375276 0 0 129371745.8879804 0 0 126670759.9760563 0 0 123227459.5818349 0 0 122973356.1486099 0 0 119683097.0318836 0 0 118021940.0961349 0 0 116552713.7802421 0 0 116054562.3062392 0 0 115062463.129035 0 0 113898835.4262301 0 0 112847408.5425743 0 0 111892414.0311534 0 0 111073195.8358667 0 0 111703843.3578506 0 0 110315078.2995374 0 0 109625038.1391383 0 0 108994719.1554345 0 0 108418167.6114595 0 0 107889568.0436473 0 0 107404941.6662439 0 0 107503280.2634342 0 0 107178651.34411 0 0 106776227.3207574 0 0 106403493.1263225 0 0 106058051.7616411 0 0 105733452.4606577 0 0 105429918.5753051 0 0 105613362.6732882 0 0 105415745.2794098 0 0 105160901.5602774 0 0 105638454.9848005 0 0 105394801.883466 0 0 105442418.4301492 0 0 105245143.4482224 0 0 105226927.1595462 0 0 105020694.0140653 0 0 104825372.8652547 0 0 104643787.6409425 0 0 104729677.6446749 0 0 104537278.0519967 0 0 104556487.1475355 0 0 104394864.9497043 0 0 104338150.2487215 0 0 104286240.8651401 0 0 105361158.4888599 0 0 136317831.9674838 0 0 134642848.5217164 0 0 131023061.1347272 0 0 128008311.8147074 0 0 125253524.4944839 0 0 124552340.411013 0 0 121283868.8017794 0 0 119352194.1210576 0 0 121276809.6162126 0 0 117736041.719691 0 0 116248588.1850091 0 0 115251523.0171648 0 0 114791572.3379446 0 0 113649935.1088769 0 0 112620373.7803298 0 0 111684087.7700018 0 0 110889654.5022899 0 0 111019741.7039228 0 0 110148113.3488225 0 0 109472541.6341756 0 0 108855726.821063 0 0 108290991.0646938 0 0 107773198.6946801 0 0 107298187.908896 0 0 106959896.6297877 0 0 107075476.1991482 0 0 106680442.2386266 0 0 106314116.30883 0 0 105973018.9600365 0 0 105651548.1435376 0 0 105358675.1158745 0 0 105153747.8656558 0 0 105342997.5836511 0 0 105092920.6157786 0 0 105196351.4672397 0 0 104971039.7561695 0 0 105030693.2500244 0 0 105170086.7762391 0 0 104831967.16906 0 0 104637599.5293001 0 0 104449510.7908763 0 0 104275185.289596 0 0 104371004.7916416 0 0 104471389.3857526 0 0 104217289.2131717 0 0 104079531.1725959 0 0 103916763.256011 0 0 103904374.3990963 0 0 104924011.4409826 0 0 132655283.2097008 0 0 131227026.4814421 0 0 128223704.9954533 0 0 125575830.4002616 0 0 122882645.5441786 0 0 122295988.7185626 0 0 118210781.6645476 0 0 120078751.9293688 0 0 116731902.6323722 0 0 115559774.8288778 0 0 114975777.8443996 0 0 114005215.2350543 0 0 112922427.1060521 0 0 111941749.1782991 0 0 111031831.2308823 0 0 110230662.8396954 0 0 110837704.1936468 0 0 109516484.984568 0 0 108866097.6099947 0 0 108271812.0492055 0 0 107727298.2254631 0 0 107229709.8859915 0 0 106773694.3339738 0 0 106861720.0912643 0 0 106550542.8936835 0 0 106173731.1043464 0 0 105824229.0089005 0 0 105494955.7910931 0 0 105190302.4756285 0 0 104912317.7815456 0 0 105087326.5173614 0 0 104900144.4900687 0 0 104664542.903175 0 0 105124208.8957694 0 0 104900425.8316852 0 0 104962532.1654037 0 0 104758950.4354191 0 0 104757622.1273232 0 0 104563149.9768021 0 0 104382382.9048101 0 0 104215581.6507436 0 0 104307480.4037478 0 0 104114617.8565018 0 0 104156646.255815 0 0 103963414.8371995 0 0 103971530.7167385 0 0 103957858.9123842 0 0 104858840.146931 0 0 129450159.63609 0 0 126756636.0590995 0 0 124310422.6403499 0 0 123233479.9346146 0 0 121189847.3799732 0 0 118076823.4585477 0 0 119550831.7803081 0 0 116616582.4895926 0 0 115048948.6322696 0 0 114295611.1248751 0 0 113767843.2868892 0 0 112699732.1488905 0 0 111726933.1456294 0 0 110840526.0725849 0 0 110066861.1837388 0 0 110196503.3111206 0 0 109366912.3568374 0 0 108730357.8252466 0 0 108147825.5625822 0 0 107614730.9442339 0 0 107126909.9722499 0 0 106679696.8974743 0 0 106355168.0672852 0 0 106460087.3166699 0 0 106090556.8479653 0 0 105739142.2458607 0 0 105419436.9158537 0 0 105120948.0665722 0 0 104850244.2706747 0 0 104657166.2517112 0 0 104838199.5880184 0 0 104606476.1372984 0 0 104702297.0671317 0 0 104494380.2670637 0 0 104561489.2994317 0 0 104693306.6265431 0 0 104379180.0551652 0 0 104196895.5574966 0 0 104026208.5992646 0 0 103863422.2414122 0 0 103961940.4881507 0 0 104057304.1282617 0 0 103815154.3924148 0 0 103695997.9722424 0 0 103603063.2936781 0 0 103597846.5975007 0 0 104445511.1885337 0 0 122057533.468247 0 0 121109112.8447424 0 0 116700876.0139952 0 0 119203714.466274 0 0 115464283.3021842 0 0 115418822.6122992 0 0 113982744.7399212 0 0 113087426.7286493 0 0 112059211.2252159 0 0 111099708.6560751 0 0 110232047.8520113 0 0 109456128.2950064 0 0 110035670.9777394 0 0 108784107.8170094 0 0 108169043.2161475 0 0 107605574.2294459 0 0 107092909.8662617 0 0 106624085.2281832 0 0 106194303.9821639 0 0 106269084.2111971 0 0 105970672.4594891 0 0 105615847.8040883 0 0 105287039.9014892 0 0 104971499.3695346 0 0 104693295.1660621 0 0 104436070.8851627 0 0 104600661.7857716 0 0 104422257.9085917 0 0 104203912.3445217 0 0 104640862.0839722 0 0 104436187.3514296 0 0 104502154.0644899 0 0 104301227.6307608 0 0 104313715.1765048 0 0 104134395.850857 0 0 103966009.1870792 0 0 103811022.4896335 0 0 103906720.4759115 0 0 103712522.6811611 0 0 103776937.3041855 0 0 103694276.9444929 0 0 103638255.0678761 0 0 104389812.0217529 0 0 120228687.5607013 0 0 116684788.2557678 0 0 117672637.4709772 0 0 118208888.6853295 0 0 114324494.0631497 0 0 113217784.0603349 0 0 112843442.3534259 0 0 111831417.8889898 0 0 110901387.8106031 0 0 110069144.6628623 0 0 109309788.7411466 0 0 109443581.5278632 0 0 108649058.8180745 0 0 108047084.6370221 0 0 107496096.2039882 0 0 106993470.0682782 0 0 106533506.4620783 0 0 106111732.8827694 0 0 105799945.645945 0 0 105891769.6322486 0 0 105542496.6694151 0 0 105205191.9004958 0 0 104910659.4242718 0 0 104636034.8367296 0 0 104384206.1575405 0 0 104198986.000688 0 0 104369766.4765109 0 0 104153875.7348894 0 0 104240484.748433 0 0 104049456.2255751 0 0 104119903.4395393 0 0 104246719.485246 0 0 103949268.7153644 0 0 103781882.8792932 0 0 103626685.3955591 0 0 103476261.3548419 0 0 103566335.3588813 0 0 103663331.4610272 0 0 103441324.5134482 0 0 103336478.8898422 0 0 103301700.6509321 0 0 104000324.5655789 0 0 115830927.9790286 0 0 116685153.5300627 0 0 114582992.5414092 0 0 114305802.3072832 0 0 113075155.832187 0 0 112323733.4098848 0 0 111311379.2027761 0 0 110380852.9412876 0 0 109529798.5745044 0 0 108751736.3853178 0 0 109301664.1358054 0 0 108115256.7792947 0 0 107526959.5426103 0 0 106998412.0433706 0 0 106514415.9260606 0 0 106071907.4031238 0 0 105665779.0713196 0 0 105724942.8171763 0 0 105438361.9862691 0 0 105105904.4678678 0 0 104796210.4313112 0 0 104495412.7528633 0 0 104237773.7389046 0 0 103998559.5840238 0 0 104151388.4129962 0 0 103980094.4201051 0 0 103777546.8056349 0 0 104188298.7803706 0 0 104000822.9264715 0 0 104067273.4613978 0 0 103870991.558243 0 0 103891898.6885899 0 0 103728120.6791551 0 0 103574076.0186552 0 0 103429399.9253457 0 0 103518301.7530624 0 0 103333328.7106757 0 0 103413412.6719706 0 0 103354088.7952545 0 0 103953441.2491367 0 0 115358643.7934763 0 0 114158177.3007238 0 0 113297402.3681514 0 0 112465423.5516125 0 0 112024592.6644378 0 0 111026081.367686 0 0 110155355.3688007 0 0 109374287.6468134 0 0 108621381.4590003 0 0 108782110.8674264 0 0 107991264.1816539 0 0 107420277.5139889 0 0 106901813.8168054 0 0 106426954.8812685 0 0 105992361.4027256 0 0 105593293.1417241 0 0 105292460.696421 0 0 105370304.2426526 0 0 105038267.8522576 0 0 104719012.8682581 0 0 104444159.3546855 0 0 104190483.0787071 0 0 103955438.2267659 0 0 103777743.6085385 0 0 103936274.003013 0 0 103735750.3272294 0 0 103810789.4897419 0 0 103634502.0577562 0 0 103703788.405339 0 0 103824895.8422998 0 0 103546106.6342295 0 0 103395112.9871852 0 0 103253768.4709338 0 0 103117727.2129818 0 0 103192015.0377186 0 0 103283252.3428344 0 0 103068384.0723414 0 0 103016139.5786157 0 0 103588546.7095173 0 0 113286977.9910688 0 0 112308608.2873792 0 0 111587566.0811392 0 0 110626357.3500981 0 0 109750547.9742847 0 0 108858354.3426198 0 0 108122073.6147625 0 0 108640969.31361 0 0 107493818.076193 0 0 106947395.8025963 0 0 106449087.3241863 0 0 105990358.9325081 0 0 105571721.2657079 0 0 105182626.8929346 0 0 105228115.3710019 0 0 104952960.1545738 0 0 104639214.7455181 0 0 104353352.417601 0 0 104068471.755727 0 0 103823197.3314629 0 0 103598831.2834633 0 0 103738091.9317737 0 0 103573394.7805674 0 0 103384390.3343121 0 0 103767377.6816229 0 0 103593787.4160923 0 0 103658741.5711486 0 0 103469482.9859746 0 0 103500726.9273329 0 0 103347681.5048955 0 0 103208667.523885 0 0 103075999.0679943 0 0 103136078.5493486 0 0 102982084.3050634 0 0 103084649.1302175 0 0 103549665.9095974 0 0 112556217.3995884 0 0 112117619.2138056 0 0 111287916.272847 0 0 110289397.7466374 0 0 109484435.8090946 0 0 108786046.3779409 0 0 107990297.0050039 0 0 108163924.1293834 0 0 107386577.5697792 0 0 106852183.2012289 0 0 106364084.4339914 0 0 105913199.9537959 0 0 105500601.0838778 0 0 105122614.0030683 0 0 104835115.2155218 0 0 104894523.6939006 0 0 104580824.5752891 0 0 104283113.4972165 0 0 104019779.7300818 0 0 103783824.5232417 0 0 103563269.8914202 0 0 103392124.7323923 0 0 103536773.0149395 0 0 103350261.6534348 0 0 103412754.7760636 0 0 103248999.7012134 0 0 103314639.2203409 0 0 103430071.1000922 0 0 103170850.1393319 0 0 103036645.1853867 0 0 102918859.1130557 0 0 102787646.457402 0 0 102885521.58226 0 0 102938982.8862832 0 0 102736152.3697388 0 0 103208836.5048463 0 0 111610119.9564434 0 0 111074081.418255 0 0 110134369.7970089 0 0 109255054.9994022 0 0 108095198.2862955 0 0 107537858.7346325 0 0 108040081.7455508 0 0 106939361.5844185 0 0 106440220.7912546 0 0 105956007.1635727 0 0 105523808.2130689 0 0 105108164.6941023 0 0 104755573.5148288 0 0 104778199.1219201 0 0 104509010.961441 0 0 104212111.6787631 0 0 103939722.3339064 0 0 103682583.6308302 0 0 103446807.745587 0 0 103235684.7477124 0 0 103359532.8049633 0 0 103200894.2015087 0 0 103024286.2890118 0 0 103376509.7022955 0 0 103215486.4744717 0 0 103277596.2234243 0 0 103097089.8127641 0 0 103135340.2212921 0 0 103000977.8210309 0 0 102884956.33876 0 0 102772268.1825002 0 0 102735886.8199798 0 0 102676631.0609784 0 0 102753965.8453707 0 0 103177133.6965956 0 0 110628823.7148504 0 0 109705129.3766147 0 0 108808388.2690513 0 0 108587470.1413061 0 0 108093046.5227972 0 0 107434173.8569506 0 0 107592877.8761549 0 0 106843983.7192517 0 0 106348453.4963849 0 0 105878678.1298594 0 0 105446692.6503658 0 0 105055073.3455157 0 0 104700833.7610862 0 0 104417495.2684657 0 0 104458289.4928197 0 0 104167099.3052155 0 0 103892423.4688658 0 0 103639493.3500102 0 0 103414446.6548048 0 0 103206633.5352851 0 0 103040923.8093867 0 0 103171107.1088824 0 0 102996882.8444429 0 0 103045702.357335 0 0 102894084.418657 0 0 102953885.0573993 0 0 103065032.1965856 0 0 102819292.6697766 0 0 102686122.2800342 0 0 102565369.4576616 0 0 102515454.6941712 0 0 102571730.500421 0 0 102578969.3924985 0 0 102473662.9220427 0 0 102860632.7056866 0 0 108190382.6732236 0 0 107797272.0510081 0 0 106938783.5315786 0 0 107486000.9117599 0 0 106508294.2512186 0 0 106032116.7615195 0 0 105562005.7206807 0 0 105085636.53406 0 0 104715506.1966297 0 0 104360253.5058842 0 0 104369795.2052139 0 0 104109394.2531464 0 0 103832234.0387877 0 0 103569558.7946068 0 0 103326171.9671726 0 0 103106793.3518683 0 0 102906537.8468445 0 0 103014850.1479651 0 0 102861520.2540534 0 0 102696074.0607501 0 0 103016381.2805716 0 0 102866816.6842334 0 0 102923363.8603447 0 0 102753826.8646225 0 0 102789423.5530202 0 0 102653844.7657291 0 0 102591740.4840921 0 0 102560412.4057983 0 0 102526115.1418919 0 0 102835479.0137571 0 0 107561700.9215419 0 0 106947222.1303405 0 0 107121533.4074059 0 0 106357093.0327047 0 0 105869983.5342156 0 0 105403787.0282878 0 0 105046519.8149817 0 0 104665262.9611649 0 0 104320061.7851367 0 0 104043233.4560481 0 0 104068425.3280923 0 0 103787895.0418819 0 0 103528250.0931898 0 0 103295473.9697637 0 0 103080719.6204936 0 0 102883900.5452884 0 0 102723050.3141216 0 0 102838025.1811898 0 0 102674821.9174403 0 0 102708930.5321591 0 0 102568233.7011321 0 0 102622920.4972004 0 0 102729339.698801 0 0 102503276.2894295 0 0 102401140.365628 0 0 102254944.5582326 0 0 102242226.9715483 0 0 102226169.8198656 0 0 102543271.2245966 0 0 106420564.3190466 0 0 106859546.0851399 0 0 106262859.020329 0 0 105731068.0549891 0 0 105300222.8114182 0 0 104628633.874436 0 0 104345069.0672959 0 0 104028136.1769747 0 0 104004745.8210357 0 0 103751673.9536675 0 0 103493982.0736174 0 0 103247098.6512218 0 0 103006243.9529632 0 0 102800497.1095754 0 0 102611599.0315954 0 0 102702992.0731587 0 0 102554094.7493909 0 0 102398940.1242852 0 0 102685833.4561497 0 0 102547353.7498498 0 0 102600251.8022945 0 0 102437162.5299105 0 0 102480824.4909328 0 0 102309181.9486335 0 0 102305121.7360326 0 0 102319411.4788599 0 0 102287571.0798512 0 0 102523955.2851837 0 0 106589379.3297723 0 0 105995657.0745652 0 0 105500279.9947972 0 0 105024060.9373833 0 0 104944289.4931949 0 0 104636970.3457049 0 0 104296796.545468 0 0 103992508.0747681 0 0 103711847.4039437 0 0 103718546.7117678 0 0 103456704.0918288 0 0 103205116.5518205 0 0 102980857.4216204 0 0 102781073.175582 0 0 102594277.2890445 0 0 102436697.062153 0 0 102536456.4426076 0 0 102383262.7042591 0 0 102401620.0516011 0 0 102269870.8525085 0 0 102318020.8052388 0 0 102419132.9174112 0 0 102205584.5507425 0 0 102109739.697467 0 0 101995390.9008943 0 0 102030926.1004666 0 0 101986609.4361119 0 0 102255885.3042034 0 0 106279546.1746073 0 0 106027977.719978 0 0 105517891.1442772 0 0 105026380.4352525 0 0 104645139.9608391 0 0 104423526.1416019 0 0 104064400.413326 0 0 103688251.3451159 0 0 103682128.2908622 0 0 103436128.865421 0 0 103193474.9918198 0 0 102941832.9125042 0 0 102722103.517029 0 0 102532864.2069687 0 0 102346405.4679997 0 0 102422357.5831401 0 0 102277659.1237553 0 0 102131880.5227281 0 0 102384032.1369796 0 0 102254285.4032193 0 0 102304280.670307 0 0 102148039.0998009 0 0 102194618.8123972 0 0 102118175.6459987 0 0 102040769.975111 0 0 102071209.3533304 0 0 102241478.2691324 0 0 105743568.1089127 0 0 105266742.0128911 0 0 104793304.601902 0 0 104615446.5287688 0 0 104319276.8438768 0 0 103961064.4015571 0 0 103697397.0519602 0 0 103407446.6944201 0 0 103407029.1564174 0 0 103158505.5075766 0 0 102918111.7254888 0 0 102705319.9752985 0 0 102517191.5299474 0 0 102334920.6791748 0 0 102181025.579322 0 0 102265409.6175819 0 0 102120821.2035688 0 0 102122776.3015857 0 0 101998664.1925249 0 0 102034212.7400579 0 0 102136616.1119344 0 0 101929687.6322711 0 0 101852419.8032681 0 0 101765576.5481752 0 0 101780906.3901604 0 0 101996114.7627468 0 0 104433407.8859581 0 0 104218279.3049145 0 0 103862409.6559517 0 0 103344919.40797 0 0 103417094.1486738 0 0 103173221.2043546 0 0 102910144.755224 0 0 102688970.4109873 0 0 102473559.2625646 0 0 102295073.5979849 0 0 102108550.1520666 0 0 102172241.2890206 0 0 102032099.0655362 0 0 101892163.5496484 0 0 102110219.3828747 0 0 101987395.7929475 0 0 102023565.305247 0 0 101881791.2534671 0 0 101919657.103821 0 0 101880274.9872336 0 0 101822528.7882317 0 0 101986705.9076603 0 0 104056710.1356372 0 0 103670267.3375013 0 0 103381238.0463436 0 0 103584429.514609 0 0 103104919.5713608 0 0 103095397.2775679 0 0 102886222.7159538 0 0 102672821.0541679 0 0 102455091.2177183 0 0 102284529.4381908 0 0 102104013.1751203 0 0 101958947.4037848 0 0 102023720.1451323 0 0 101885332.8242966 0 0 101871018.2687897 0 0 101754531.6961679 0 0 101774301.3798063 0 0 101873120.8723357 0 0 101680493.1793181 0 0 101594747.2782025 0 0 101563745.9598261 0 0 101762763.9343081 0 0 103202127.2498043 0 0 103379252.299099 0 0 103126424.2620081 0 0 102657681.3591944 0 0 102475997.154441 0 0 102268522.1007415 0 0 102074798.8743714 0 0 101922027.4406384 0 0 101952326.0116891 0 0 101812752.9225146 0 0 101677974.6568676 0 0 101863024.6056099 0 0 101747539.5191544 0 0 101765153.140384 0 0 101639030.1889693 0 0 101676350.1584193 0 0 101638116.0186823 0 0 101757690.5944752 0 0 103084040.2872182 0 0 102870634.4304699 0 0 102625816.8443259 0 0 102871106.01332 0 0 102433279.137493 0 0 102212770.1096196 0 0 102082834.0711907 0 0 101915667.3679953 0 0 101761519.5004722 0 0 101807924.253596 0 0 101674860.4374651 0 0 101644895.7390695 0 0 101537393.581606 0 0 101544533.6736934 0 0 101635431.2427992 0 0 101460552.854482 0 0 101381346.4434768 0 0 101552472.7984729 0 0 102951340.011136 0 0 102576122.7849919 0 0 102702294.0040614 0 0 102342497.1609868 0 0 102154443.4090142 0 0 101840454.8809475 0 0 101743781.8069874 0 0 101759216.1955339 0 0 101623652.1772846 0 0 101482168.5721197 0 0 101641693.3352466 0 0 101537733.1045454 0 0 101529814.5259987 0 0 101422236.5485311 0 0 101422677.2299131 0 0 101425700.0574708 0 0 101552276.4213684 0 0 102777709.3488656 0 0 102473002.2682259 0 0 102689400.1197262 0 0 102252475.7481878 0 0 102020083.0214412 0 0 101875043.3850597 0 0 102048197.5265637 0 0 101751988.9533562 0 0 101597112.2256349 0 0 101616628.5891042 0 0 101486570.3899364 0 0 101444305.333033 0 0 101324143.5284543 0 0 101349734.0585963 0 0 101421577.3697175 0 0 101254414.973199 0 0 101222058.2628502 0 0 101372285.967356 0 0 102454920.9066579 0 0 102568117.0127815 0 0 102231380.7069658 0 0 102035154.1853335 0 0 101692408.1516805 0 0 101823631.4117191 0 0 101571876.5500977 0 0 101585998.9607702 0 0 101455015.217671 0 0 101324834.6651313 0 0 101443482.1547668 0 0 101355757.4880677 0 0 101337760.5040922 0 0 101244442.2943437 0 0 101272731.2731319 0 0 101374275.4207685 0 0 102336843.6379044 0 0 102136834.210915 0 0 101986153.1533187 0 0 101863724.5600829 0 0 101712985.528438 0 0 101573337.6887982 0 0 101450239.6355121 0 0 101460839.4709561 0 0 101329822.9276479 0 0 101280892.7545671 0 0 101167898.8269424 0 0 101162476.3779327 0 0 101202795.113474 0 0 101082578.1911266 0 0 101226273.37597 0 0 101722110.6574393 0 0 101646503.1280615 0 0 101473430.7664064 0 0 101450092.7938785 0 0 101288869.1667883 0 0 101189761.2572805 0 0 101255673.1877351 0 0 101233241.2699281 0 0 101196634.9551864 0 0 101172053.4099532 0 0 101233322.9806819 0 0 101595516.2401059 0 0 101413297.3550663 0 0 101321635.2161737 0 0 101324419.0645928 0 0 101186444.390448 0 0 101141129.5103243 0 0 101073996.4169201 0 0 101016415.5668724 0 0 100961788.7740939 0 0 101098015.2956157 0 0 101266092.8100777 0 0 101147741.9631231 0 0 101133635.9654948 0 0 101168406.8756533 0 0 101119141.2232343 0 0 101066407.2572951 0 0 101097080.3681397 0 0 101223070.4321084 0 0 101071634.5233908 0 0 100988462.7152138 0 0 100916271.4602439 0 0 100864170.6494306 0 0 101008230.3258539 0 0 101143704.4119684 0 0 101092028.8724515 0 0 101034704.6490718 0 0 100967152.544605 0 0 100948996.6787489 0 0 101006763.5343501 0 0 100846326.9605695 0 0 100794104.8345067 0 0 100959784.0452525 0 0 100962979.405545 0 0 100898470.2743614 0 0 100827094.2878641 0 0 100880154.9131972 0 0 100746603.1079015 0 0 100846672.2265418 0 0 100861493.3373191 0 0 100825495.7222185 0 0 100725809.6703928 0 0 </DataArray>
      </CellData>
      <PointData>
        <DataArray type="Int64" IdType="1" Name="vtkOriginalPointIds" format="ascii" RangeMin="0" RangeMax="7057">57 1 6974 58 432 6788 56 59 6033 7048 426 55 6815 60 388 7018 4205 4455 61 6920 54 4204 382 62 6917 6772 4202 7029 4626 63 4206 53 4207 4203 4627 4628 4500 4200 4201 6895 64 6837 52 4198 6836 6771 356 6991 65 66 4540 377 4197 4199 6834 3721 399 67 2848 51 4035 5842 2847 4181 6883 6921 4600 68 69 344 6849 4499 3694 6728 2283 3175 4601 4604 70 2526 50 4034 2011 2614 6831 4105 4602 4603 400 6931 4147 3693 3692 6830 1934 6827 7013 4605 71 2227 49 6733 1814 3709 4104 3177 3449 6564 6870 4927 7031 72 73 6871 350 7037 4146 3691 3690 1935 1808 6814 6910 336 74 6010 48 6739 1664 6825 3137 2835 5931 3134 6090 4135 4133 5012 75 76 77 359 5013 4579 4578 4577 3151 3193 4526 1648 4078 5872 6980 6994 78 1665 47 4044 1563 6809 2834 2642 2639 2638 2640 4112 4111 4113 6292 6840 6890 4208 422 6939 3701 3149 3150 3671 6738 1523 4756 5998 6957 79 6803 46 6742 1467 4286 2833 2641 2367 2366 5900 3483 3522 6133 3718 5856 3975 4167 327 80 5760 6979 4573 3148 2826 5860 6027 1524 1424 3302 3447 6995 81 6802 45 4253 1390 4285 3301 4688 1993 1930 1929 3482 6095 3157 3156 3158 3974 6886 4162 6521 82 83 361 340 4574 3317 2825 2635 2894 3194 6741 1339 3720 2769 6232 4081 6891 84 1391 44 6833 4055 1303 6798 4478 2540 1992 1828 1827 3942 6051 2558 2559 3973 6211 4093 6709 4362 6990 85 86 321 6941 4194 4546 5017 2633 2634 2895 3672 6818 1282 5036 5893 2871 2870 4164 5169 87 6795 43 4066 6819 1230 4474 3880 3879 4632 1826 1732 5995 1996 1997 5714 6188 3360 5819 5777 3593 4163 6644 5170 4195 4067 3135 2631 2632 5978 6075 6748 1283 1186 4471 1730 2816 2815 6851 88 6793 42 3136 4592 1050 4473 4470 5060 2299 1825 1731 1729 1893 3018 6113 5754 5687 2817 3082 3592 6356 3719 363 5171 89 90 6841 420 4315 4449 2630 2039 5761 5653 3471 3472 4591 1038 4472 1609 2305 2306 6914 404 91 1141 41 5840 6750 1013 6791 2831 2682 2681 5855 5132 1608 5904 6018 3954 1901 1902 3081 3540 6347 2850 2849 6952 3178 4155 6958 4972 92 93 314 5594 6842 3795 4456 2038 2007 2214 3001 3470 6749 4593 1004 4889 1526 2254 5709 4973 4980 94 6786 40 5468 4594 925 4373 2830 2683 3274 4564 5251 1525 5567 5792 1649 1650 2230 6322 6328 5775 2520 2629 3186 4082 4183 6757 407 95 96 4981 331 6928 3794 3113 2563 2005 2006 3000 3469 3505 6725 1005 917 3202 1489 3072 6301 3179 7045 6894 348 97 6784 39 2004 4595 902 4372 2832 4562 4563 4866 1591 1486 1484 1483 1487 6030 6063 3538 2013 2012 2014 5101 3187 6404 3762 3761 4040 4982 6605 6959 98 6683 7025 4161 3147 2564 2008 1834 5726 3937 6064 6767 4598 4596 885 4371 1488 6218 3561 3929 6987 6899 4430 406 99 100 6873 903 38 1833 4597 864 6776 4379 5883 2051 1865 1864 1485 1422 1421 5888 3936 3935 2454 1813 1812 5795 6003 4024 6393 2884 2883 5762 5969 3777 312 101 6904 4412 5670 4977 3300 5906 1667 5975 6020 2625 6740 3708 2296 860 3714 5212 6199 3562 5545 3776 4157 4431 7043 6963 102 6775 37 1666 4261 773 4289 3713 5493 1925 1866 2956 4958 1314 1313 5563 3002 3003 4753 1748 1747 5740 2765 6385 3297 2656 2655 2657 5914 3406 7003 6778 4187 103 104 365 7033 375 4237 3828 3827 4447 4978 5711 1600 1787 1922 2624 2924 3706 6744 769 3712 4960 6141 4754 6333 3407 4432 6811 5196 105 2298 36 1597 6745 763 6773 3095 2538 1926 5190 6013 4959 1302 1300 1298 1297 5835 2595 1746 1564 1565 2248 5258 5054 2364 2363 5691 3404 3405 3774 3673 4186 6857 411 106 6868 4142 3155 2948 5600 4949 1595 1599 1889 1923 2781 2925 3707 770 761 3711 4961 6080 4827 3064 6185 7008 6948 6684 6770 35 4238 1596 6813 745 4288 3094 2539 2673 4348 4566 1402 1301 1299 1200 1199 2983 5640 1427 1428 2137 2469 3969 6308 1946 1945 1947 3008 3966 6161 3140 5538 3198 5948 3922 7056 107 108 319 5523 7028 4239 7050 2842 2353 1899 1594 1530 5490 5279 3448 6176 6195 6732 4658 743 3715 4565 5973 3442 3074 3965 5617 4138 7004 109 746 34 6780 5859 4659 733 6746 4885 2674 4347 5629 3362 6144 2710 4775 1041 1040 5791 1310 1311 5565 4930 3075 5321 6297 1807 1887 3007 3501 2989 6140 2582 2583 5885 3921 3190 5303 5304 110 323 6909 2843 6968 2354 1900 1598 1529 1439 6009 6065 6139 3961 3521 4063 2055 731 4682 3932 5721 1189 3995 3375 3191 6897 371 111 6736 33 4154 5550 4271 726 4683 4681 4337 3804 2747 2980 4569 6079 5089 1035 1033 1031 1190 1640 5167 3997 3996 6305 1806 1644 5558 3919 6103 2988 5852 2388 2387 5592 2661 2662 3765 3769 5302 6824 5316 112 5449 7032 4153 6058 3829 5173 2722 5055 1438 1382 3010 5744 5492 2532 2976 4064 6730 724 4341 3941 1030 1138 6285 3897 3192 6893 412 2206 32 3299 1496 6805 718 6731 4338 3805 2436 2435 5827 6077 5207 1184 1034 1032 933 5168 4479 3999 3998 4001 2735 1643 1468 5905 5976 1572 5073 5697 1915 1916 2269 2618 5536 3766 5301 6821 5398 6993 113 418 5133 3176 5264 4411 4481 5951 5056 1380 1381 2148 2150 2256 2531 5778 6721 725 717 4340 6022 932 5907 6267 5698 3767 4103 5325 4254 114 6729 31 2951 2147 4727 711 4343 4339 5229 2036 2035 5541 2759 1619 1618 5233 4970 911 5939 4002 4000 5257 6274 5285 1342 1343 1345 1347 1364 1668 1419 1669 2268 2617 3103 5463 3768 6820 3679 3677 7051 325 115 117 118 373 116 5331 5328 5399 6854 3746 2952 2950 3296 5879 5057 1379 1335 5586 2149 2151 2257 2533 6756 4729 4726 707 4342 5204 910 2764 5623 1425 6498 3676 5326 5599 5356 119 712 30 2585 5252 4728 702 6727 4554 2530 1928 1803 1647 1621 1620 3312 4971 2698 897 4439 4003 4004 6261 1843 1250 1251 1344 1346 1348 1365 1498 1420 5256 5192 3104 4038 6491 6769 3773 3678 2863 5327 6844 6942 5329 5357 120 121 338 368 6949 4091 3747 5080 2584 5627 3374 5418 1333 1334 5996 2456 5283 3080 6369 6714 3689 2057 701 4555 1623 896 5964 1143 1497 1904 2862 6855 7054 5359 122 6726 29 2228 6074 4277 700 4831 4830 5037 1927 1802 1645 1622 5871 5960 4684 5082 895 6180 6207 6223 5467 1006 1144 5514 5180 1547 4769 5802 5483 1641 5508 6472 6477 6482 1809 4349 4214 6586 2680 2867 5330 4114 4115 4116 5358 6863 414 6816 4476 6276 5081 2229 2115 2113 2111 1332 1249 5880 3948 6109 6000 6360 4017 3132 3686 6713 698 3696 1624 882 881 1007 1642 1704 2679 6940 6953 6889 123 2295 28 4139 2116 3946 6782 696 6723 3330 2528 2069 4929 1646 5639 3905 4408 3345 923 894 5540 2743 5522 908 909 2728 4415 5824 4482 3883 5479 2117 1801 6465 3605 3604 5476 1702 1705 3772 6581 2678 5532 3908 3142 3141 5875 5466 4074 4075 5360 5361 124 6937 4184 3164 3958 6268 5032 2114 2112 1407 1248 1183 5611 3027 3947 6327 5487 2789 3131 6712 699 695 3695 1741 880 878 4442 1960 1703 2359 7005 6901 125 6720 27 3163 2958 3527 4854 693 4833 3083 2529 5298 3894 1933 2424 2931 4406 3252 2086 4871 876 874 872 871 5967 4413 3862 5462 3304 2964 1962 6408 1961 3982 3097 2483 1701 1448 2749 6806 3663 2391 2358 3907 2667 5776 2668 2844 3047 6231 6982 3484 4144 346 318 5149 3145 6265 5034 5033 5035 2708 4957 1182 1181 1269 3026 6246 2246 2220 2626 3411 6706 4853 692 4832 2018 879 877 4414 2245 5502 1977 7020 126 694 26 3144 4956 6186 4855 691 6717 3084 3215 4436 4437 5913 2425 5602 6115 6062 4331 4457 875 873 856 855 5994 3861 3308 3305 2965 2479 2478 6395 5280 5085 2792 1742 1397 1396 5503 6560 5100 5253 1976 5497 2315 2314 2669 3046 3990 6170 3138 4127 5365 6407 127 128 129 5370 417 6817 5150 3146 2943 2942 6272 5262 4954 4955 5799 1158 1180 2776 3499 5051 2219 1957 5655 6724 4940 4938 690 3687 2919 6295 1537 5997 6430 5699 1975 2846 358 130 6716 25 2944 3874 6164 4939 689 4068 3216 4300 3450 4012 6481 2920 3477 4314 3814 3815 6288 4896 4905 852 851 1743 3860 3307 3306 5061 3037 3038 5276 6370 3334 3333 5433 1307 1306 6556 4545 3356 2500 1895 1894 1896 5290 3048 6286 6290 2400 3133 6005 5366 6867 6965 6807 131 132 5382 6850 4102 3343 3342 2356 1990 2223 6156 3873 5636 1156 1157 5309 3500 3964 2731 1956 1855 2289 6699 3971 2527 688 3688 3475 4898 4897 4401 3563 1308 1974 2399 4089 7057 385 133 6715 24 5308 3504 6132 4282 687 4298 6040 2911 2910 6476 4465 3476 4313 2907 2906 5683 3361 4899 2709 849 848 6017 3863 5063 5062 3567 3549 3550 3336 6365 3335 4661 5432 1178 1179 6800 4544 2806 2719 1680 1679 5496 5291 6282 3533 5414 2383 5934 4770 4087 4086 5405 4108 6916 5381 134 367 6930 4101 3539 4842 1988 1989 3497 6138 2779 1155 1025 5717 5310 6081 6107 5437 1728 1853 6173 3970 3682 6704 685 4299 4306 6254 4900 4402 3409 6796 5273 2381 4088 7023 429 135 2198 23 1987 2993 3396 6702 684 6677 5108 2620 2566 2565 5539 5448 3915 2752 2429 2675 2677 4901 4902 846 845 6035 6289 6311 6325 6340 6355 6362 3408 5511 4527 2729 1133 1134 1326 4543 2967 2966 3889 1536 1533 5518 6106 3532 3261 2457 2382 2380 5899 3899 3744 3742 3741 4145 5402 6933 6790 136 6398 7038 6225 6227 6447 5274 1781 5597 6117 3939 2594 1024 1002 5917 6036 2209 5794 1590 1727 1854 6152 3681 3680 686 683 4061 1692 3031 6255 6281 6041 6537 5266 2348 5319 6972 2 6676 22 1780 2994 1506 4287 681 4309 3061 2619 1982 1724 1691 5520 5591 1949 2030 2676 3030 4903 4904 844 842 840 2143 5512 850 5507 2234 5510 4528 857 4633 1131 1132 5461 6799 4542 4541 5993 5267 1509 1452 1453 6098 3507 3260 2692 5234 2346 2345 3898 3743 3740 3739 5401 5379 5378 5380 137 5086 4025 3204 3585 6444 1782 1673 2176 6097 3940 5259 1001 1000 1021 1328 1330 1398 1589 5551 6119 5423 3035 3675 6701 680 4059 1689 5392 6120 838 5665 5384 1555 2347 5836 7027 682 21 1672 4559 1504 6761 679 6675 3327 5007 1981 1723 1690 1687 1686 1740 5277 3478 3479 6050 847 843 841 839 836 834 832 830 828 826 5738 824 1129 1130 3379 6797 4085 3844 3843 3901 4621 1451 1395 5519 4422 4421 5469 4384 4423 2341 2340 4809 5271 3737 3736 3738 6912 5377 424 138 330 6880 3203 3162 5460 6238 6436 1560 5837 5526 5816 5499 998 999 1327 1329 1331 1399 5732 6060 5422 3034 3033 6758 2068 678 4060 1688 6172 1744 837 822 5464 5921 6014 2344 6674 20 1559 3370 1505 4933 677 4582 4580 2410 2032 5254 3350 1577 1576 5725 5278 6076 6116 854 853 4662 6502 2062 835 833 831 829 827 825 820 823 819 5605 6794 4084 2869 2542 2977 3920 5965 1394 1292 5417 2761 3255 3257 3468 6183 2339 2338 5678 3745 3735 3734 6822 5375 5376 139 5087 6885 4136 3161 2814 3498 4021 6433 1546 5471 2163 5524 996 997 5686 2750 4812 4755 1538 2767 6001 5421 2403 3032 6700 4932 676 4581 4895 5005 862 4841 821 2541 5220 2342 5613 6673 19 1461 994 1539 4934 675 4583 3054 2411 2685 5810 5115 1493 1492 5892 6034 2775 5495 861 2714 4297 5642 4301 1051 4657 2060 4649 1289 4697 768 2067 767 2162 6520 3655 2868 2488 5525 5870 3349 1264 1241 1239 1240 3256 3258 6134 5287 2336 2335 5300 5299 3732 3733 5374 381 140 5297 4678 4679 6999 2812 2813 4020 6431 1462 1337 1235 1046 993 995 3410 6453 6467 5575 2053 1540 5857 5659 2213 2402 6698 4936 4935 673 4685 5123 890 889 5745 4887 2487 1383 5286 2337 2255 18 1338 990 1541 4894 672 6672 5088 2686 3290 4438 2957 1393 1268 1168 1163 1161 916 4906 4296 3401 3402 3435 6334 4651 4650 4407 4324 6320 759 4888 758 6516 4212 3656 6634 2444 2443 5438 2075 1259 1226 1225 5465 3910 3957 5983 3357 2333 2334 5482 3731 3730 7039 5372 141 402 4674 4677 2811 2376 5431 6427 3503 2270 1236 1047 1003 989 5787 6443 4033 3602 6484 5825 1542 1544 1725 1983 5782 3415 6694 674 671 4058 1502 915 1020 3952 3332 2486 2074 2332 3902 5373 6671 17 6206 984 1543 4893 669 4311 3292 3291 4419 5116 1585 1392 1267 1167 1162 1160 1159 5485 3399 3400 3434 3951 6448 4652 6329 3386 3367 3962 739 4446 738 740 5620 6747 4512 2083 2081 2077 2076 5307 1224 1223 5546 5849 5958 3358 2452 2331 5436 5453 3728 3729 142 5371 4672 4673 4675 6829 2375 2301 5671 6224 6217 4360 1516 6187 6353 983 2174 6434 3564 3560 4302 2037 1583 1545 1726 1984 2623 3028 3206 4892 668 4057 1503 5305 4291 6099 6296 4510 3348 2330 5544 6951 670 16 6201 981 4680 6692 667 6670 3293 4630 1940 1721 1586 4848 4845 1169 4849 2396 2397 3250 3398 5912 5971 6049 6376 2901 5666 2903 2904 3963 730 6338 729 5619 6808 4513 4511 2082 2079 2078 5553 5773 1221 1220 1222 3881 5924 3359 5268 2329 2343 3154 3727 6856 143 354 342 4946 4676 6938 2386 2300 2267 3071 3486 3488 3490 4365 4366 6346 980 5815 6425 3559 3558 5916 4019 4498 4774 1985 1986 2798 3029 6690 4979 666 4388 6616 6121 3249 2748 1324 4509 4536 2327 2553 6663 15 3492 979 3869 4838 665 4394 4393 5494 1938 1722 1924 4847 4846 4264 6588 4273 4318 3248 5728 2099 3903 5818 2572 2573 2575 2577 5618 6277 721 5144 720 2166 6859 4514 6703 4508 2080 2963 4521 5735 1218 1219 3378 5877 4469 5652 2326 2328 2547 3153 4148 5368 144 4622 6828 7035 5984 5481 1921 2144 3385 3487 3489 3491 3541 6336 2093 978 982 6417 3557 3311 5952 6512 3870 2786 2501 5146 3638 3639 6689 2070 664 3667 6639 3251 3247 2172 5140 4507 3324 2325 3152 2285 14 5681 3493 977 3535 4837 663 6659 3050 2515 1939 5634 4270 3779 3778 3780 5986 3781 4440 2398 2098 2097 5715 1786 2173 2574 2576 2578 2979 6258 715 5141 714 5521 5576 2658 6496 4209 4196 4505 3325 1217 1216 5501 5781 3392 3884 6038 2323 5416 3368 5369 416 145 396 6935 4011 4010 5933 1920 1800 5587 5749 4643 4788 3494 5447 6319 5383 975 6399 5311 3310 3099 3098 6026 6045 2799 3111 6566 6574 6668 4840 4836 662 3666 6263 6351 3246 2171 2726 3195 2091 2324 3751 6658 13 4008 3495 976 3536 4839 661 4316 3049 2516 2517 4269 3341 2897 3433 5992 2886 2885 6344 2231 1785 1617 1569 1568 5120 5016 2724 2725 6239 5143 708 5142 703 704 2135 2389 2647 4506 3753 6464 3346 1215 1214 2133 2753 3391 6023 2322 2321 5588 3752 6839 5367 146 4548 7041 4168 4009 4007 5750 1798 1796 1795 1891 4789 3912 3911 3988 6299 974 973 6384 3565 3309 2612 2611 2613 5040 5038 6555 4062 2616 6638 3661 697 660 3669 2875 4625 4624 5708 5145 2649 5231 5386 710 12 4006 3987 5779 5039 4307 659 6655 4829 2518 2874 4268 3340 2560 5786 5408 2015 2597 2981 4910 1693 1579 1437 1436 5894 5014 2751 3052 3545 6221 634 5452 635 2134 2136 2390 2648 2651 2866 4210 6456 1212 1213 2590 2991 5731 5275 2277 2320 5878 5364 343 147 352 6766 6280 6251 3063 1799 1797 1628 1627 4791 4790 6110 4443 6284 5712 971 972 5829 5831 6343 2265 2264 6066 6539 6550 5584 2286 2615 2971 3659 6633 658 4567 2395 6317 3534 1495 629 2650 1211 6896 7010 6653 11 7055 4005 6266 2249 6546 6667 657 4568 3051 2880 6240 4629 5102 2094 5488 1830 1841 2784 4015 2065 2064 4962 1378 1377 5015 3452 3053 3526 6249 1631 630 623 5582 5385 2783 6260 6203 2652 3126 4211 6452 1210 5428 3369 3918 5982 2132 2276 6637 5352 5353 5363 148 4730 6619 4100 3166 6253 3062 3011 5138 1511 1510 6087 6104 1637 6136 2760 969 970 1844 3066 3972 6326 1811 1810 2998 6015 2207 1790 2224 2782 3523 3660 2071 656 4052 1675 6307 2445 5946 624 3057 1208 2179 10 6202 5446 2601 5439 6632 655 6651 3201 3210 5103 1881 1676 1615 1613 1612 5704 4016 6324 2066 5610 5863 1194 1193 5974 3520 5106 6226 5435 568 637 569 6178 6209 6242 3989 6213 6781 6789 6785 1207 1209 5771 5915 5962 2130 2131 2807 5350 5351 5362 149 4731 4733 6955 3165 2665 3506 3906 4525 3344 1309 1195 1029 992 988 986 967 968 4757 4701 3067 6318 3543 1700 1357 5891 5662 1571 1789 5296 3960 6215 6627 4850 654 4259 1616 2990 2446 2175 5651 6779 1206 7015 6503 9 6143 966 3068 1455 4851 653 5105 5104 4260 5484 1879 1878 1614 1482 1481 5746 6271 5019 2712 3877 5111 760 555 6105 6179 6197 2142 566 567 6159 2593 3517 5505 3529 3511 6774 5269 3700 5281 1204 5515 3914 5459 2128 2129 5528 6908 5349 5348 415 150 380 4732 3167 2664 2309 5928 6086 4823 4822 1196 1039 1015 991 987 985 965 5861 5846 3994 3992 6302 5660 1355 1356 1359 1375 1570 5789 6167 6196 2961 5806 775 652 3588 5282 5018 2713 5677 6124 3710 1205 776 8 6853 2589 964 3993 1454 4312 651 6424 2797 2440 1965 1880 3366 5041 1371 1370 1514 6245 3956 3278 3878 5112 551 552 5472 3377 5579 564 565 5548 3516 6092 3036 5413 2536 2537 6423 2824 2140 1202 1203 2120 2122 2124 2127 2374 6783 5346 5347 5355 151 4484 6864 4243 5943 2308 1905 1706 5953 5434 1284 1227 4664 6039 2040 5970 5205 963 2772 6128 6182 6269 2232 1353 1354 1358 1360 1376 3015 6083 3467 2405 2960 3211 6609 650 3586 5044 3280 3279 554 3519 3645 2119 6416 7 6848 1588 962 6212 5445 4022 649 3983 2796 2437 1966 5654 5748 5042 1257 1256 6230 4703 3955 5244 5533 548 549 553 557 559 561 563 5624 5950 3013 4965 2225 2226 2535 6768 3887 2805 1201 1192 5555 2121 2123 2125 5506 5344 5343 5345 334 152 425 7006 4242 4241 2355 1942 1824 1663 1550 1423 1323 5932 4425 4535 4435 6053 3934 960 5821 5808 2221 5454 1351 1352 5766 4736 1411 1412 6029 5407 2222 2404 2962 3632 6606 648 3587 5043 3841 4428 556 4964 3886 5812 6400 6 6718 1587 959 5864 5874 6646 647 4433 5263 2438 2439 2953 5989 1409 1019 1018 2180 6208 4399 1697 546 547 5705 4870 558 560 562 627 5645 3006 2217 5589 2218 2534 3124 6418 4611 5442 1175 1191 3380 5876 2126 2318 5500 5342 5341 5354 153 6624 6925 4240 4029 6082 2349 5947 1850 1549 1456 1573 4424 4404 3416 3262 5784 5830 958 961 1277 1279 1349 1350 2933 4737 3331 1512 1513 5648 2210 2211 5574 6046 6597 1136 646 4434 6151 4986 4987 2084 1954 4950 3909 7002 1290 5 7047 4028 4654 956 1281 1709 4868 645 6368 4911 2441 2442 5680 4382 6166 927 533 5843 5242 2746 544 545 2745 4869 4480 5644 5295 1140 1270 1474 1476 1955 1558 5663 3125 6765 4951 2092 1152 1174 2164 3381 5918 2319 2548 3096 5339 6903 5340 154 6961 430 4235 4236 4027 6037 4377 6160 5801 4655 1574 1683 2691 4403 3234 2694 2434 954 957 1276 1278 1280 1317 5832 4641 4640 5478 1707 1708 1711 1815 5798 5954 3453 3646 4867 644 4912 4383 5626 542 5322 1777 1150 5394 6361 0 3852 4656 955 1316 1710 6594 643 4914 2999 2581 2918 3817 4381 5260 527 528 532 535 537 543 5245 4427 3853 3315 3876 5294 1274 1401 1475 1535 3403 1736 6762 6764 3705 5249 1148 1151 5593 3628 6571 2730 2549 2660 6760 374 5338 155 309 4234 6945 4026 3850 3848 3847 5887 5235 1684 1839 4333 3276 2915 2571 953 952 4750 2736 4668 1580 1418 4642 3298 2699 2033 1971 5656 1712 1816 2208 2506 3105 3647 2085 642 4913 2720 539 541 3313 5590 1149 6580 2197 308 386 3851 2938 6373 4746 5489 6589 641 6332 4915 2937 3816 4368 5241 524 525 531 534 536 538 5853 6148 3943 3316 3314 2974 1639 1417 5529 5208 1737 6759 1884 4080 3703 1271 1146 1147 1361 6559 6567 3629 6569 3118 3183 5336 5337 156 307 6763 7026 3849 3749 3172 2939 1903 1840 5635 4389 3277 4725 5404 950 951 4334 4332 6256 4748 4745 4744 2700 2505 2504 3326 4524 1972 1973 2287 2627 5716 6635 4989 640 4552 522 540 550 2975 2499 6552 4032 6323 306 4276 6892 2357 5288 4747 2717 4991 505 4553 3819 3818 5240 1440 520 523 5396 5395 1883 5470 5121 2177 4821 3944 6312 6279 1842 1699 3364 5909 2742 1885 6405 2497 3704 3338 1145 1049 6551 6553 4036 3117 3116 6591 6593 7044 5334 157 305 355 5424 3748 3171 2940 1912 1936 2160 4475 5759 3857 949 948 6235 3813 3811 3810 5527 4825 2702 2701 4844 4045 4496 3594 2512 5004 2628 3119 3668 6577 4990 501 4551 521 749 750 3542 6401 4714 5450 5335 6315 304 4229 5685 3865 2912 2802 5504 502 4561 4549 4550 5387 518 519 6250 4391 4390 5628 5122 5090 6189 6273 6300 4013 6291 5166 3553 3591 5320 5065 2498 4671 2820 4670 5206 1037 1048 5980 4037 3337 2645 2644 4065 4092 326 158 303 6861 4699 3683 3842 1937 2019 5724 4327 3858 1435 947 946 6241 3812 3092 3090 2913 2704 2703 5317 6565 6572 6348 3595 5456 3339 3120 3648 6631 1473 499 500 1886 1890 751 752 6354 3699 4713 2659 6929 504 302 393 4749 6247 2706 3642 496 503 507 6294 5388 516 517 4785 4786 3822 3820 3821 5427 1517 1515 5926 3395 3073 5409 6363 6383 6367 5066 3574 2821 6391 3698 2288 1017 1036 6547 5023 4712 5250 2467 2643 3189 4305 159 6874 7001 4182 4120 4444 2311 2312 2898 4310 3859 4669 945 944 1745 4686 3091 3089 3088 2705 3106 6505 3590 2800 6358 4056 4547 3649 4942 6630 5473 494 497 5411 509 4778 753 754 3087 4079 5022 3188 506 301 6812 2822 4687 4792 6603 495 4916 508 511 513 515 6298 4779 3823 2954 2923 5664 4909 4908 5886 3900 2995 2470 2471 5633 2787 6375 6386 3575 6753 6388 6755 938 1016 1312 5942 5024 2468 2465 2466 5601 4188 413 160 7046 6846 6971 2495 2496 5755 4369 6419 2088 943 942 6264 3630 3619 4835 4793 3107 3622 6501 2161 479 6596 6598 6614 6621 6625 3384 492 493 6310 4364 510 4777 756 757 2473 6752 5224 4189 1447 300 335 4219 6943 6494 4794 1242 1888 4363 5457 512 514 526 6309 6321 4776 2696 2695 3270 5172 4907 5805 5071 1958 1959 2472 2475 2477 2790 6711 6751 5226 930 1185 937 6536 6540 5184 5182 2463 2464 2865 6843 4304 161 4225 4220 2550 2551 2896 6403 4367 4992 941 529 5851 6500 6509 6513 6526 6542 6543 5684 473 474 476 478 5710 2152 5702 490 491 5306 4826 3808 2723 4780 1026 1042 2474 913 2462 6950 7022 4917 299 4218 4217 2774 6528 481 4695 3806 6102 5480 928 934 1416 4782 3005 2690 2689 5820 3913 1243 1261 1389 1501 5585 3938 2476 2636 5632 6359 5227 5225 929 907 6531 5188 5185 5183 5181 2371 5535 5809 5314 372 162 4275 298 2818 2819 5774 4294 4295 4993 449 450 452 5854 893 5834 2170 3621 469 470 472 475 477 480 483 485 487 489 6378 4696 3809 2945 4865 4781 1043 1260 5477 912 2362 3807 4216 391 3212 454 5826 482 4694 2914 5919 4864 935 1246 6339 6350 4783 2433 2432 5255 1372 1245 1388 1499 5817 5990 6056 2773 3112 3702 6349 5228 901 1228 906 5902 5187 5186 5189 2317 2370 3383 6996 5313 163 297 2854 2887 3231 4293 6507 447 448 451 453 456 458 460 462 467 468 471 6248 2212 4923 940 484 486 488 498 6392 6412 4693 2580 4862 4784 5415 5175 3930 6517 2361 4124 5723 4215 4255 296 6860 455 464 5031 4691 2451 4863 1410 1247 1385 2178 6371 3004 2250 1694 1507 1384 5537 1500 1581 5669 3009 6078 3473 3474 6707 914 884 900 6519 5703 3893 5211 2459 2242 2316 3143 4123 5312 164 2888 3229 4292 1566 445 446 5941 4344 2167 457 459 461 463 466 5578 6377 4925 4924 4922 4921 4278 5649 530 570 2199 4692 3023 2450 4861 6380 5176 2982 6100 4023 5667 6907 2935 295 316 6932 4097 5236 465 3775 4690 2449 5125 4860 1386 1518 5790 3544 5070 2216 1685 1520 2587 6043 1582 1695 1862 2302 2809 3670 4072 6341 868 883 1044 3616 6511 3892 5822 2240 2241 2845 4125 6777 165 320 3230 5210 5074 443 444 5764 4249 4248 4345 1137 5509 5003 706 5668 6012 6578 4926 6602 3228 3226 5030 2139 571 572 6422 6428 4689 2448 4858 6390 6647 5028 6123 3253 7030 5614 294 4156 4098 4346 1244 3225 3603 2431 4859 4857 1519 1713 2600 3115 6445 6415 2290 6665 6666 4610 1696 1856 2291 2808 3239 6708 6705 859 867 5713 6487 3060 5010 5474 2238 2239 5673 5200 5199 5203 166 7011 4290 2284 441 442 2145 5050 3577 3268 3267 6495 4997 4995 1674 5828 3017 6557 4047 6601 3227 3224 4280 5029 573 574 1291 4787 3024 2447 3323 3652 6645 1858 6697 3058 6919 2430 293 6461 4279 6411 1831 3223 3242 2252 5232 1715 1714 2282 3114 3651 3977 6640 6662 4322 4323 2959 1857 5581 3382 6696 6695 1177 818 858 2259 6478 5009 2458 3059 2236 2237 2543 5927 5201 5198 410 167 5406 439 440 5727 4247 3578 3269 3266 2873 4998 4996 1882 1832 2021 2562 2909 4046 6604 4883 3222 5641 1325 575 576 6438 3991 3025 5554 1717 3662 1860 1859 5165 2715 1848 292 390 4179 2872 2020 3221 3568 2251 1719 1716 5549 3372 6617 6623 3978 6257 4320 4321 4609 1863 2524 6688 6691 5163 5164 814 817 5720 6470 3601 5008 2235 3875 1995 5606 5850 7042 5202 5197 168 437 438 886 4477 3580 3579 5991 3265 2741 5002 4999 5000 2022 2561 2908 3782 4274 6146 4884 2771 6504 5021 577 578 6449 6458 3569 5910 1718 6626 1861 5534 812 5223 4110 1847 291 4272 435 2740 5517 3209 3570 5956 1720 2280 6047 6611 4053 2514 6628 4051 4319 2523 2261 1980 6687 5158 5162 2525 810 813 931 6459 3599 3600 5988 1836 5222 1994 3387 3389 6922 366 169 436 6548 6734 4380 4386 4387 6021 4758 2739 3199 5001 5963 4266 4263 6085 5239 1829 5770 2414 2770 3784 5020 579 580 777 4458 3571 4663 5572 5410 2485 6685 811 1818 4109 1849 290 311 434 2738 3770 3432 3572 1970 1952 5985 3953 6205 2513 1821 3122 4050 4325 2522 2521 5736 5157 5155 5154 808 809 5734 6454 3597 3598 4945 1951 1835 1776 2637 3388 3783 6792 170 2271 4370 3581 2891 5813 2010 3868 5333 2737 5757 3826 5426 3205 5516 3347 1611 1783 1943 2412 5785 4378 728 581 582 6471 4459 4416 4560 5804 1822 6314 5159 2247 1817 4152 1953 289 433 4245 2394 2876 5949 4813 5119 2023 3556 3796 6193 936 1632 3121 6649 6652 3129 3130 3685 5156 920 806 807 5742 6439 3596 3040 5692 5898 1774 5694 1775 3393 6612 6882 171 6984 4246 6599 2890 2422 2009 1779 5807 4759 1567 2663 3825 6237 2697 5109 1491 1575 1784 1944 2413 2889 6397 4571 583 584 6479 6492 3322 3320 2791 2763 4070 6304 6432 2365 2281 288 389 6379 1950 1534 6514 4814 2509 2507 3554 6595 922 921 5608 3123 4326 3697 3664 3684 4069 5160 804 805 888 6210 3615 3039 2718 5151 1772 1773 6171 6130 6194 4985 310 172 3566 2892 2423 2073 1778 1610 1508 1479 1478 3446 6216 2947 2588 1472 1490 5945 6007 2415 2416 6466 4531 2072 585 586 1638 4815 3321 3109 2801 3925 6682 5161 4876 6154 2508 287 4265 3759 5763 1471 4532 3650 3108 5630 3555 6175 899 898 5911 3926 6654 6678 6679 6680 6681 802 803 5751 6190 3839 4875 2602 1969 1770 1771 2141 4077 4702 4140 4984 173 3273 3272 5547 4852 1733 1548 1480 1404 1403 6054 4516 4515 4715 1406 5772 3933 6055 2417 2418 2893 4530 4529 587 588 6518 6533 3620 5107 3633 5977 2096 800 5390 3793 7016 3110 286 4221 4222 2168 1288 6413 6541 3627 5903 4042 6157 778 779 781 6019 905 5583 2297 5577 5261 801 2202 6153 3837 3838 2603 2061 1769 1768 6089 6112 4076 3791 6902 174 408 3282 4426 4501 1906 1870 5612 4497 1305 1304 5622 4570 3318 1165 1405 2996 3931 5690 2419 2420 5811 4335 591 589 590 5753 2768 6544 6549 6587 783 798 799 4359 3792 3653 285 315 7009 5793 1287 3583 5701 6554 6576 6592 764 765 780 782 785 787 789 791 793 795 5672 6127 3835 3836 3840 5284 4760 1765 1767 5093 3790 4244 3789 6804 175 4223 4450 2684 2313 1907 2955 6382 4468 1232 1126 3365 5064 1124 1164 1698 2997 6101 5137 2421 2480 3077 4303 4385 592 593 596 598 1234 5674 1630 784 797 5689 6259 5604 6562 284 4262 6962 1118 5847 3582 600 2727 5124 747 748 5767 4575 2169 786 788 790 792 794 796 6088 3834 3833 5737 6233 3329 1763 1764 6052 5092 3787 349 3788 176 6642 4533 2653 2401 5700 4467 4466 1315 1231 1125 1116 1115 1119 2455 3424 3425 6155 2482 2481 3076 3576 6406 6024 594 595 597 599 602 604 741 5420 815 2165 5131 7024 5621 283 392 3771 1117 5848 4405 601 606 734 742 5765 4330 4329 4576 1275 5568 2146 4494 5930 816 5858 3832 3831 5631 1766 1761 1762 1991 5147 3431 3786 4988 6905 177 7049 2921 2670 2671 4994 3240 4317 4502 1941 6270 1107 1106 5743 6057 3426 3524 6191 5270 3093 6389 6442 2707 1052 616 5647 3390 5580 603 605 735 6129 865 5873 1759 608 282 6636 3168 4522 3981 6396 1629 607 610 1477 5862 3800 3798 3799 4493 4491 4490 5936 2090 866 5095 3444 3830 6204 1758 1760 5869 5966 3429 3430 4130 178 409 4224 2922 5059 5058 3237 3238 6044 4336 5556 4410 1099 1098 3441 6145 3979 3980 6330 6410 6372 5049 1625 1054 1053 2118 6455 6468 6402 5596 4768 5923 5676 891 5696 1757 609 281 3674 3169 2693 6214 1056 4766 611 5937 4740 3801 2946 2902 5603 4492 4489 4487 4486 4928 892 2987 3443 5783 2453 1756 5557 5425 3427 3428 5739 6686 179 4226 6489 3802 3217 3218 5972 3439 3440 3824 4361 1086 1085 5756 4834 6243 6219 5084 5047 5046 5048 1058 1055 5455 6446 4030 4031 4767 4763 2721 4741 2905 918 1010 1755 7034 612 280 6946 3755 3754 4445 2063 1057 4764 613 6440 4739 4738 2579 2409 2407 5542 4488 3867 3866 5595 919 2986 3485 6158 4873 1735 2755 2757 2864 3750 6923 180 313 333 6497 2029 2028 5733 3437 3438 3496 3917 6150 1083 1081 1078 1075 5091 1272 5083 2711 5045 1060 1059 1273 6437 3589 3070 6435 6441 4762 4761 6451 2406 1008 2985 1754 614 279 6847 3756 3797 5148 1073 5419 4765 615 2205 3617 3041 2490 2408 2048 2762 5400 3328 2059 1022 1009 6070 6114 4874 1657 1734 2756 2861 5741 6810 4976 181 4227 4667 2027 2025 2024 3373 5968 6091 6122 2050 1082 1080 1077 1074 1071 1069 1067 1065 1062 1061 2754 6420 3618 3069 2608 2609 4953 4952 939 5693 2047 5643 5979 5780 617 278 4284 4283 4441 1096 1072 6394 4724 618 6457 3606 3042 5758 5769 2046 5838 3846 3263 1176 1023 1027 5616 2596 1636 1656 2034 3412 3413 4177 405 182 394 6936 2304 2026 1838 1837 5768 2087 4843 4637 1100 1084 5191 2089 5096 1070 1068 1066 1064 1063 5430 6381 4807 4824 2607 2266 6460 6483 4723 5209 6469 2045 5839 3445 5796 619 277 4083 3259 4872 1097 1079 4805 4720 620 622 3607 3608 4648 2049 2044 5393 5011 3319 5117 1028 1153 5615 1634 1635 6006 6096 3414 4143 4944 183 4228 4623 4392 5072 1465 1336 1229 1121 1112 1105 1104 6200 6236 6283 6313 5248 2716 5179 1076 1087 6198 4806 4804 2610 2253 2196 2484 4721 4718 2058 5443 2043 1413 1415 6137 7000 621 276 3244 3243 3245 2203 6337 4803 4719 625 6475 3609 3610 5961 4931 2042 2949 5247 5118 5006 1154 1252 1458 1593 5944 3923 3502 6165 6918 184 364 347 6947 4117 4615 4614 1459 1322 1197 1120 1111 1110 5844 5747 3551 3530 3573 6357 6366 6342 1088 1089 1633 6181 4802 4795 2195 2194 6488 6490 4717 4716 6485 2041 1414 1457 3525 626 275 2927 2926 5719 6163 5561 4799 4722 628 2258 3611 4517 3864 5293 1877 5625 3845 5246 1254 1253 5675 1592 1845 5646 3101 3102 4132 6801 185 7017 6664 4665 4572 1521 1460 5896 3397 5213 1127 1128 5845 3552 3079 3078 5706 4018 4448 1626 1090 1091 6177 4800 4796 2426 2193 2192 2489 4975 4974 633 4918 1875 3014 5682 4131 631 274 4166 2837 2310 1823 4772 3085 4798 4711 632 6493 4518 3044 2930 2233 1876 1873 1871 1262 1255 5552 5999 1846 1963 2385 3100 5722 4185 186 6719 3760 2838 1551 1522 2215 5889 5214 2744 1187 1188 2978 4771 2605 2604 2606 3967 6352 5098 1092 1093 6174 4963 4797 5451 2191 2190 6499 6508 4710 5230 6506 1874 6093 3508 6985 636 273 4128 2360 2095 1677 5920 3065 4801 4708 638 709 4519 3043 2929 2928 5136 1872 1387 1263 1265 5884 3949 1964 2368 2785 3173 4213 187 322 379 6966 3184 2839 1552 5935 6126 5216 5215 5332 1285 1286 5788 4773 2243 2244 2777 3968 5099 5097 1094 1095 1166 5938 4808 2460 2189 2188 2491 4709 4706 2056 4520 2936 6125 6147 639 272 4886 5940 4698 1678 4941 6111 3928 4707 705 6524 3623 3045 5458 4538 4539 5193 5052 1266 1340 2591 3019 2369 5800 3174 4090 6878 188 4230 4233 3185 3417 1749 5752 6244 5217 5218 1368 1366 1367 1443 1804 1805 5718 6084 6414 6421 1102 1101 1103 5866 3927 6072 4983 2187 2186 6510 6563 4705 4704 6525 5513 3945 6168 713 271 3419 6071 1751 1750 1445 3481 3294 6570 716 2204 3624 4374 4537 3264 5865 5053 4943 1341 1431 2592 3020 6228 6262 6278 5139 189 395 4231 6858 3418 5922 1752 2461 6287 6335 5324 5323 1441 1442 1444 1578 2992 6031 3480 3976 6426 6486 1108 1109 5688 2766 3895 6059 2185 2184 2492 5803 6579 723 4464 3295 5823 3984 7007 719 270 3420 6220 5530 1913 1446 2794 2984 3626 722 6527 4461 3241 2503 2031 1869 5243 1433 1432 5707 3021 3022 3985 4048 6888 362 190 4267 4232 6970 3584 3421 3528 1914 5814 3363 6364 6374 4014 2972 5657 1469 5607 5959 5272 2428 5661 4398 6429 1113 1114 1170 1258 6048 4948 2183 2182 5650 3394 6515 4647 6529 1867 3456 3459 727 269 3422 6275 2275 2273 1470 2793 3436 3625 732 737 4462 3055 2502 1948 1868 1449 1434 5571 3924 3454 3455 3986 4049 6710 191 6960 6976 6558 4126 3423 3546 2274 2569 2788 3086 6387 4612 4613 5562 1561 5573 5318 2201 2427 3235 4397 1135 1122 1123 1171 5569 6032 2778 2181 2159 2493 2934 4646 2054 4463 1584 3457 5833 736 4 6622 5987 6303 6316 2567 1562 2795 6025 6523 744 6582 3643 3056 5491 2052 5152 1450 1463 6016 6067 4828 3458 5981 5114 192 268 428 4460 6978 3547 3548 2568 2570 3016 3855 6229 3871 4937 1662 1658 1660 1791 2200 5881 4395 3236 2970 5391 1172 1173 5897 5178 5177 2157 2158 2494 3518 4645 4644 6573 5153 3460 4134 755 267 4193 4150 6345 4357 1659 5901 5440 6522 762 2272 3644 4409 4534 5292 3856 1464 1553 1655 5841 4666 3461 7021 193 266 384 4099 4149 2823 5679 4356 6234 2511 2379 1911 1910 5389 1661 1792 5560 3916 3612 3303 3882 4856 1237 1238 1320 3371 2155 2156 5444 3959 6192 6618 772 4504 5174 3462 328 4141 766 265 6875 4151 6409 4352 5219 6450 5570 3635 771 6584 4503 3289 3285 3283 2968 1554 1651 6142 3854 3464 3463 194 264 5429 7014 6911 4350 3872 3232 2654 2510 2378 2377 5403 3896 1793 1794 1967 2672 3613 5076 5075 1408 1318 1319 1321 2153 2154 5729 6135 6169 2917 6530 6532 6590 1653 6981 6900 774 263 6826 4353 4351 2732 5078 1373 3634 863 870 4631 3286 3284 2969 1819 1652 1753 5882 3466 3465 5068 5067 195 353 262 4599 4106 3233 3197 2851 5486 2860 3890 5890 2734 1908 1909 1968 6462 5077 2263 2101 2100 5094 1362 1363 1494 3012 6068 3451 2780 2916 4308 2262 4400 1654 6986 869 398 4653 6973 2733 5079 1374 3636 887 6607 3288 3287 5531 4751 1820 5658 6222 6293 3537 3716 6877 360 196 261 260 4165 5475 3763 3764 5129 3891 5237 2840 2836 5238 2303 2899 5195 5194 2103 2102 5559 4880 4878 1429 5498 6004 5289 1932 2598 6535 4617 4616 4041 2108 904 259 339 5397 3275 1430 4618 924 6610 3640 3641 4752 2260 2109 5929 3531 6306 3717 4071 5069 197 258 403 6865 7019 4137 6835 5127 7012 3726 3722 4890 3351 2900 6480 6474 2105 2104 2586 4881 4879 4877 1527 5867 5543 1892 1931 2599 4620 4619 1012 6629 2110 926 257 3355 2107 1528 4376 1011 1139 3657 6656 6661 6641 2292 2294 2552 5695 4180 6832 198 256 6823 6924 329 5128 6838 4891 5026 3352 3353 4358 2545 2106 5598 5895 4882 4919 1605 1601 1603 1606 1788 5638 6620 5441 4375 6162 6613 2293 1014 255 5126 6906 5025 2544 1602 3510 1045 6184 6650 3658 4043 5135 5134 2384 6331 6615 337 199 254 253 252 5130 6545 370 5027 6927 3354 3614 6473 5113 2546 3376 4920 2941 1898 1897 4810 1604 1607 5730 5957 3637 3220 3885 6131 4418 2519 6992 1142 251 4171 2853 4743 3509 1198 6149 3515 3514 6643 6648 4054 2852 3724 4252 6913 200 250 7036 249 317 4073 4107 4969 3196 2932 6008 6028 2351 2350 5609 5412 1681 1682 2138 4947 3219 2882 6252 1294 4417 3654 1233 248 6954 4429 3170 4734 6094 1293 1296 3513 3128 3127 6669 6657 3723 4251 6866 201 247 246 6934 6872 4967 4966 3281 4420 2828 2827 2829 3271 4735 1851 1852 6585 3950 2881 2758 4558 4557 6108 3725 1295 245 7052 4121 2279 3254 1369 6069 3512 2804 2803 2810 4354 4172 401 202 369 6538 419 4968 4122 4818 4816 3159 3160 5564 6118 2278 2554 6583 6575 2688 2687 6002 4556 4639 4173 1400 244 6915 5315 5908 1426 6042 4638 2003 2307 6660 4355 4250 203 243 242 241 324 4819 4817 4129 3207 3208 4159 4396 2555 2877 3904 5265 2017 1979 4634 1532 4742 6926 6988 1466 240 6862 2879 1919 1531 1557 2001 2002 2841 6754 6722 345 204 239 4820 6983 6879 4039 4158 4160 4636 2878 3213 6568 2352 2016 1978 1671 1670 1739 1556 238 4635 1918 4608 1738 2000 6600 6534 4607 4606 205 376 237 5566 6608 6956 6869 6463 3214 3631 6561 5221 2666 4584 1917 5925 1998 6998 4495 332 4096 2392 6011 1999 5868 4258 4257 397 6887 206 236 235 234 5637 421 4281 4094 4095 4589 4586 4585 4700 2393 2973 2372 3888 233 4178 2621 6073 2373 2646 4256 4176 207 6743 232 231 6989 6881 4590 4588 4587 4191 3200 2622 4328 2556 4483 230 341 3139 4485 2557 6061 4175 357 208 229 7040 6944 6852 4190 3665 4660 3803 2855 2857 228 6693 3785 2859 2856 3758 4174 209 423 5797 351 4192 6737 4523 3181 3757 6997 2858 227 7053 6876 3180 5110 4169 6884 210 226 225 224 6967 223 378 4119 4118 6977 3182 6735 4811 4452 383 211 222 221 4170 6964 6969 6898 220 6845 4453 4451 212 219 387 4454 5955 427 213 218 431 217 6787 214 6975 216 215 3 </DataArray>
        <DataArray type="UInt8" Name="vtkGhostType" format="ascii" RangeMin="0" RangeMax="0">0 0 0 0 0 0 0 0 0 0 0 0 0 0 0 0 0 0 0 0 0 0 0 0 0 0 0 0 0 0 0 0 0 0 0 0 0 0 0 0 0 0 0 0 0 0 0 0 0 0 0 0 0 0 0 0 0 0 0 0 0 0 0 0 0 0 0 0 0 0 0 0 0 0 0 0 0 0 0 0 0 0 0 0 0 0 0 0 0 0 0 0 0 0 0 0 0 0 0 0 0 0 0 0 0 0 0 0 0 0 0 0 0 0 0 0 0 0 0 0 0 0 0 0 0 0 0 0 0 0 0 0 0 0 0 0 0 0 0 0 0 0 0 0 0 0 0 0 0 0 0 0 0 0 0 0 0 0 0 0 0 0 0 0 0 0 0 0 0 0 0 0 0 0 0 0 0 0 0 0 0 0 0 0 0 0 0 0 0 0 0 0 0 0 0 0 0 0 0 0 0 0 0 0 0 0 0 0 0 0 0 0 0 0 0 0 0 0 0 0 0 0 0 0 0 0 0 0 0 0 0 0 0 0 0 0 0 0 0 0 0 0 0 0 0 0 0 0 0 0 0 0 0 0 0 0 0 0 0 0 0 0 0 0 0 0 0 0 0 0 0 0 0 0 0 0 0 0 0 0 0 0 0 0 0 0 0 0 0 0 0 0 0 0 0 0 0 0 0 0 0 0 0 0 0 0 0 0 0 0 0 0 0 0 0 0 0 0 0 0 0 0 0 0 0 0 0 0 0 0 0 0 0 0 0 0 0 0 0 0 0 0 0 0 0 0 0 0 0 0 0 0 0 0 0 0 0 0 0 0 0 0 0 0 0 0 0 0 0 0 0 0 0 0 0 0 0 0 0 0 0 0 0 0 0 0 0 0 0 0 0 0 0 0 0 0 0 0 0 0 0 0 0 0 0 0 0 0 0 0 0 0 0 0 0 0 0 0 0 0 0 0 0 0 0 0 0 0 0 0 0 0 0 0 0 0 0 0 0 0 0 0 0 0 0 0 0 0 0 0 0 0 0 0 0 0 0 0 0 0 0 0 0 0 0 0 0 0 0 0 0 0 0 0 0 0 0 0 0 0 0 0 0 0 0 0 0 0 0 0 0 0 0 0 0 0 0 0 0 0 0 0 0 0 0 0 0 0 0 0 0 0 0 0 0 0 0 0 0 0 0 0 0 0 0 0 0 0 0 0 0 0 0 0 0 0 0 0 0 0 0 0 0 0 0 0 0 0 0 0 0 0 0 0 0 0 0 0 0 0 0 0 0 0 0 0 0 0 0 0 0 0 0 0 0 0 0 0 0 0 0 0 0 0 0 0 0 0 0 0 0 0 0 0 0 0 0 0 0 0 0 0 0 0 0 0 0 0 0 0 0 0 0 0 0 0 0 0 0 0 0 0 0 0 0 0 0 0 0 0 0 0 0 0 0 0 0 0 0 0 0 0 0 0 0 0 0 0 0 0 0 0 0 0 0 0 0 0 0 0 0 0 0 0 0 0 0 0 0 0 0 0 0 0 0 0 0 0 0 0 0 0 0 0 0 0 0 0 0 0 0 0 0 0 0 0 0 0 0 0 0 0 0 0 0 0 0 0 0 0 0 0 0 0 0 0 0 0 0 0 0 0 0 0 0 0 0 0 0 0 0 0 0 0 0 0 0 0 0 0 0 0 0 0 0 0 0 0 0 0 0 0 0 0 0 0 0 0 0 0 0 0 0 0 0 0 0 0 0 0 0 0 0 0 0 0 0 0 0 0 0 0 0 0 0 0 0 0 0 0 0 0 0 0 0 0 0 0 0 0 0 0 0 0 0 0 0 0 0 0 0 0 0 0 0 0 0 0 0 0 0 0 0 0 0 0 0 0 0 0 0 0 0 0 0 0 0 0 0 0 0 0 0 0 0 0 0 0 0 0 0 0 0 0 0 0 0 0 0 0 0 0 0 0 0 0 0 0 0 0 0 0 0 0 0 0 0 0 0 0 0 0 0 0 0 0 0 0 0 0 0 0 0 0 0 0 0 0 0 0 0 0 0 0 0 0 0 0 0 0 0 0 0 0 0 0 0 0 0 0 0 0 0 0 0 0 0 0 0 0 0 0 0 0 0 0 0 0 0 0 0 0 0 0 0 0 0 0 0 0 0 0 0 0 0 0 0 0 0 0 0 0 0 0 0 0 0 0 0 0 0 0 0 0 0 0 0 0 0 0 0 0 0 0 0 0 0 0 0 0 0 0 0 0 0 0 0 0 0 0 0 0 0 0 0 0 0 0 0 0 0 0 0 0 0 0 0 0 0 0 0 0 0 0 0 0 0 0 0 0 0 0 0 0 0 0 0 0 0 0 0 0 0 0 0 0 0 0 0 0 0 0 0 0 0 0 0 0 0 0 0 0 0 0 0 0 0 0 0 0 0 0 0 0 0 0 0 0 0 0 0 0 0 0 0 0 0 0 0 0 0 0 0 0 0 0 0 0 0 0 0 0 0 0 0 0 0 0 0 0 0 0 0 0 0 0 0 0 0 0 0 0 0 0 0 0 0 0 0 0 0 0 0 0 0 0 0 0 0 0 0 0 0 0 0 0 0 0 0 0 0 0 0 0 0 0 0 0 0 0 0 0 0 0 0 0 0 0 0 0 0 0 0 0 0 0 0 0 0 0 0 0 0 0 0 0 0 0 0 0 0 0 0 0 0 0 0 0 0 0 0 0 0 0 0 0 0 0 0 0 0 0 0 0 0 0 0 0 0 0 0 0 0 0 0 0 0 0 0 0 0 0 0 0 0 0 0 0 0 0 0 0 0 0 0 0 0 0 0 0 0 0 0 0 0 0 0 0 0 0 0 0 0 0 0 0 0 0 0 0 0 0 0 0 0 0 0 0 0 0 0 0 0 0 0 0 0 0 0 0 0 0 0 0 0 0 0 0 0 0 0 0 0 0 0 0 0 0 0 0 0 0 0 0 0 0 0 0 0 0 0 0 0 0 0 0 0 0 0 0 0 0 0 0 0 0 0 0 0 0 0 0 0 0 0 0 0 0 0 0 0 0 0 0 0 0 0 0 0 0 0 0 0 0 0 0 0 0 0 0 0 0 0 0 0 0 0 0 0 0 0 0 0 0 0 0 0 0 0 0 0 0 0 0 0 0 0 0 0 0 0 0 0 0 0 0 0 0 0 0 0 0 0 0 0 0 0 0 0 0 0 0 0 0 0 0 0 0 0 0 0 0 0 0 0 0 0 0 0 0 0 0 0 0 0 0 0 0 0 0 0 0 0 0 0 0 0 0 0 0 0 0 0 0 0 0 0 0 0 0 0 0 0 0 0 0 0 0 0 0 0 0 0 0 0 0 0 0 0 0 0 0 0 0 0 0 0 0 0 0 0 0 0 0 0 0 0 0 0 0 0 0 0 0 0 0 0 0 0 0 0 0 0 0 0 0 0 0 0 0 0 0 0 0 0 0 0 0 0 0 0 0 0 0 0 0 0 0 0 0 0 0 0 0 0 0 0 0 0 0 0 0 0 0 0 0 0 0 0 0 0 0 0 0 0 0 0 0 0 0 0 0 0 0 0 0 0 0 0 0 0 0 0 0 0 0 0 0 0 0 0 0 0 0 0 0 0 0 0 0 0 0 0 0 0 0 0 0 0 0 0 0 0 0 0 0 0 0 0 0 0 0 0 0 0 0 0 0 0 0 0 0 0 0 0 0 0 0 0 0 0 0 0 0 0 0 0 0 0 0 0 0 0 0 0 0 0 0 0 0 0 0 0 0 0 0 0 0 0 0 0 0 0 0 0 0 0 0 0 0 0 0 0 0 0 0 0 0 0 0 0 0 0 0 0 0 0 0 0 0 0 0 0 0 0 0 0 0 0 0 0 0 0 0 0 0 0 0 0 0 0 0 0 0 0 0 0 0 0 0 0 0 0 0 0 0 0 0 0 0 0 0 0 0 0 0 0 0 0 0 0 0 0 0 0 0 0 0 0 0 0 0 0 0 0 0 0 0 0 0 0 0 0 0 0 0 0 0 0 0 0 0 0 0 0 0 0 0 0 0 0 0 0 0 0 0 0 0 0 0 0 0 0 0 0 0 0 0 0 0 0 0 0 0 0 0 0 0 0 0 0 0 0 0 0 0 0 0 0 0 0 0 0 0 0 0 0 0 0 0 0 0 0 0 0 0 0 0 0 0 0 0 0 0 0 0 0 0 0 0 0 0 0 0 0 0 0 0 0 0 0 0 0 0 0 0 0 0 0 0 0 0 0 0 0 0 0 0 0 0 0 0 0 0 0 0 0 0 0 0 0 0 0 0 0 0 0 0 0 0 0 0 0 0 0 0 0 0 0 0 0 0 0 0 0 0 0 0 0 0 0 0 0 0 0 0 0 0 0 0 0 0 0 0 0 0 0 0 0 0 0 0 0 0 0 0 0 0 0 0 0 0 0 0 0 0 0 0 0 0 0 0 0 0 0 0 0 0 0 0 0 0 0 0 0 0 0 0 0 0 0 0 0 0 0 0 0 0 0 0 0 0 0 0 0 0 0 0 0 0 0 0 0 0 0 0 0 0 0 0 0 0 0 0 0 0 0 0 0 0 0 0 0 0 0 0 0 0 0 0 0 0 0 0 0 0 0 0 0 0 0 0 0 0 0 0 0 0 0 0 0 0 0 0 0 0 0 0 0 0 0 0 0 0 0 0 0 0 0 0 0 0 0 0 0 0 0 0 0 0 0 0 0 0 0 0 0 0 0 0 0 0 0 0 0 0 0 0 0 0 0 0 0 0 0 0 0 0 0 0 0 0 0 0 0 0 0 0 0 0 0 0 0 0 0 0 0 0 0 0 0 0 0 0 0 0 0 0 0 0 0 0 0 0 0 0 0 0 0 0 0 0 0 0 0 0 0 0 0 0 0 0 0 0 0 0 0 0 0 0 0 0 0 0 0 0 0 0 0 0 0 0 0 0 0 0 0 0 0 0 0 0 0 0 0 0 0 0 0 0 0 0 0 0 0 0 0 0 0 0 0 0 0 0 0 0 0 0 0 0 0 0 0 0 0 0 0 0 0 0 0 0 0 0 0 0 0 0 0 0 0 0 0 0 0 0 0 0 0 0 0 0 0 0 0 0 0 0 0 0 0 0 0 0 0 0 0 0 0 0 0 0 0 0 0 0 0 0 0 0 0 0 0 0 0 0 0 0 0 0 0 0 0 0 0 0 0 0 0 0 0 0 0 0 0 0 0 0 0 0 0 0 0 0 0 0 0 0 0 0 0 0 0 0 0 0 0 0 0 0 0 0 0 0 0 0 0 0 0 0 0 0 0 0 0 0 0 0 0 0 0 0 0 0 0 0 0 0 0 0 0 0 0 0 0 0 0 0 0 0 0 0 0 0 0 0 0 0 0 0 0 0 0 0 0 0 0 0 0 0 0 0 0 0 0 0 0 0 0 0 0 0 0 0 0 0 0 0 0 0 0 0 0 0 0 0 0 0 0 0 0 0 0 0 0 0 0 0 0 0 0 0 0 0 0 0 0 0 0 0 0 0 0 0 0 0 0 0 0 0 0 0 0 0 0 0 0 0 0 0 0 0 0 0 0 0 0 0 0 0 0 0 0 0 0 0 0 0 0 0 0 0 0 0 0 0 0 0 0 0 0 0 0 0 0 0 0 0 0 0 0 0 0 0 0 0 0 0 0 0 0 0 0 0 0 0 0 0 0 0 0 0 0 0 0 0 0 0 0 0 0 0 0 0 0 0 0 0 0 0 0 0 0 0 0 0 0 0 0 0 0 0 0 0 0 0 0 0 0 0 0 0 0 0 0 0 0 0 0 0 0 0 0 0 0 0 0 0 0 0 0 0 0 0 0 0 0 0 0 0 0 0 0 0 0 0 0 0 0 0 0 0 0 0 0 0 0 0 0 0 0 0 0 0 0 0 0 0 0 0 0 0 0 0 0 0 0 0 0 0 0 0 0 0 0 0 0 0 0 0 0 0 0 0 0 0 0 0 0 0 0 0 0 0 0 0 0 0 0 0 0 0 0 0 0 0 0 0 0 0 0 0 0 0 0 0 0 0 0 0 0 0 0 0 0 0 0 0 0 0 0 0 0 0 0 0 0 0 0 0 0 0 0 0 0 0 0 0 0 0 0 0 0 0 0 0 0 0 0 0 0 0 0 0 0 0 0 0 0 0 0 0 0 0 0 0 0 0 0 0 0 0 0 0 0 0 0 0 0 0 0 0 0 0 0 0 0 0 0 0 0 0 0 0 0 0 0 0 0 0 0 0 0 0 0 0 0 0 0 0 0 0 0 0 0 0 0 0 0 0 0 0 0 0 0 0 0 0 0 0 0 0 0 0 0 0 0 0 0 0 0 0 0 0 0 0 0 0 0 0 0 0 0 0 0 0 0 0 0 0 0 0 0 0 0 0 0 0 0 0 0 0 0 0 0 0 0 0 0 0 0 0 0 0 0 0 0 0 0 0 0 0 0 0 0 0 0 0 0 0 0 0 0 0 0 0 0 0 0 0 0 0 0 0 0 0 0 0 0 0 0 0 0 0 0 0 0 0 0 0 0 0 0 0 0 0 0 0 0 0 0 0 0 0 0 0 0 0 0 0 0 0 0 0 0 0 0 0 0 0 0 0 0 0 0 0 0 0 0 0 0 0 0 0 0 0 0 0 0 0 0 0 0 0 0 0 0 0 0 0 0 0 0 0 0 0 0 0 0 0 0 0 0 0 0 0 0 0 0 0 0 0 0 0 0 0 0 0 0 0 0 0 0 0 0 0 0 0 0 0 0 0 0 0 0 0 0 0 0 0 0 0 0 0 0 0 0 0 0 0 0 0 0 0 0 0 0 0 0 0 0 0 0 0 0 0 0 0 0 0 0 0 0 0 0 0 0 0 0 0 0 0 0 0 0 0 0 0 0 0 0 0 0 0 0 0 0 0 0 0 0 0 0 0 0 0 0 0 0 0 0 0 0 0 0 0 0 0 0 0 0 0 0 0 0 0 0 0 0 0 0 0 0 0 0 0 0 0 0 0 0 0 0 0 0 0 0 0 0 0 0 0 0 0 0 0 0 0 0 0 0 0 0 0 0 0 0 0 0 0 0 0 0 0 0 0 0 0 0 0 0 0 0 0 0 0 0 0 0 0 0 0 0 0 0 0 0 0 0 0 0 0 0 0 0 0 0 0 0 0 0 0 0 0 0 0 0 0 0 0 0 0 0 0 0 0 0 0 0 0 0 0 0 0 0 0 0 0 0 0 0 0 0 0 0 0 0 0 0 0 0 0 0 0 0 0 0 0 0 0 0 0 0 0 0 0 0 0 0 0 0 0 0 0 0 0 0 0 0 0 0 0 0 0 0 0 0 0 0 0 0 0 0 0 0 0 0 0 0 0 0 0 0 0 0 0 0 0 0 0 0 0 0 0 0 0 0 0 0 0 0 0 0 0 0 0 0 0 0 0 0 0 0 0 0 0 0 0 0 0 0 0 0 0 0 0 0 0 0 0 0 0 0 0 0 0 0 0 0 0 0 0 0 0 0 0 0 0 0 0 0 0 0 0 0 0 0 0 0 0 0 0 0 0 0 0 0 0 0 0 0 0 0 0 0 0 0 0 0 0 0 0 0 0 0 0 0 0 0 0 0 0 0 0 0 0 0 0 0 0 0 0 0 0 0 0 0 0 0 0 0 0 0 0 0 0 0 0 0 0 0 0 0 0 0 0 0 0 0 0 0 0 0 0 0 0 0 0 0 0 0 0 0 0 0 0 0 0 0 0 0 0 0 0 0 0 0 0 0 0 0 0 0 0 0 0 0 0 0 0 0 0 0 0 0 0 0 0 0 0 0 0 0 0 0 0 0 0 0 0 0 0 0 0 0 0 0 0 0 0 0 0 0 0 0 0 0 0 0 0 0 0 0 0 0 0 0 0 0 0 0 0 0 0 0 0 0 0 0 0 0 0 0 0 0 0 0 0 0 0 0 0 0 0 0 0 0 0 0 0 0 0 0 0 0 0 0 0 0 0 0 0 0 0 0 0 0 0 0 0 0 0 0 0 0 0 0 0 0 0 0 0 0 0 0 0 0 0 0 0 0 0 0 0 0 0 0 0 0 0 0 0 0 0 0 0 0 0 0 0 0 0 0 0 0 0 0 0 0 0 0 0 0 0 0 0 0 0 0 0 0 0 0 0 0 0 0 0 0 0 0 0 0 0 0 0 0 0 0 0 0 0 0 0 0 0 0 0 0 0 0 0 0 0 0 0 0 0 0 0 0 0 0 0 0 0 0 0 0 0 0 0 0 0 0 0 0 0 0 0 0 0 0 0 0 0 0 0 0 0 0 0 0 0 0 0 0 0 0 0 0 0 0 0 0 0 0 0 0 0 0 0 0 0 0 0 0 0 0 0 0 0 0 0 0 0 0 0 0 0 0 0 0 0 0 0 0 0 0 0 0 0 0 0 0 0 0 0 0 0 0 0 0 0 0 0 0 0 0 0 0 0 0 0 0 0 0 0 0 0 0 0 0 0 0 0 0 0 0 0 0 0 0 0 0 0 0 0 0 0 0 0 0 0 0 0 0 0 0 0 0 0 0 0 0 0 0 0 0 0 0 0 0 0 0 0 0 0 0 0 0 0 0 0 0 0 0 0 0 0 0 0 0 0 0 0 0 0 0 0 0 0 0 0 0 0 0 0 0 0 0 0 0 0 0 0 0 0 0 0 0 0 0 0 0 0 0 0 0 0 0 0 0 0 0 0 0 0 0 0 0 0 0 0 0 0 0 0 0 0 0 0 0 0 0 0 0 0 0 0 0 0 0 0 0 0 0 0 0 0 0 0 0 0 0 0 0 0 0 0 0 0 0 0 0 0 0 0 0 0 0 0 0 0 0 0 0 0 0 0 0 0 0 0 0 0 0 0 0 0 0 0 0 0 0 0 0 0 0 0 0 0 0 0 0 0 0 0 0 0 0 0 0 0 0 0 0 0 0 0 0 0 0 0 0 0 0 0 0 0 0 0 0 0 0 0 0 0 0 0 0 0 0 0 0 0 0 0 0 0 0 0 0 0 0 0 0 0 0 0 0 0 0 0 0 0 0 0 0 0 0 0 0 0 0 0 0 0 0 0 0 0 0 0 0 0 0 0 0 0 0 0 0 0 0 0 0 0 0 0 0 0 0 0 0 0 0 0 0 0 0 0 0 0 0 0 0 0 0 0 0 0 0 0 0 0 0 0 0 0 0 0 0 0 0 0 0 0 0 0 0 0 0 0 0 0 0 0 0 0 0 0 0 0 0 0 0 0 0 0 0 0 0 0 0 0 0 0 0 0 0 0 0 0 0 0 0 0 0 0 0 0 0 0 0 0 0 0 0 0 0 0 0 0 0 0 0 0 0 0 0 0 0 0 0 0 0 0 0 0 0 0 0 0 0 0 0 0 0 0 0 0 0 0 0 0 0 0 0 0 0 0 0 0 0 0 0 0 0 0 0 0 0 0 0 0 0 0 0 0 0 0 0 0 0 0 0 0 0 0 0 0 0 0 0 0 0 0 0 0 0 0 0 0 0 0 0 0 0 0 0 0 0 0 0 0 0 0 0 0 0 0 0 0 0 0 0 0 0 0 0 0 0 0 0 0 0 0 0 0 0 0 0 0 0 0 0 0 0 0 0 0 0 0 0 0 0 0 0 0 0 0 0 0 0 0 0 0 0 0 0 0 0 0 0 0 0 0 0 0 0 0 0 0 0 0 0 0 0 0 0 0 0 0 0 0 0 0 0 0 0 0 0 0 0 0 0 0 0 0 0 0 0 0 0 0 0 0 0 0 0 0 0 0 0 0 0 0 0 0 0 0 0 0 0 0 0 0 0 0 0 0 0 0 0 0 0 0 0 0 0 0 0 0 0 0 0 0 0 0 0 0 0 0 0 0 0 0 0 0 0 0 0 0 0 0 0 0 0 0 0 0 0 0 0 0 0 0 0 0 0 0 0 0 0 0 0 0 0 0 0 0 0 0 0 0 0 0 0 0 0 0 0 0 0 0 0 0 0 0 0 0 0 0 0 0 0 0 0 0 0 0 0 0 0 0 0 0 0 0 0 0 0 0 0 0 0 0 0 0 0 0 0 0 0 0 0 0 0 0 0 0 0 0 0 0 0 0 0 0 0 0 0 0 0 0 0 0 0 0 0 0 0 0 0 0 0 0 0 0 0 0 0 0 0 0 0 0 0 0 0 0 0 0 0 0 0 0 0 0 0 0 0 0 0 0 0 0 0 0 0 0 0 0 0 0 0 0 0 0 0 0 0 0 0 0 0 0 0 0 0 0 0 0 0 0 0 0 0 0 0 0 0 0 0 0 0 0 0 0 0 0 0 0 0 0 0 0 0 0 0 0 0 0 0 0 0 0 0 0 0 0 0 0 0 0 0 0 0 0 0 0 0 0 0 0 0 0 0 0 0 0 0 0 0 0 0 0 0 0 0 0 0 0 0 0 0 0 0 0 0 0 0 0 0 0 0 0 0 0 0 0 0 0 0 0 0 0 0 0 0 0 0 0 0 0 0 0 0 0 0 0 0 0 0 0 0 0 0 0 0 0 0 0 0 0 0 0 0 0 0 0 0 0 0 0 0 0 0 0 0 0 0 0 0 0 0 0 0 0 0 0 0 0 0 0 0 0 0 0 0 0 0 0 0 0 0 0 0 0 0 0 0 0 0 0 0 0 0 0 0 0 0 0 0 0 0 0 0 0 0 0 0 0 0 0 0 0 0 0 0 0 0 0 0 0 0 0 0 0 0 0 0 0 0 0 0 0 0 0 0 0 0 0 0 0 0 0 0 0 0 0 0 0 0 0 0 0 0 0 0 0 0 0 0 0 0 0 0 0 0 0 0 0 0 0 0 0 0 0 0 0 0 0 0 0 0 0 0 0 0 0 0 0 0 0 0 0 0 0 0 0 0 0 0 0 0 0 0 0 0 0 0 0 0 0 0 0 0 0 0 0 0 0 0 0 0 0 0 0 0 0 0 0 0 0 0 0 0 0 0 0 0 0 0 0 0 0 0 0 0 0 0 0 0 0 0 0 0 0 0 0 0 0 0 0 0 0 0 0 0 0 0 0 0 0 0 0 0 0 0 0 0 0 0 0 0 0 0 0 0 0 0 0 0 0 0 0 0 0 0 0 0 0 0 0 0 0 0 0 0 0 0 0 0 0 0 0 0 0 0 0 0 0 0 0 0 0 0 0 0 0 0 0 0 0 0 0 0 0 0 0 0 0 0 0 0 0 0 0 0 0 0 0 0 0 0 0 0 0 0 0 0 0 0 0 0 0 0 0 0 0 0 0 0 0 0 0 0 0 0 0 0 0 0 0 0 0 0 0 0 0 0 0 0 0 0 0 0 0 0 0 0 0 0 0 0 0 0 0 0 0 0 0 0 0 0 0 0 0 0 0 0 0 0 0 0 0 0 0 0 0 0 0 0 0 0 0 0 0 0 0 0 0 0 0 0 0 0 0 0 0 0 0 0 0 0 0 0 0 0 0 0 0 0 0 0 0 0 0 0 0 0 0 0 0 0 0 0 0 0 0 0 0 0 0 0 0 0 0 0 0 0 0 0 0 0 0 0 0 0 0 0 0 0 0 0 0 0 0 0 0 0 0 0 0 0 0 0 0 0 0 0 0 0 0 0 0 0 0 0 0 0 0 0 0 0 0 0 0 0 0 0 0 0 0 0 0 0 0 0 0 0 0 0 0 0 0 0 0 0 0 0 0 0 0 0 0 0 0 0 0 0 0 0 0 0 0 0 0 0 0 0 0 0 0 0 0 0 0 0 0 0 0 0 0 0 0 0 0 0 0 0 0 0 0 0 0 0 0 0 0 0 0 0 0 0 0 0 0 0 0 0 0 0 0 0 0 0 0 0 0 0 0 0 0 0 0 0 0 0 0 0 0 0 0 0 0 0 0 0 0 0 0 0 0 0 0 0 0 0 0 0 0 0 0 0 0 0 0 0 0 0 0 0 0 0 0 0 0 0 0 0 0 0 0 0 0 0 0 0 0 0 0 0 0 0 0 0 0 0 0 0 0 0 0 0 0 0 0 0 0 0 0 0 0 0 0 0 0 0 0 0 0 0 0 0 0 0 0 0 0 0 0 0 0 0 0 0 0 0 0 0 0 0 0 0 0 0 0 0 0 0 0 0 0 0 0 0 0 0 0 0 0 0 0 0 0 0 0 0 0 0 0 0 0 0 0 0 0 0 0 0 0 0 0 0 0 0 0 0 0 0 0 0 0 0 0 0 0 0 0 0 0 0 0 0 0 0 0 0 0 0 0 0 0 0 0 0 0 0 0 0 0 0 0 0 0 0 0 0 0 0 0 0 0 0 0 0 0 0 0 0 0 0 0 0 0 0 0 0 0 0 0 0 0 0 0 0 0 0 0 0 0 0 0 0 0 0 0 0 0 0 0 0 0 0 0 0 0 0 0 0 0 0 0 0 0 0 0 0 0 0 0 0 0 0 0 0 0 0 0 0 0 0 0 0 0 0 0 0 0 0 0 0 0 0 0 0 0 0 0 0 0 0 0 0 0 0 0 0 0 0 0 0 0 0 0 0 0 0 0 0 0 0 0 0 0 0 0 0 0 0 0 0 0 0 0 0 0 0 0 0 0 0 0 0 0 0 0 0 0 0 0 0 0 0 0 0 0 0 0 0 0 0 0 0 0 0 0 0 0 0 0 0 0 0 0 0 0 0 0 0 0 0 0 0 0 0 0 0 0 0 0 0 0 0 0 0 0 0 0 0 0 0 0 0 0 0 0 0 0 0 0 0 0 0 0 0 0 0 0 0 0 0 0 0 0 0 0 0 0 0 0 0 0 0 0 0 0 0 0 0 0 0 0 0 0 0 0 0 0 0 0 0 0 0 0 0 0 0 0 0 0 0 0 0 0 0 0 0 0 0 0 0 0 0 0 0 0 0 0 0 0 0 0 0 0 0 0 0 0 0 0 0 0 0 0 0 0 0 0 0 0 0 0 0 0 0 0 0 0 0 0 0 0 0 0 0 0 0 0 0 0 0 0 0 0 0 0 0 0 0 0 0 0 0 0 0 0 0 0 0 0 0 0 0 0 0 0 0 0 0 0 0 0 0 0 0 0 0 0 0 0 0 0 0 0 0 0 0 0 0 0 0 0 0 0 0 0 0 0 0 0 0 0 0 0 0 0 0 0 0 0 0 0 0 0 0 0 0 0 0 0 0 0 0 0 0 0 0 0 0 0 0 0 0 0 0 0 0 0 0 0 0 0 0 0 0 0 0 0 0 0 0 0 0 0 0 0 0 0 0 0 0 0 0 0 0 0 0 0 0 0 0 0 0 0 0 0 0 0 0 0 0 0 0 0 0 0 0 0 0 0 0 0 0 0 0 0 0 0 0 0 0 0 0 0 0 0 0 0 0 0 0 0 0 0 0 0 0 0 0 0 0 0 0 0 0 0 0 0 0 0 0 0 0 0 0 0 0 0 0 0 0 0 0 0 0 0 0 0 0 0 0 0 0 0 0 0 0 0 0 0 0 0 0 0 0 0 0 0 0 0 0 0 0 0 0 0 0 0 0 0 0 0 0 0 0 0 0 0 0 0 0 0 0 0 0 0 0 0 0 0 0 0 0 0 0 0 0 0 0 0 0 0 0 0 0 0 0 0 0 0 0 0 0 0 0 0 0 0 0 0 0 0 0 0 0 0 0 0 0 0 0 0 0 0 0 0 0 0 0 0 0 0 0 0 0 0 0 0 0 0 0 0 0 0 0 0 0 0 0 0 0 0 0 0 0 0 0 0 0 0 0 0 0 0 0 0 0 0 0 0 0 0 0 0 0 0 0 0 0 0 0 0 0 0 0 0 0 0 0 0 0 0 0 0 0 0 0 0 0 0 0 0 0 0 0 0 0 0 0 0 0 0 0 0 0 0 0 0 0 0 0 0 0 0 0 0 0 0 0 0 0 0 0 0 0 0 0 0 0 0 0 0 0 0 0 0 0 0 0 0 0 0 0 0 0 0 0 0 0 0 0 0 0 0 0 0 0 0 0 0 0 0 0 0 0 0 0 0 0 0 0 0 0 0 0 0 0 0 0 0 0 0 0 0 0 0 0 0 0 0 0 0 0 0 0 0 0 0 0 0 0 0 0 0 0 0 0 0 0 0 0 0 0 0 0 0 0 0 0 0 0 0 0 0 0 0 0 0 0 0 0 0 0 0 0 0 0 0 0 0 0 0 0 0 0 0 0 0 0 0 0 0 0 0 0 0 0 0 0 0 0 0 0 0 0 0 0 0 0 0 0 0 0 0 0 0 0 0 0 0 0 0 0 0 0 0 0 0 0 0 0 0 0 0 0 0 0 0 0 0 0 0 0 0 0 0 0 0 0 0 0 0 0 0 0 0 0 0 0 0 0 0 0 0 0 0 0 0 0 0 0 0 0 0 0 0 0 0 0 0 0 0 0 0 0 0 0 0 0 0 0 0 0 0 0 0 0 0 0 0 0 0 0 0 0 0 0 0 0 0 0 0 0 0 0 0 0 0 0 0 0 0 0 0 0 0 0 0 0 0 0 0 0 0 0 0 0 0 0 0 0 0 0 0 0 0 0 0 0 0 0 0 0 0 0 0 0 0 0 0 0 0 0 0 0 0 0 0 0 0 0 0 0 0 0 0 0 0 0 0 0 0 0 0 0 0 0 0 0 0 0 0 0 0 0 0 0 0 0 0 0 0 0 0 0 0 0 0 0 0 0 0 0 0 0 0 0 0 0 0 0 0 0 0 0 0 0 0 0 0 0 0 0 0 0 0 0 0 0 0 0 0 0 0 0 0 0 0 0 0 0 0 0 0 0 0 0 0 0 0 0 0 0 0 0 0 0 0 0 0 0 0 0 0 0 0 0 0 0 0 0 0 0 0 0 0 0 0 0 0 0 0 0 0 0 0 0 0 0 0 0 0 0 0 0 0 0 0 0 0 0 0 0 0 0 0 0 0 0 0 0 0 0 0 0 0 0 0 0 0 0 0 0 0 0 0 0 0 0 0 0 0 0 0 0 0 0 0 0 0 0 0 0 0 0 0 0 0 0 0 0 0 0 0 0 0 0 0 0 0 0 0 0 0 0 0 0 0 0 0 0 0 0 0 0 0 0 0 0 0 0 0 0 0 0 0 0 0 0 0 0 0 0 0 0 0 0 0 0 0 0 0 0 0 0 0 0 0 0 0 0 0 0 0 0 0 0 0 0 0 0 0 0 0 0 0 0 0 0 0 0 0 0 0 0 0 0 0 0 0 0 0 0 0 0 0 0 0 0 0 0 0 0 0 0 0 0 0 0 0 0 0 0 0 0 0 0 0 0 0 0 0 0 0 0 0 0 0 0 0 0 0 0 0 0 0 0 0 0 0 0 0 0 0 0 0 0 0 0 0 0 0 0 0 0 0 0 0 0 0 0 0 0 0 0 0 0 0 0 0 0 0 0 0 0 0 0 0 0 0 0 0 0 0 0 0 0 0 0 0 0 0 0 0 0 0 0 0 0 0 0 0 0 0 0 0 0 0 0 0 0 0 0 0 0 0 0 0 0 0 0 0 0 0 0 0 0 0 0 0 0 0 0 0 0 0 0 0 0 0 0 0 0 0 0 0 0 0 0 0 0 0 0 0 0 0 0 0 0 0 0 0 0 0 0 0 0 0 0 0 0 0 0 0 0 0 0 0 0 0 0 0 0 0 0 0 0 0 0 0 0 0 0 0 0 0 0 0 0 0 0 0 0 0 0 0 0 0 0 0 0 0 0 0 0 0 0 0 0 0 0 0 0 0 0 0 0 0 0 0 0 0 0 0 </DataArray>
      </PointData>
    </Piece>
  </UnstructuredGrid>
</VTKFile>
