<?xml version="1.0"?>
<VTKFile type="UnstructuredGrid" version="2.2">
  <UnstructuredGrid>
    <Piece NumberOfPoints="499" NumberOfCells="917">
      <Points>
        <DataArray type="Float64" NumberOfComponents="3" format="ascii">0.05000000000020799 1 0 0 1 0 0.03513092890309307 0.9648212788283612 0 0 0.9521428571430244 0 0.07410899581881712 0.9521996145697516 0 0.03619501900775109 0.926345089326855 0 0.100000000000416 1 0 0 0.9042857142860055 0 0.1248529153442679 0.9561208500116616 0 0.06687247752044116 0.9046953647351927 0 0.03995967849156003 0.881119550396968 0 0.1500000000006241 1 0 0.1041851337273438 0.9107482218710892 0 0 0.8564285714290331 0 0.1748681729373599 0.9567842847419447 0 0.1499719704252495 0.9138026589040514 0 0.07966333294007094 0.8634453161395086 0 0.03840827856334468 0.8348464763450628 0 0.2000000000008322 1 0 0.1268034267688663 0.870841779984566 0 0 0.8085714285720079 0 0.2246404670128214 0.9567275213498633 0 0.1995360174741913 0.9144910844015499 0 0.1774405495477374 0.8724438877320302 0 0.111593054156791 0.8340250335708383 0 0.07602048545033771 0.8117390862828993 0 0.03820291853201283 0.7868281735798709 0 0.2500000000010403 1 0 0.1536069855566548 0.8323862548060769 0 0 0.76071428571502 0 0.2745448495311071 0.957141252986638 0 0.2492476249256357 0.9168579380265875 0 0.2272140591406204 0.8769016055797011 0 0.2081527953300288 0.8297369538998427 0 0.1255954213659187 0.7936705302939769 0 0.07758026515802963 0.7652213662742625 0 0.03884761601218338 0.7397151781243877 0 0.3000000000012483 1 0 0.1752869399516858 0.800465525956863 0 0 0.7128571428580415 0 0.3245071376296323 0.9562490784030617 0 0.2979885698974595 0.9139702903785851 0 0.2737959673518774 0.8848766796962227 0 0.2626312744261926 0.8461018491124028 0 0.2097325536779496 0.7805104207046718 0 0.1648182048171164 0.7611831458589258 0 0.1196886595494201 0.7452361389599901 0 0.07859301769409408 0.7202362119531932 0 0.03870949468896378 0.6924338883659386 0 0.3500000000014564 1 0 0.2542904859310032 0.8006402831531659 0 0 0.6650000000010197 0 0.3732848990323357 0.9562741347744628 0 0.3430309435814733 0.912920590549692 0 0.3110404328847178 0.8694034880065873 0 0.3000150626948301 0.8184826618036901 0 0.2471551147809471 0.7522626095320608 0 0.2020763710332329 0.7338979793363076 0 0.1568569205884715 0.7162228112246709 0 0.1138350602569298 0.6979878301855158 0 0.07568885230139066 0.6720574194629314 0 0.04144550146682792 0.6410714285723863 0 0.4000000000016644 1 0 0.292627422489346 0.7702113319897271 0 0 0.6171428571437529 0 0.4236036934500709 0.9568372909023886 0 0.3944111610239301 0.9070960648063187 0 0.3546636458860719 0.87444569109077 0 0.3451575663551202 0.8350266534147486 0 0.3376980222706024 0.7880727074899054 0 0.2853363779165835 0.7218541730468214 0 0.2400287451422544 0.7039859303164278 0 0.1948470391404639 0.6860936010816725 0 0.1497949144274895 0.6682256800295058 0 0.1061321103674343 0.6502253569079257 0 0.07541792933409414 0.6303898007926294 0 0.04961450471505083 0.5940262793289091 0 0.4500000000018723 1 0 0.3305659938772589 0.73961881542654 0 0 0.5692857142864644 0 0.4758964960492805 0.9493846211629947 0 0.4410098506832099 0.9165864644123367 0 0.3892861757015438 0.8540509040332178 0 0.3821832294279271 0.8063475781044818 0 0.3752774916968024 0.7579586913698996 0 0.2781204192344753 0.6736713706472254 0 0.323479439210437 0.6915195081662617 0 0.2328404557504764 0.6559009418005161 0 0.1876968614826684 0.638149938428377 0 0.1427150120754896 0.6204077640472276 0 0.1005662488043636 0.6023721044574557 0 0.04206214923576236 0.5412189838689352 0 0.5000000000020587 1 0 0.4337520241174221 0.8750620750857443 0 0.3687912451180264 0.7092338756751926 0 0.09026619364718713 0.5557516065185188 0 0 0.5214285714291634 0 0.5266930262255449 0.9577040566985137 0 0.4773858787753461 0.8945522701042379 0 0.4260364173455708 0.8262253125791023 0 0.4196437031979233 0.7767511997400169 0 0.4132697462358553 0.7276259226651192 0 0.3162199340444606 0.6433692036322328 0 0.2708654963859696 0.6256844161274709 0 0.3615678414775976 0.6611615781870415 0 0.2256000888907504 0.6080341801986953 0 0.1805010277595172 0.5903704404588782 0 0.1356440455194415 0.572703346532228 0 0.04101911144688776 0.4934158897772841 0 0.08562246502683261 0.5079254342188767 0 0.5500000000017335 1 0 0.5103030972520599 0.918683922729679 0 0.4720833566614158 0.8442931670629866 0 0.4066678558577477 0.6789402176356758 0 0.1289803516704192 0.5250649098795238 0 0 0.473571428571878 0 0.5752752136848832 0.9569097132206097 0 0.5508603764618245 0.9141024127607222 0 0.5219719278533508 0.8698575897634981 0 0.4649407447154906 0.7954119677624065 0 0.458268799347983 0.7462771029374891 0 0.4513259016591922 0.6972795702652788 0 0.3542122391308111 0.6130615663939754 0 0.3090289866823297 0.5953030791794904 0 0.2634314318683654 0.5778238959799249 0 0.3993930308094586 0.6307953933932096 0 0.2182652600975055 0.5602754483970052 0 0.1732704773334529 0.5427358396318516 0 0.04119791511772836 0.4490938211955185 0 0.08223444917080314 0.4631303705857968 0 0.1230666100987142 0.4783656189778101 0 0.6000000000013869 1 0 0.5106777461414191 0.8134899010470511 0 0.4444333030969725 0.6487947762201454 0 0.1661483356906777 0.4952026776015984 0 0 0.4257142857145926 0 0.6249375054763575 0.9567351874484921 0 0.5999875225852872 0.9141994721822251 0 0.5750025176774218 0.8742664631810846 0 0.5575814721098984 0.8290646914053468 0 0.5035108708225926 0.7646558429522767 0 0.4959856971069478 0.7159111549925107 0 0.4893760548400273 0.6669555717937916 0 0.3466833801224286 0.5650698416036063 0 0.3921159579544167 0.5828026659541716 0 0.3013095312912661 0.5474891438123943 0 0.2555687065637633 0.5302390893091203 0 0.437370226962837 0.6005328879487958 0 0.2108631192471171 0.5127896770935356 0 0.04144550146695018 0.4017857142859497 0 0.07966883914342404 0.420059804578686 0 0.1203026260056908 0.4318730431427046 0 0.1606356317299439 0.4479509629828065 0 0.6500000000010401 1 0 0.5492263621759687 0.7827055683827233 0 0.4824859345068975 0.6186097348895624 0 0.2037589207092149 0.4654066809141835 0 0 0.3778571428573071 0 0.674896110650705 0.9567722798507268 0 0.6498136263772328 0.913598553402392 0 0.6244133933094393 0.8734554064534914 0 0.599358687202638 0.8404454929402013 0 0.595895050292448 0.8003389127999762 0 0.5418654881251093 0.7339642660663351 0 0.5345450931264941 0.6852995024953583 0 0.5275088252216156 0.6367047424858828 0 0.3842708257720852 0.5349079856735853 0 0.3386577949454291 0.5175332681030405 0 0.4300883094696971 0.5525370010625785 0 0.2931918361192277 0.500157294939984 0 0.2481670150880886 0.4828783267074552 0 0.4753196012714075 0.5702158747423824 0 0.03484594740541493 0.3625670389490337 0 0.07696641072423453 0.3675378990340317 0 0.1105160749412913 0.3923227088711296 0 0.1511263726012513 0.4006487899063326 0 0.1959201640983849 0.4180447197190066 0 0.7000000000006934 1 0 0.5877866255106815 0.7519475828532554 0 0.5203812288590155 0.5882834172209985 0 0.2409611434213282 0.4357286230033621 0 0 0.33 0 0.7248910906526769 0.9566667631984827 0 0.6997344413962299 0.9136331750549946 0 0.6745484027731369 0.8714293349709555 0 0.6439010026239824 0.8251019908611081 0 0.6353628154969977 0.7713158722813847 0 0.5804292693690387 0.7032283138953531 0 0.5731606146943016 0.6545802367352462 0 0.565854989685187 0.6061218828274005 0 0.4224288197925479 0.5046972877650073 0 0.3762640330870363 0.4872904233843114 0 0.330227163280531 0.4702849192043621 0 0.4679696066406592 0.5222798238139874 0 0.2854574737903607 0.4529766946925385 0 0.5132459012042153 0.5399477844827234 0 0.04696389673752063 0.3266410758052752 0 0.1302182507037104 0.348173735129346 0 0.1838323017732335 0.3691134770867918 0 0.2325893505500232 0.3881240692097961 0 0.7500000000003466 1 0 0.626319535232766 0.7211820383005897 0 0.5585784612114396 0.5577741012828001 0 0.2781610924996488 0.4056319353587258 0 0.09297174401738248 0.3166326812165262 0 0.7749489766573446 0.9566683333612662 0 0.7497053230138341 0.9135266879660656 0 0.7245253772213183 0.8705665173838053 0 0.6989022689736433 0.8302815593471844 0 0.6802594766146042 0.7877304590234828 0 0.6722697424611368 0.7391787023214409 0 0.6189601531067059 0.6724306840811037 0 0.6115050321784076 0.6238849052899893 0 0.6040680550400092 0.5755422371476387 0 0.460701932787976 0.4743921944551271 0 0.4152046040730576 0.456922666581942 0 0.3692047516273981 0.4396887134023254 0 0.3235854805761805 0.4221968624788364 0 0.5059408226636872 0.4919411014642348 0 0.5512852583421988 0.5095109824311197 0 0.1370869546624442 0.3001785582971858 0 0.178653919206536 0.3224186388405868 0 0.2246833711649087 0.3419232673505652 0 0.2719780303426354 0.358302392740325 0 0.7999999999999998 1 0 0.6648710704638553 0.690299526078734 0 0.5967514579609413 0.5271784300628642 0 0.3175980556360575 0.374796269060554 0 0.8249972283074372 0.9567005096407395 0 0.8000000000214059 0.9134005586302651 0 0.7741320521340295 0.87022478016758 0 0.7472034036425198 0.8284835168833722 0 0.7213941584378547 0.7961634157920909 0 0.7173784428133705 0.7556635013500781 0 0.710867196277588 0.708279260737823 0 0.6573397108498944 0.6416536717116419 0 0.6497028992937667 0.5932018612727296 0 0.6422373747076388 0.5448824759221291 0 0.4533351606933511 0.4267083734633002 0 0.4985365307124631 0.4440797289528722 0 0.4078056266213912 0.4093342566009653 0 0.3627464152344116 0.3915727269842826 0 0.5438686751791524 0.4613942304312386 0 0.5892946723529653 0.4789363751658531 0 0.1784114702234055 0.2776136655367003 0 0.2204641879194986 0.2943740752968956 0 0.265962570520931 0.3108145133996015 0 0.3127460581380046 0.3268616019746677 0 0.8499999999996529 1 0 0.7034124578264758 0.6593474729189609 0 0.6348399631803482 0.4965659505888436 0 0.3563712570254641 0.3442120948264865 0 0.8745941861227216 0.9569270797574472 0 0.8499623787952233 0.9134301182908062 0 0.8250166599577644 0.8701727223253988 0 0.7982413309989669 0.8254831970845293 0 0.7657708635398169 0.7773948317348724 0 0.7565703892384503 0.7257282063592451 0 0.7494218753175265 0.6772258670682422 0 0.6957508536233902 0.6107430092142017 0 0.6879788597665069 0.562527175681711 0 0.6804898825789225 0.5142673789520604 0 0.4460374277384239 0.3791980408973997 0 0.4909260545674919 0.3965594369578491 0 0.536096645992267 0.4137834083793413 0 0.4006942840588881 0.3618441429158201 0 0.5816129686757787 0.4308977456278202 0 0.6274097107793727 0.4480709118532323 0 0.2161040427417705 0.249397359069143 0 0.2595599133479782 0.2621759507304582 0 0.304168867484276 0.2789735885008043 0 0.3493425418570766 0.2978135472169009 0 0.8999999999995836 1 0 0.741913023997582 0.6284743758189633 0 0.6730773330265714 0.4658326049131284 0 0.3941764788033704 0.3144694739864602 0 0.9230154276309169 0.957818433256749 0 0.8995900820035155 0.9136134173563883 0 0.8749110776041656 0.8701826134774238 0 0.8499579943012155 0.8269806590258086 0 0.8244404892466333 0.7841647116337298 0 0.8030229930619528 0.7418538584071361 0 0.795332065133995 0.6949122650408055 0 0.7880904036774199 0.646236417214581 0 0.7341097320637424 0.5802784978899859 0 0.7262265932743404 0.5319272997788027 0 0.718815557824156 0.4836232766701583 0 0.4388288250208024 0.3317292599410151 0 0.4835987679260488 0.3490865806244366 0 0.5284374052475713 0.3663609596673469 0 0.573693817858026 0.3834995145045824 0 0.6194516903018313 0.4003082968671592 0 0.6655847457948556 0.4173531148961451 0 0.2493973600045941 0.2161040416622024 0 0.3014779884372365 0.2250492180381652 0 0.3453804062146847 0.2530802200486361 0 0.38835426539989 0.2707523338266369 0 0.9499999999997918 1 0 0.7803443789639908 0.5977343282467705 0 0.7112323207291321 0.4354168533265332 0 0.4326070324113827 0.2858030256313043 0 0.9633974596214028 0.9633974596214232 0 0.9537500969915162 0.9186838564016708 0 0.9238250460634794 0.8709873182923835 0 0.8994599698297352 0.8274763618552554 0 0.8768841374239519 0.7792609989663004 0 0.8474927391026811 0.7506271313388611 0 0.8406001730990125 0.7100115166784327 0 0.8343035510011388 0.6642491580811751 0 0.8267590253512198 0.6154645337228045 0 0.7724441569275898 0.5496435570125685 0 0.7645843279963123 0.5013234363698982 0 0.7571480790223217 0.4529537312652759 0 0.4763840832394132 0.3016499740085894 0 0.5211898870111364 0.3190025212931116 0 0.5660329580997211 0.3363516191937324 0 0.6111595150413965 0.3534009934369837 0 0.6570300145151907 0.3705221371439423 0 0.7031370481958978 0.3878193280723155 0 0.2776136661433222 0.1784114692794835 0 0.3541684505043144 0.209371146199105 0 0.3830606478882684 0.2356549942566528 0 0.4231612569915968 0.2416703067311569 0 1 1 0 0.8188330620552589 0.5674912118259651 0 0.7495439220025358 0.4046734992056568 0 0.4697775371013274 0.2548286625532746 0 0.3246874632121147 0.1751933095060992 0 1 0.9499999999998684 0 0.9664226636212995 0.8749703662851478 0 0.952373368801875 0.8268157568787672 0 0.9188081947837239 0.7906308244908492 0 0.8807632350880428 0.7286194553146064 0 0.8781777706029614 0.6805724735648864 0 0.873103034409148 0.6333277285564636 0 0.8652476645936458 0.5847424723383667 0 0.810566847211895 0.5191065679639888 0 0.8030716514604519 0.4708427378519787 0 0.7955547151831538 0.4221172220708017 0 0.5139263500600011 0.2714606292836507 0 0.5588336206480599 0.2889189560626122 0 0.6036962677730329 0.3061923345260547 0 0.6488318351070149 0.3237233947999376 0 0.6946671658536376 0.3403767099889644 0 0.7411216139937193 0.3568812519014922 0 0.3001785586548894 0.1370869538791826 0 0.37330312038066 0.1691858237405362 0 0.4042388603308559 0.203400964477729 0 0.4581070242593016 0.2035988882046757 0 1 0.8999999999997368 0 0.9189065930794174 0.7488186798783998 0 0.8571044824721463 0.5368998353416016 0 0.7878692848222895 0.3736284951531845 0 0.5065924827889935 0.2238676632737362 0 0.3449223017602951 0.1289574236560848 0 1 0.8499999999996051 0 0.9571282477744886 0.7738267918156299 0 0.9200695248048553 0.7005040323578215 0 0.9186270959229095 0.6521663050478217 0 0.9124379079467801 0.6037859100870154 0 0.9054635139433739 0.5545068124114677 0 0.849067641781396 0.4886677889848708 0 0.8416159620374165 0.4399555377510769 0 0.8328683549400466 0.392064668023983 0 0.5515680032260287 0.2401990668305448 0 0.5964645062943738 0.2585770262438958 0 0.6414834476580404 0.2762879535640558 0 0.6864317575674217 0.2937235630942313 0 0.7324421138029977 0.3103341597602735 0 0.7784085558900521 0.327298281810265 0 0.3166326813748362 0.09297174347822794 0 0.3929717676267109 0.1167887598260344 0 0.4216564449614365 0.1572836616872056 0 0.4983791934496304 0.1833212149152745 0 1 0.7999999999994734 0 0.9581862093087798 0.7255133309721942 0 0.895075903741204 0.5068701533982061 0 0.8242196773111591 0.3450303169915246 0 0.5448713764371709 0.1888762659389489 0 0.3617907924266182 0.08269967623412104 0 0.4699046351535744 0.1526098804548102 0 1 0.7499999999993417 0 0.9589460800259448 0.6762408094108971 0 0.9575626472795322 0.6255485146274569 0 0.9550643320008195 0.5757790101167743 0 0.947850792905648 0.5189634931868427 0 0.885321981892097 0.4582137095366022 0 0.8779444774683682 0.4094648867886706 0 0.8701345437572721 0.3627316696908279 0 0.589105384066639 0.2110824212550182 0 0.6341330742377665 0.22843028948551 0 0.679236999087376 0.2460079916400902 0 0.7242582844952656 0.2632610800873786 0 0.7698361082444833 0.2807553481075939 0 0.8154782568528524 0.2991579890336961 0 0.326641075841912 0.04696389648270559 0 0.4142888058427296 0.07251518781503151 0 0.440676731255599 0.114134021572712 0 0.5168801218180583 0.1470041548057166 0 1 0.69999999999921 0 0.9219435005841683 0.4765167551882593 0 0.8612011697094035 0.3173646795494423 0 0.5892646840548822 0.1727885502712487 0 0.3708225666116094 0.03939431506407334 0 0.4893278087592239 0.1106414583296348 0 0.5645396022604374 0.1435461792718611 0 1 0.6499999999990784 0 1 0.5999999999989468 0 1 0.5499999999988151 0 0.9616536935884692 0.4674872418958804 0 0.9250504408426297 0.4279082295776497 0 0.9088165445333811 0.3819179637088084 0 0.9148670886868538 0.3381050554038931 0 0.6267845149670224 0.1804506792007454 0 0.6718464940743698 0.1980937504159628 0 0.716987083893262 0.2156550603267203 0 0.7623368785826298 0.2333292254875842 0 0.8078625121289186 0.2510625940183629 0 0.8536486638359778 0.2687313410838037 0 0.33 0 0 0.4094406882040698 0.03136644803562329 0 0.4676232430386636 0.07296848293992922 0 0.5392515690292343 0.1093735579707829 0 1 0.4999999999986943 0 0.8992119805482625 0.2877333462678995 0 0.6142498558102897 0.1353150002618734 0 0.3778571428570112 0 0 0.4486868510003367 0.03928137366509426 0 0.5152592613745919 0.07184651528219795 0 0.5838904184840102 0.1115969540784981 0 1 0.4499999999988292 0 0.9680613345620245 0.4248777291790138 0 0.953602538379023 0.3789931744237347 0 0.9466851718195182 0.3022038190480389 0 0.6644381730576721 0.1502741351592436 0 0.7095290995671815 0.1677635603736723 0 0.754805671256784 0.1852538952936336 0 0.8003086927059571 0.20277592521988 0 0.8457866934408658 0.2198966448859676 0 0.8901334485088117 0.2375309768144376 0 0.4257142857140301 0 0 0.4952039327295464 0.03684388382227884 0 0.5675803550788545 0.07702500873746584 0 0.9640319760970433 0.3377015551512024 0 0.9334617624587476 0.2570631966839623 0 0.6570475121448018 0.1026367878692164 0 0.6118050069037705 0.08596204942671498 0 0.4735714285710135 0 0 0.544654240964684 0.03696693104645161 0 1 0.399999999998975 0 1 0.3499999999991207 0 0.9701291646929998 0.2710504430431395 0 1 0.2999999999992664 0 0.7020254554224006 0.1199737237192917 0 0.7470817589161857 0.1383533080927331 0 0.7927531905176677 0.1546240691368314 0 0.8383218999886166 0.1721595169215462 0 0.882701172986514 0.186483626386731 0 0.9252313981495874 0.2064910298955753 0 0.521428571427989 0 0 0.5943085483288608 0.0430355520240394 0 0.9646017991355686 0.2270273260952586 0 0.6955284413844147 0.07398882878314142 0 0.6471699690902027 0.04821649382064349 0 0.56928571428498 0 0 1 0.2499999999994122 0 0.7393222201778663 0.09316181803705781 0 0.7840549165552144 0.1093427819959119 0 0.830333253603024 0.1250364830811178 0 0.8762293302097813 0.1383647273111162 0 0.9193144157148843 0.155458893568571 0 0.961175790093 0.1753821598244917 0 0.6171428571420019 0 0 1 0.1999999999995579 0 0.736048965634629 0.04426810495351469 0 0.6889285714275926 0.03241856974373129 0 0.6649999999989586 0 0 0.7711632887477744 0.07405684594402649 0 0.8152290215026471 0.08084712167625321 0 0.8675338713321064 0.08916625866731795 0 0.9132662022213005 0.107244221004141 0 0.9585164608801324 0.1254337829499267 0 1 0.1499999999997036 0 0.7128571428562255 0 0 0.7889359233385478 0.04063652854145294 0 0.8365568887352587 0.04307800356580255 0 0.9063550691765656 0.06835625662377523 0 0.9530928939766325 0.07351297874156898 0 1 0.09999999999981468 0 0.760714285713514 0 0 0.8803571428567862 0.04144550146695019 0 0.808571428570815 0 0 0.8564285714281437 0 0 0.9274581389734619 0.03691960757334238 0 1 0.04999999999989967 0 0.9042857142854293 0 0 0.9656625612147172 0.03443237135370414 0 0.9521428571427146 0 0 1 0 0 </DataArray>
      </Points>
      <Cells>
        <DataArray type="Int32" Name="connectivity" format="ascii">0 1 2 1 3 2 4 0 2 3 5 2 6 0 4 5 4 2 3 7 5 6 4 8 4 5 9 7 10 5 11 6 8 8 4 12 12 4 9 5 10 9 7 13 10 14 11 8 15 8 12 16 12 9 10 16 9 10 13 17 18 11 14 14 8 15 19 15 12 19 12 16 10 17 16 13 20 17 18 14 21 14 15 22 23 15 19 24 19 16 16 17 25 20 26 17 27 18 21 14 22 21 22 15 23 23 19 28 28 19 24 24 16 25 17 26 25 20 29 26 27 21 30 21 22 31 22 23 32 23 28 33 28 24 34 34 24 25 26 35 25 26 29 36 37 27 30 21 31 30 31 22 32 23 33 32 33 28 38 28 34 38 35 34 25 35 26 36 29 39 36 40 37 30 30 31 41 31 32 42 33 43 32 44 33 38 34 45 38 46 34 35 47 35 36 39 48 36 49 37 40 40 30 41 41 31 42 32 43 42 50 43 33 44 50 33 45 44 38 46 45 34 47 46 35 48 47 36 39 51 48 49 40 52 40 41 53 54 41 42 43 54 42 50 55 43 56 50 44 57 44 45 46 58 45 59 46 47 47 48 60 51 61 48 62 49 52 40 53 52 53 41 54 43 55 54 50 63 55 56 63 50 56 44 57 58 57 45 59 58 46 59 47 60 48 61 60 51 64 61 65 62 52 52 53 66 53 54 67 55 68 54 55 63 69 56 70 63 71 56 57 58 72 57 73 58 59 74 59 60 60 61 75 61 64 76 77 62 65 65 52 66 66 53 67 54 68 67 55 69 68 69 63 78 71 70 56 63 70 78 72 71 57 73 72 58 73 59 74 74 60 75 61 76 75 64 79 76 77 65 80 65 66 81 82 66 67 68 82 67 68 69 83 69 78 84 85 70 71 70 86 78 87 71 72 88 72 73 89 73 74 90 74 75 76 90 75 76 79 91 92 77 80 80 65 81 66 93 81 93 66 82 82 68 83 69 84 83 78 94 84 85 86 70 85 71 87 86 94 78 87 72 88 88 73 89 89 74 90 95 90 76 79 96 91 95 76 91 97 92 80 98 80 81 93 98 81 99 93 82 99 82 83 84 100 83 94 101 84 102 86 85 85 87 103 86 104 94 87 88 105 88 89 106 107 89 90 95 107 90 96 108 91 109 95 91 110 92 97 97 80 111 80 98 111 93 112 98 99 112 93 100 99 83 101 100 84 94 113 101 102 104 86 102 85 103 103 87 105 94 104 113 88 106 105 106 89 107 114 107 95 96 115 108 108 109 91 114 95 109 110 97 116 117 97 111 98 118 111 98 112 118 119 112 99 119 99 100 100 101 120 101 113 121 102 122 104 123 102 103 124 103 105 113 104 125 106 126 105 106 107 127 127 107 114 108 115 128 109 108 129 130 114 109 131 110 116 116 97 117 118 117 111 112 132 118 119 132 112 119 100 120 120 101 121 113 133 121 123 122 102 104 122 125 124 123 103 126 124 105 113 125 133 106 127 126 127 114 134 115 135 128 108 128 129 130 109 129 134 114 130 136 131 116 137 116 117 117 118 138 132 139 118 140 132 119 140 119 120 141 120 121 133 142 121 143 122 123 122 144 125 145 123 124 124 126 146 125 147 133 126 127 148 127 134 148 135 149 128 128 150 129 130 129 151 134 130 152 153 131 136 136 116 137 137 117 138 118 139 138 132 154 139 140 154 132 141 140 120 142 141 121 155 142 133 143 144 122 143 123 145 144 147 125 145 124 146 126 148 146 147 155 133 134 156 148 135 157 149 128 149 150 129 150 151 152 130 151 134 152 156 153 136 158 136 137 159 160 137 138 138 139 161 139 154 162 163 154 140 163 140 141 164 141 142 165 142 155 166 144 143 143 145 167 144 168 147 145 146 169 148 170 146 147 171 155 156 170 148 149 157 172 149 173 150 150 174 151 175 152 151 156 152 176 177 153 158 136 159 158 159 137 160 160 138 161 139 162 161 154 178 162 163 178 154 163 141 164 165 164 142 179 165 155 166 168 144 166 143 167 145 169 167 147 168 171 146 170 169 171 179 155 156 180 170 157 181 172 173 149 172 150 173 174 174 175 151 176 152 175 156 176 180 182 177 158 159 183 158 159 160 184 185 160 161 162 185 161 162 178 186 187 178 163 187 163 164 165 188 164 189 165 179 190 168 166 191 166 167 169 192 167 168 193 171 170 194 169 195 179 171 170 180 194 181 196 172 196 173 172 173 197 174 197 175 174 176 175 198 180 176 199 200 177 182 183 182 158 159 184 183 184 160 185 162 186 185 178 201 186 187 201 178 188 187 164 189 188 165 202 189 179 190 193 168 190 166 191 192 191 167 194 192 169 193 195 171 195 202 179 194 180 203 196 204 173 173 204 197 175 197 198 199 176 198 203 180 199 200 182 205 182 183 206 183 184 207 184 185 208 186 209 185 201 210 186 187 211 201 188 211 187 189 212 188 202 213 189 190 214 193 215 190 191 192 216 191 194 217 192 193 218 195 195 219 202 194 203 217 204 220 197 197 221 198 222 199 198 223 203 199 224 200 205 205 182 206 183 207 206 207 184 208 185 209 208 210 209 186 201 225 210 201 211 225 188 212 211 189 213 212 202 226 213 215 214 190 193 214 218 216 215 191 217 216 192 195 218 219 202 219 226 217 203 227 220 221 197 221 222 198 222 223 199 203 223 227 228 224 205 229 205 206 207 230 206 231 207 208 208 209 232 210 233 209 210 225 234 225 211 235 211 212 235 212 213 236 213 226 237 215 238 214 218 214 239 240 215 216 216 217 241 219 218 242 226 219 243 241 217 227 220 244 221 221 245 222 246 223 222 223 247 227 248 224 228 228 205 229 230 229 206 207 231 230 231 208 232 209 233 232 210 234 233 234 225 249 249 225 235 235 212 236 213 237 236 237 226 250 240 238 215 214 238 239 242 218 239 240 216 241 219 242 243 250 226 243 251 241 227 221 244 245 245 246 222 246 247 223 247 251 227 248 228 252 228 229 253 254 229 230 231 255 230 256 231 232 233 256 232 233 234 257 258 234 249 259 249 235 259 235 236 236 237 260 237 250 261 240 262 238 239 238 263 264 242 239 265 240 241 242 266 243 267 250 243 251 265 241 244 268 245 245 269 246 246 270 247 247 271 251 272 248 252 228 253 252 253 229 254 255 254 230 256 255 231 233 257 256 257 234 258 273 258 249 273 249 259 259 236 260 237 261 260 261 250 274 265 262 240 238 262 263 264 239 263 266 242 264 266 267 243 274 250 267 251 275 265 268 269 245 246 269 270 247 270 271 251 271 275 276 272 252 253 277 252 253 254 278 279 254 255 255 256 280 256 257 281 257 258 282 283 258 273 273 259 284 259 260 284 261 285 260 261 274 286 265 287 262 262 288 263 264 263 289 266 264 290 291 267 266 292 274 267 265 275 287 268 293 269 270 269 294 271 270 295 275 271 296 297 272 276 277 276 252 253 278 277 278 254 279 279 255 280 280 256 281 257 282 281 282 258 283 283 273 298 298 273 284 260 285 284 261 286 285 286 274 299 262 287 288 263 288 289 264 289 290 291 266 290 292 267 291 299 274 292 287 275 300 269 293 294 270 294 295 296 271 295 275 296 300 297 276 301 276 277 302 277 278 303 278 279 304 279 280 305 280 281 306 282 307 281 282 283 308 309 283 298 298 284 310 284 285 310 285 286 311 286 299 312 288 287 313 288 314 289 289 315 290 291 290 316 292 291 317 299 292 318 313 287 300 293 319 294 294 320 295 296 295 321 300 296 322 323 297 301 276 302 301 277 303 302 303 278 304 279 305 304 305 280 306 281 307 306 282 308 307 308 283 309 309 298 324 298 310 324 285 311 310 286 312 311 312 299 325 288 313 314 314 315 289 290 315 316 291 316 317 318 292 317 325 299 318 326 313 300 319 327 294 327 320 294 295 320 321 322 296 321 326 300 322 328 323 301 302 328 301 302 303 329 330 303 304 304 305 331 332 305 306 307 332 306 307 308 333 308 309 334 335 309 324 310 336 324 311 336 310 312 337 311 312 325 338 314 313 339 314 340 315 315 341 316 316 342 317 343 318 317 344 325 318 339 313 326 319 345 327 327 346 320 320 347 321 347 322 321 348 326 322 349 328 302 303 330 329 349 302 329 330 304 331 305 350 331 350 305 332 307 333 332 308 334 333 334 309 335 335 324 351 324 336 351 337 336 311 312 338 337 338 325 352 314 339 340 315 340 341 341 342 316 342 343 317 343 344 318 352 325 344 353 339 326 327 345 354 327 354 346 346 347 320 347 348 322 353 326 348 330 355 329 355 349 329 356 330 331 350 356 331 357 350 332 333 357 332 334 358 333 334 335 359 335 351 360 336 361 351 337 361 336 337 338 362 338 352 363 340 339 364 340 365 341 366 342 341 342 367 343 344 343 368 352 344 369 364 339 353 345 370 354 354 371 346 346 372 347 347 372 348 353 348 373 374 355 330 374 330 356 375 356 350 375 350 357 333 358 357 334 359 358 359 335 360 351 376 360 361 376 351 337 362 361 362 338 363 363 352 377 340 364 365 365 366 341 366 367 342 343 367 368 344 368 369 352 369 377 364 353 378 370 379 354 354 379 371 346 371 372 372 380 348 378 353 373 348 380 373 381 374 356 375 381 356 382 375 357 358 382 357 358 359 383 384 359 360 376 385 360 361 386 376 361 362 386 387 362 363 363 377 388 365 364 389 365 390 366 366 391 367 367 392 368 368 393 369 369 394 377 389 364 378 370 395 379 371 379 396 372 371 397 372 397 380 398 378 373 380 398 373 399 381 375 399 375 382 358 383 382 359 384 383 385 384 360 385 376 400 376 386 400 386 362 387 387 363 388 377 401 388 365 389 390 366 390 391 367 391 392 392 393 368 393 394 369 394 401 377 389 378 402 379 395 403 396 379 403 397 371 396 380 397 404 398 405 378 380 404 398 406 399 382 383 406 382 384 407 383 408 384 385 409 385 400 386 410 400 386 387 410 387 388 411 401 412 388 390 389 413 391 390 414 391 415 392 416 393 392 393 417 394 394 418 401 413 389 402 378 405 402 395 419 403 396 403 420 397 396 421 404 397 421 398 422 405 398 404 422 407 406 383 408 407 384 423 408 385 409 423 385 410 409 400 410 387 411 388 412 411 401 424 412 414 390 413 391 414 415 415 416 392 416 417 393 394 417 418 401 418 424 425 413 402 405 425 402 419 426 403 427 396 420 403 426 420 396 427 421 428 404 421 405 422 429 422 404 428 430 423 409 409 410 431 432 410 411 412 432 411 412 424 433 434 414 413 415 414 435 415 436 416 416 437 417 418 417 438 424 418 439 425 434 413 425 405 429 440 427 420 426 440 420 421 427 441 428 421 441 422 442 429 422 428 442 430 409 431 410 432 431 432 412 443 433 424 444 412 433 443 435 414 434 415 435 436 416 436 437 417 437 438 418 438 439 424 439 444 445 434 425 446 425 429 440 447 427 427 447 441 448 428 441 442 446 429 428 448 442 449 430 431 432 449 431 450 432 443 433 444 451 433 452 443 435 434 453 436 435 454 437 436 455 437 456 438 438 457 439 444 439 458 453 434 445 445 425 446 447 459 441 459 448 441 460 446 442 448 460 442 450 449 432 452 450 443 452 433 451 444 461 451 435 453 454 455 436 454 437 455 456 456 457 438 439 457 458 461 444 458 453 445 462 463 445 446 459 464 448 460 463 446 464 460 448 465 452 451 461 465 451 453 466 454 467 455 454 456 455 468 456 469 457 457 470 458 471 461 458 453 462 466 462 445 463 460 472 463 464 472 460 473 465 461 466 467 454 468 455 467 456 468 469 457 469 470 470 471 458 473 461 471 462 474 466 462 463 475 472 476 463 467 466 477 468 467 478 469 468 479 469 480 470 481 471 470 482 473 471 474 462 475 466 474 477 463 476 475 478 467 477 479 468 478 469 479 480 480 481 470 481 482 471 483 474 475 474 484 477 476 483 475 484 478 477 485 479 478 480 479 486 487 481 480 488 482 481 483 489 474 474 489 484 484 485 478 479 485 490 479 490 486 487 480 486 488 481 487 489 491 484 491 485 484 485 492 490 490 493 486 493 487 486 494 488 487 491 492 485 492 495 490 495 493 490 487 493 496 494 487 496 495 497 493 493 497 496 498 494 496 497 498 496 </DataArray>
        <DataArray type="Int32" Name="offsets" format="ascii">3 6 9 12 15 18 21 24 27 30 33 36 39 42 45 48 51 54 57 60 63 66 69 72 75 78 81 84 87 90 93 96 99 102 105 108 111 114 117 120 123 126 129 132 135 138 141 144 147 150 153 156 159 162 165 168 171 174 177 180 183 186 189 192 195 198 201 204 207 210 213 216 219 222 225 228 231 234 237 240 243 246 249 252 255 258 261 264 267 270 273 276 279 282 285 288 291 294 297 300 303 306 309 312 315 318 321 324 327 330 333 336 339 342 345 348 351 354 357 360 363 366 369 372 375 378 381 384 387 390 393 396 399 402 405 408 411 414 417 420 423 426 429 432 435 438 441 444 447 450 453 456 459 462 465 468 471 474 477 480 483 486 489 492 495 498 501 504 507 510 513 516 519 522 525 528 531 534 537 540 543 546 549 552 555 558 561 564 567 570 573 576 579 582 585 588 591 594 597 600 603 606 609 612 615 618 621 624 627 630 633 636 639 642 645 648 651 654 657 660 663 666 669 672 675 678 681 684 687 690 693 696 699 702 705 708 711 714 717 720 723 726 729 732 735 738 741 744 747 750 753 756 759 762 765 768 771 774 777 780 783 786 789 792 795 798 801 804 807 810 813 816 819 822 825 828 831 834 837 840 843 846 849 852 855 858 861 864 867 870 873 876 879 882 885 888 891 894 897 900 903 906 909 912 915 918 921 924 927 930 933 936 939 942 945 948 951 954 957 960 963 966 969 972 975 978 981 984 987 990 993 996 999 1002 1005 1008 1011 1014 1017 1020 1023 1026 1029 1032 1035 1038 1041 1044 1047 1050 1053 1056 1059 1062 1065 1068 1071 1074 1077 1080 1083 1086 1089 1092 1095 1098 1101 1104 1107 1110 1113 1116 1119 1122 1125 1128 1131 1134 1137 1140 1143 1146 1149 1152 1155 1158 1161 1164 1167 1170 1173 1176 1179 1182 1185 1188 1191 1194 1197 1200 1203 1206 1209 1212 1215 1218 1221 1224 1227 1230 1233 1236 1239 1242 1245 1248 1251 1254 1257 1260 1263 1266 1269 1272 1275 1278 1281 1284 1287 1290 1293 1296 1299 1302 1305 1308 1311 1314 1317 1320 1323 1326 1329 1332 1335 1338 1341 1344 1347 1350 1353 1356 1359 1362 1365 1368 1371 1374 1377 1380 1383 1386 1389 1392 1395 1398 1401 1404 1407 1410 1413 1416 1419 1422 1425 1428 1431 1434 1437 1440 1443 1446 1449 1452 1455 1458 1461 1464 1467 1470 1473 1476 1479 1482 1485 1488 1491 1494 1497 1500 1503 1506 1509 1512 1515 1518 1521 1524 1527 1530 1533 1536 1539 1542 1545 1548 1551 1554 1557 1560 1563 1566 1569 1572 1575 1578 1581 1584 1587 1590 1593 1596 1599 1602 1605 1608 1611 1614 1617 1620 1623 1626 1629 1632 1635 1638 1641 1644 1647 1650 1653 1656 1659 1662 1665 1668 1671 1674 1677 1680 1683 1686 1689 1692 1695 1698 1701 1704 1707 1710 1713 1716 1719 1722 1725 1728 1731 1734 1737 1740 1743 1746 1749 1752 1755 1758 1761 1764 1767 1770 1773 1776 1779 1782 1785 1788 1791 1794 1797 1800 1803 1806 1809 1812 1815 1818 1821 1824 1827 1830 1833 1836 1839 1842 1845 1848 1851 1854 1857 1860 1863 1866 1869 1872 1875 1878 1881 1884 1887 1890 1893 1896 1899 1902 1905 1908 1911 1914 1917 1920 1923 1926 1929 1932 1935 1938 1941 1944 1947 1950 1953 1956 1959 1962 1965 1968 1971 1974 1977 1980 1983 1986 1989 1992 1995 1998 2001 2004 2007 2010 2013 2016 2019 2022 2025 2028 2031 2034 2037 2040 2043 2046 2049 2052 2055 2058 2061 2064 2067 2070 2073 2076 2079 2082 2085 2088 2091 2094 2097 2100 2103 2106 2109 2112 2115 2118 2121 2124 2127 2130 2133 2136 2139 2142 2145 2148 2151 2154 2157 2160 2163 2166 2169 2172 2175 2178 2181 2184 2187 2190 2193 2196 2199 2202 2205 2208 2211 2214 2217 2220 2223 2226 2229 2232 2235 2238 2241 2244 2247 2250 2253 2256 2259 2262 2265 2268 2271 2274 2277 2280 2283 2286 2289 2292 2295 2298 2301 2304 2307 2310 2313 2316 2319 2322 2325 2328 2331 2334 2337 2340 2343 2346 2349 2352 2355 2358 2361 2364 2367 2370 2373 2376 2379 2382 2385 2388 2391 2394 2397 2400 2403 2406 2409 2412 2415 2418 2421 2424 2427 2430 2433 2436 2439 2442 2445 2448 2451 2454 2457 2460 2463 2466 2469 2472 2475 2478 2481 2484 2487 2490 2493 2496 2499 2502 2505 2508 2511 2514 2517 2520 2523 2526 2529 2532 2535 2538 2541 2544 2547 2550 2553 2556 2559 2562 2565 2568 2571 2574 2577 2580 2583 2586 2589 2592 2595 2598 2601 2604 2607 2610 2613 2616 2619 2622 2625 2628 2631 2634 2637 2640 2643 2646 2649 2652 2655 2658 2661 2664 2667 2670 2673 2676 2679 2682 2685 2688 2691 2694 2697 2700 2703 2706 2709 2712 2715 2718 2721 2724 2727 2730 2733 2736 2739 2742 2745 2748 2751 </DataArray>
        <DataArray type="Int8" Name="types" format="ascii">69 69 69 69 69 69 69 69 69 69 69 69 69 69 69 69 69 69 69 69 69 69 69 69 69 69 69 69 69 69 69 69 69 69 69 69 69 69 69 69 69 69 69 69 69 69 69 69 69 69 69 69 69 69 69 69 69 69 69 69 69 69 69 69 69 69 69 69 69 69 69 69 69 69 69 69 69 69 69 69 69 69 69 69 69 69 69 69 69 69 69 69 69 69 69 69 69 69 69 69 69 69 69 69 69 69 69 69 69 69 69 69 69 69 69 69 69 69 69 69 69 69 69 69 69 69 69 69 69 69 69 69 69 69 69 69 69 69 69 69 69 69 69 69 69 69 69 69 69 69 69 69 69 69 69 69 69 69 69 69 69 69 69 69 69 69 69 69 69 69 69 69 69 69 69 69 69 69 69 69 69 69 69 69 69 69 69 69 69 69 69 69 69 69 69 69 69 69 69 69 69 69 69 69 69 69 69 69 69 69 69 69 69 69 69 69 69 69 69 69 69 69 69 69 69 69 69 69 69 69 69 69 69 69 69 69 69 69 69 69 69 69 69 69 69 69 69 69 69 69 69 69 69 69 69 69 69 69 69 69 69 69 69 69 69 69 69 69 69 69 69 69 69 69 69 69 69 69 69 69 69 69 69 69 69 69 69 69 69 69 69 69 69 69 69 69 69 69 69 69 69 69 69 69 69 69 69 69 69 69 69 69 69 69 69 69 69 69 69 69 69 69 69 69 69 69 69 69 69 69 69 69 69 69 69 69 69 69 69 69 69 69 69 69 69 69 69 69 69 69 69 69 69 69 69 69 69 69 69 69 69 69 69 69 69 69 69 69 69 69 69 69 69 69 69 69 69 69 69 69 69 69 69 69 69 69 69 69 69 69 69 69 69 69 69 69 69 69 69 69 69 69 69 69 69 69 69 69 69 69 69 69 69 69 69 69 69 69 69 69 69 69 69 69 69 69 69 69 69 69 69 69 69 69 69 69 69 69 69 69 69 69 69 69 69 69 69 69 69 69 69 69 69 69 69 69 69 69 69 69 69 69 69 69 69 69 69 69 69 69 69 69 69 69 69 69 69 69 69 69 69 69 69 69 69 69 69 69 69 69 69 69 69 69 69 69 69 69 69 69 69 69 69 69 69 69 69 69 69 69 69 69 69 69 69 69 69 69 69 69 69 69 69 69 69 69 69 69 69 69 69 69 69 69 69 69 69 69 69 69 69 69 69 69 69 69 69 69 69 69 69 69 69 69 69 69 69 69 69 69 69 69 69 69 69 69 69 69 69 69 69 69 69 69 69 69 69 69 69 69 69 69 69 69 69 69 69 69 69 69 69 69 69 69 69 69 69 69 69 69 69 69 69 69 69 69 69 69 69 69 69 69 69 69 69 69 69 69 69 69 69 69 69 69 69 69 69 69 69 69 69 69 69 69 69 69 69 69 69 69 69 69 69 69 69 69 69 69 69 69 69 69 69 69 69 69 69 69 69 69 69 69 69 69 69 69 69 69 69 69 69 69 69 69 69 69 69 69 69 69 69 69 69 69 69 69 69 69 69 69 69 69 69 69 69 69 69 69 69 69 69 69 69 69 69 69 69 69 69 69 69 69 69 69 69 69 69 69 69 69 69 69 69 69 69 69 69 69 69 69 69 69 69 69 69 69 69 69 69 69 69 69 69 69 69 69 69 69 69 69 69 69 69 69 69 69 69 69 69 69 69 69 69 69 69 69 69 69 69 69 69 69 69 69 69 69 69 69 69 69 69 69 69 69 69 69 69 69 69 69 69 69 69 69 69 69 69 69 69 69 69 69 69 69 69 69 69 69 69 69 69 69 69 69 69 69 69 69 69 69 69 69 69 69 69 69 69 69 69 69 69 69 69 69 69 69 69 69 69 69 69 69 69 69 69 69 69 69 69 69 69 69 69 69 69 69 69 69 69 69 69 69 69 69 69 69 69 69 69 69 69 69 69 69 69 69 69 69 69 69 69 69 69 69 69 69 69 69 69 69 69 69 69 69 69 69 69 69 69 69 69 69 69 69 69 69 69 69 69 69 69 69 69 69 69 69 69 </DataArray>
      </Cells>
      <CellData Tensors="stress" Vectors="von_mises_stress">
        <DataArray type="UInt8" Name="vtkGhostType" format="ascii" RangeMin="0" RangeMax="1">0 0 0 0 0 0 0 0 0 0 0 0 0 0 0 0 0 0 0 0 0 0 0 0 0 0 0 0 0 0 0 0 0 0 0 0 0 0 0 0 0 0 0 0 0 0 0 0 0 0 0 0 0 0 0 0 0 0 0 0 0 0 0 0 0 0 0 0 0 0 0 0 0 0 0 0 0 0 0 0 0 0 0 0 0 0 0 0 0 0 0 0 0 0 0 0 0 0 0 0 0 0 0 0 0 0 0 0 0 0 0 0 0 0 0 0 0 0 0 0 0 0 0 0 0 0 0 0 0 0 0 0 0 0 0 0 0 0 0 0 0 0 0 0 0 0 0 0 0 0 0 0 0 0 0 0 0 0 0 0 0 0 0 0 0 0 0 0 0 0 0 0 0 0 0 0 0 0 0 0 0 0 0 0 0 0 0 0 0 0 0 0 0 0 0 0 0 0 0 0 0 0 0 0 0 0 0 0 0 0 0 0 0 0 0 0 0 0 0 0 0 0 0 0 0 0 0 0 0 0 0 0 0 0 0 0 0 0 0 0 0 0 0 0 0 0 0 0 0 0 0 0 0 0 0 0 0 0 0 0 0 0 0 0 0 0 0 0 0 0 0 0 0 0 0 0 0 0 0 0 0 0 0 0 0 0 0 0 0 0 0 0 0 0 0 0 0 0 0 0 0 0 0 0 0 0 0 0 0 0 0 0 0 0 0 0 0 0 0 0 0 0 0 0 0 0 0 0 0 0 0 0 0 0 0 0 0 0 0 0 0 0 0 0 0 0 0 0 0 0 0 0 0 0 0 0 0 0 0 0 0 0 0 0 0 0 0 0 0 0 0 0 0 0 0 0 0 0 0 0 0 0 0 0 0 0 0 0 0 0 0 0 0 0 0 0 0 0 0 0 0 0 0 0 0 0 0 0 0 0 0 0 0 0 0 0 0 0 0 0 0 0 0 0 0 0 0 0 0 0 0 0 0 0 0 0 0 0 0 0 0 0 0 0 0 0 0 0 0 0 0 0 0 0 0 0 0 0 0 0 0 0 0 0 0 0 0 0 0 0 0 0 0 0 0 0 0 0 0 0 0 0 0 0 0 0 0 0 0 0 0 0 0 0 0 0 0 0 0 0 0 0 0 0 0 0 0 0 0 0 0 0 0 0 0 0 0 0 0 0 0 0 0 0 0 0 0 0 0 0 0 0 0 0 0 0 0 0 0 0 0 0 0 0 0 0 0 0 0 0 0 0 0 0 0 0 0 0 0 0 0 0 0 0 0 0 0 0 0 0 0 0 0 0 0 0 0 0 0 0 0 0 0 0 0 0 0 0 0 0 0 0 0 0 0 0 0 0 0 0 0 0 0 0 0 0 0 0 0 0 0 0 0 0 0 0 0 0 0 0 0 0 0 0 0 0 0 0 0 0 0 0 0 0 0 0 0 0 0 0 0 0 0 0 0 0 0 0 0 0 0 0 0 0 0 0 0 0 0 0 0 0 0 0 0 0 0 0 0 0 0 0 0 0 0 0 0 0 0 0 0 0 0 0 0 0 0 0 0 0 0 0 0 0 0 0 0 0 0 0 0 0 0 0 0 0 0 0 0 0 0 0 0 0 0 0 0 0 0 0 0 0 0 0 0 0 0 0 0 0 0 0 0 0 0 0 0 0 0 0 0 0 0 0 0 0 0 0 0 0 0 0 0 0 0 0 0 0 0 0 0 0 0 0 0 0 0 0 0 0 0 0 0 0 0 0 0 0 0 0 0 0 0 0 0 0 0 0 0 0 0 0 0 0 0 0 0 0 0 0 0 0 0 0 0 0 0 0 0 0 0 0 0 0 0 0 0 0 0 0 0 0 0 0 0 0 0 0 0 0 0 0 0 0 0 0 0 0 0 0 0 0 0 0 0 0 0 0 0 0 0 0 0 0 0 0 0 0 0 0 0 0 0 0 0 0 0 0 0 0 0 0 0 0 0 0 0 0 0 0 0 0 0 0 0 0 0 0 0 0 0 0 0 0 0 0 0 0 0 0 0 0 0 0 0 0 0 0 0 0 0 0 0 0 0 0 0 </DataArray>
        <DataArray type="Int64" IdType="1" Name="vtkOriginalCellIds" format="ascii" RangeMin="0" RangeMax="916">0 1 2 3 4 5 6 7 8 9 10 11 12 13 14 15 16 17 18 19 20 21 22 23 24 25 26 27 28 29 30 31 32 33 34 35 36 37 38 39 40 41 42 43 44 45 46 47 48 49 50 51 52 53 54 55 56 57 58 59 60 61 62 63 64 65 66 67 68 69 70 71 72 73 74 75 76 77 78 79 80 81 82 83 84 85 86 87 88 89 90 91 92 93 94 95 96 97 98 99 100 101 102 103 104 105 106 107 108 109 110 111 112 113 114 115 116 117 118 119 120 121 122 123 124 125 126 127 128 129 130 131 132 133 134 135 136 137 138 139 140 141 142 143 144 145 146 147 148 149 150 151 152 153 154 155 156 157 158 159 160 161 162 163 164 165 166 167 168 169 170 171 172 173 174 175 176 177 178 179 180 181 182 183 184 185 186 187 188 189 190 191 192 193 194 195 196 197 198 199 200 201 202 203 204 205 206 207 208 209 210 211 212 213 214 215 216 217 218 219 220 221 222 223 224 225 226 227 228 229 230 231 232 233 234 235 236 237 238 239 240 241 242 243 244 245 246 247 248 249 250 251 252 253 254 255 256 257 258 259 260 261 262 263 264 265 266 267 268 269 270 271 272 273 274 275 276 277 278 279 280 281 282 283 284 285 286 287 288 289 290 291 292 293 294 295 296 297 298 299 300 301 302 303 304 305 306 307 308 309 310 311 312 313 314 315 316 317 318 319 320 321 322 323 324 325 326 327 328 329 330 331 332 333 334 335 336 337 338 339 340 341 342 343 344 345 346 347 348 349 350 351 352 353 354 355 356 357 358 359 360 361 362 363 364 365 366 367 368 369 370 371 372 373 374 375 376 377 378 379 380 381 382 383 384 385 386 387 388 389 390 391 392 393 394 395 396 397 398 399 400 401 402 403 404 405 406 407 408 409 410 411 412 413 414 415 416 417 418 419 420 421 422 423 424 425 426 427 428 429 430 431 432 433 434 435 436 437 438 439 440 441 442 443 444 445 446 447 448 449 450 451 452 453 454 455 456 457 458 459 460 461 462 463 464 465 466 467 468 469 470 471 472 473 474 475 476 477 478 479 480 481 482 483 484 485 486 487 488 489 490 491 492 493 494 495 496 497 498 499 500 501 502 503 504 505 506 507 508 509 510 511 512 513 514 515 516 517 518 519 520 521 522 523 524 525 526 527 528 529 530 531 532 533 534 535 536 537 538 539 540 541 542 543 544 545 546 547 548 549 550 551 552 553 554 555 556 557 558 559 560 561 562 563 564 565 566 567 568 569 570 571 572 573 574 575 576 577 578 579 580 581 582 583 584 585 586 587 588 589 590 591 592 593 594 595 596 597 598 599 600 601 602 603 604 605 606 607 608 609 610 611 612 613 614 615 616 617 618 619 620 621 622 623 624 625 626 627 628 629 630 631 632 633 634 635 636 637 638 639 640 641 642 643 644 645 646 647 648 649 650 651 652 653 654 655 656 657 658 659 660 661 662 663 664 665 666 667 668 669 670 671 672 673 674 675 676 677 678 679 680 681 682 683 684 685 686 687 688 689 690 691 692 693 694 695 696 697 698 699 700 701 702 703 704 705 706 707 708 709 710 711 712 713 714 715 716 717 718 719 720 721 722 723 724 725 726 727 728 729 730 731 732 733 734 735 736 737 738 739 740 741 742 743 744 745 746 747 748 749 750 751 752 753 754 755 756 757 758 759 760 761 762 763 764 765 766 767 768 769 770 771 772 773 774 775 776 777 778 779 780 781 782 783 784 785 786 787 788 789 790 791 792 793 794 795 796 797 798 799 800 801 802 803 804 805 806 807 808 809 810 811 812 813 814 815 816 817 818 819 820 821 822 823 824 825 826 827 828 829 830 831 832 833 834 835 836 837 838 839 840 841 842 843 844 845 846 847 848 849 850 851 852 853 854 855 856 857 858 859 860 861 862 863 864 865 866 867 868 869 870 871 872 873 874 875 876 877 878 879 880 881 882 883 884 885 886 887 888 889 890 891 892 893 894 895 896 897 898 899 900 901 902 903 904 905 906 907 908 909 910 911 912 913 914 915 916 </DataArray>
        <DataArray type="Float64" Name="stress" format="ascii" NumberOfComponents="9">107374417.9792953 591067.7949197318 591067.7949197318 14891559.87055651 0 0 0 0 0 107712016.9593715 647353.5281967592 647353.5281967592 14764195.90598604 0 0 0 0 0 107818095.2295177 1398686.639892709 1398686.639892709 14010655.60819927 0 0 0 0 0 108139442.3627154 335212.2400323174 335212.2400323174 15458347.41518839 0 0 0 0 0 107585000.6356773 1832491.183416317 1832491.183416317 14615019.05290319 0 0 0 0 0 108318904.9773439 1605636.6090909 1605636.6090909 15603432.22079202 0 0 0 0 0 108797583.3250458 720521.4190390436 720521.4190390436 16209246.97466417 0 0 0 0 0 108116626.2134378 2699094.864194734 2699094.864194734 13280668.25559924 0 0 0 0 0 108723841.8805884 1399896.865541443 1399896.865541443 15702404.48410558 0 0 0 0 0 109289223.8135853 427097.9728320303 427097.9728320303 16602594.10501703 0 0 0 0 0 107841159.307218 2895386.223689108 2895386.223689108 13606855.0326749 0 0 0 0 0 108670106.333779 2592514.731878313 2592514.731878313 15086870.44193777 0 0 0 0 0 109145499.9044223 2738486.396735225 2738486.396735225 15286045.00926971 0 0 0 0 0 109494536.0191851 1895198.416586851 1895198.416586851 16981291.73476675 0 0 0 0 0 109983241.9245741 868133.9448195264 868133.9448195264 17731268.11070017 0 0 0 0 0 108483511.5241291 3767213.376173686 3767213.376173686 12145524.54128034 0 0 0 0 0 109384284.636799 3729449.576112278 3729449.576112278 13721435.68133674 0 0 0 0 0 109703638.771692 2524122.495600655 2524122.495600655 16978941.78074584 0 0 0 0 0 110032548.490704 1819682.707962702 1819682.707962702 16463186.16937954 0 0 0 0 0 110692149.381627 448026.1300113352 448026.1300113352 18308394.68474394 0 0 0 0 0 108179564.5912353 3772984.21693104 3772984.21693104 12165617.88837085 0 0 0 0 0 108963617.7060556 3727175.47385278 3727175.47385278 13742127.65004624 0 0 0 0 0 109971512.5974136 3521564.076977921 3521564.076977921 15583684.03338797 0 0 0 0 0 110493998.8992313 3512565.89870693 3512565.89870693 15556726.89507844 0 0 0 0 0 110780165.6927273 2276584.543024969 2276584.543024969 18175259.6794119 0 0 0 0 0 111517684.6021683 971714.1396053297 971714.1396053297 19436092.2610486 0 0 0 0 0 109005336.6307652 4599064.77489105 4599064.77489105 10740438.28922432 0 0 0 0 0 109865836.5515939 4649078.129971513 4649078.129971513 12162744.36782256 0 0 0 0 0 110777430.4875449 4672746.283583475 4672746.283583475 13823327.61859268 0 0 0 0 0 111000217.2825835 3252557.643344495 3252557.643344495 16996219.78774361 0 0 0 0 0 111524772.5260463 1904957.987297588 1904957.987297588 18355537.46346167 0 0 0 0 0 112412177.1288882 486973.8337616469 486973.8337616469 19991349.5425057 0 0 0 0 0 108573864.9043975 4406903.27018254 4406903.27018254 10436874.37817851 0 0 0 0 0 109368955.1713924 4511931.175661409 4511931.175661409 11953366.10560393 0 0 0 0 0 110290162.0185547 4500673.371746305 4500673.371746305 13560114.86967476 0 0 0 0 0 111300363.2268731 4498471.999342654 4498471.999342654 15523800.52289769 0 0 0 0 0 111902910.8955893 4595592.059562369 4595592.059562369 15598767.81720557 0 0 0 0 0 112032422.4574571 3838282.305171564 3838282.305171564 18150866.92932524 0 0 0 0 0 112510923.6863741 2532061.539826888 2532061.539826888 19998231.53501654 0 0 0 0 0 113430445.1697758 1130464.817561975 1130464.817561975 21366889.45103594 0 0 0 0 0 109543066.1108006 5171575.909156937 5171575.909156937 9090949.4515475 0 0 0 0 0 110424389.8040837 5364275.850402488 5364275.850402488 10417102.64145081 0 0 0 0 0 111419919.0395847 5600505.735630929 5600505.735630929 11951095.14153576 0 0 0 0 0 112602217.4235253 5676370.780913717 5676370.780913717 13406480.68404059 0 0 0 0 0 112607360.830417 4539747.384269116 4539747.384269116 17976800.79503652 0 0 0 0 0 112607105.741017 3587511.203156725 3587511.203156725 17085493.64296299 0 0 0 0 0 113449827.5117092 2076466.496407271 2076466.496407271 19726318.97435049 0 0 0 0 0 114607670.9589912 512700.0867200433 512700.0867200433 21879377.50426658 0 0 0 0 0 108957475.1753477 4777939.169166565 4777939.169166565 8459031.15171966 0 0 0 0 0 109767338.4616866 5005280.120623609 5005280.120623609 9826728.612084065 0 0 0 0 0 110682488.2879729 5182038.252397103 5182038.252397103 11207621.65229844 0 0 0 0 0 111709384.0369407 5227539.218235557 5227539.218235557 12642654.88449604 0 0 0 0 0 113163792.1067209 5545706.166301015 5545706.166301015 15347335.69987528 0 0 0 0 0 113716392.998054 5591016.648071093 5591016.648071093 15336756.90665056 0 0 0 0 0 113747951.185881 4228758.972252123 4228758.972252123 20003151.69711554 0 0 0 0 0 114747164.732166 2905420.462581787 2905420.462581787 22006336.2393539 0 0 0 0 0 115923784.9221362 1357679.764461661 1357679.764461661 23568564.64109422 0 0 0 0 0 110094190.7074227 5425864.659043281 5425864.659043281 7273012.061588796 0 0 0 0 0 110921932.4703089 5730551.404468892 5730551.404468892 8360069.717006312 0 0 0 0 0 111869149.4168146 6065516.270723703 6065516.270723703 9808445.939141965 0 0 0 0 0 113144949.062129 6543487.795536855 6543487.795536855 11394952.92269937 0 0 0 0 0 114081078.9602415 5847990.590678074 5847990.590678074 12510947.49609964 0 0 0 0 0 114164830.8717333 5126439.006099534 5126439.006099534 16334795.62103018 0 0 0 0 0 114651132.3012217 3741901.800339166 3741901.800339166 18866245.10086025 0 0 0 0 0 115909743.525839 2348540.344718474 2348540.344718474 21573316.40758905 0 0 0 0 0 117518313.8659292 541211.6497378901 541211.6497378901 24140346.44952195 0 0 0 0 0 109296763.5574189 4860914.081068222 4860914.081068222 6376844.927211231 0 0 0 0 0 110161618.9968596 5199393.220677603 5199393.220677603 7533076.741495397 0 0 0 0 0 111056926.2372166 5571965.347140123 5571965.347140123 8897287.26543992 0 0 0 0 0 111890668.4329364 5683651.937903286 5683651.937903286 9259287.391966887 0 0 0 0 0 113324281.549935 5915074.343418261 5915074.343418261 9886953.668008694 0 0 0 0 0 114780143.3557195 6870951.153672692 6870951.153672692 12805391.79494409 0 0 0 0 0 115471988.1845131 6748931.789430264 6748931.789430264 15491923.98310304 0 0 0 0 0 115657724.0066771 6050649.513179974 6050649.513179974 18419199.27596296 0 0 0 0 0 116116470.8350179 4673171.982343667 4673171.982343667 21771329.69083408 0 0 0 0 0 117344515.0948621 3276319.66913266 3276319.66913266 24067434.15684459 0 0 0 0 0 119198455.4213057 1632490.086353798 1632490.086353798 26121060.47106023 0 0 0 0 0 110492585.524729 5394544.530577005 5394544.530577005 5424112.0119972 0 0 0 0 0 111448927.4260549 5784068.707322219 5784068.707322219 6315640.070746019 0 0 0 0 0 112083096.6423602 6015856.366973212 6015856.366973212 7179554.259935863 0 0 0 0 0 112739593.2448166 6388384.829259068 6388384.829259068 8907238.545038182 0 0 0 0 0 114596365.1359564 6908772.318816541 6908772.318816541 9750366.765845481 0 0 0 0 0 115316552.8299676 6229057.97478823 6229057.97478823 10194482.6924819 0 0 0 0 0 116054647.5682236 6088685.861816345 6088685.861816345 13851217.91769626 0 0 0 0 0 116303352.9180141 5195559.520003091 5195559.520003091 17481875.99933966 0 0 0 0 0 117352035.1557355 4020420.316422182 4020420.316422182 20830133.11755406 0 0 0 0 0 119101850.2560144 2458704.737911852 2458704.737911852 23963724.0607105 0 0 0 0 0 121412093.0541259 575182.5426416902 575182.5426416902 26458064.51696293 0 0 0 0 0 109582572.8384005 4720182.427377147 4720182.427377147 4387270.445674791 0 0 0 0 0 110483333.0924185 5100485.918610389 5100485.918610389 5391961.416530425 0 0 0 0 0 111560832.8001044 5586600.184784215 5586600.184784215 6729229.507513748 0 0 0 0 0 113194725.1644221 5945390.232781915 5945390.232781915 6990621.87377121 0 0 0 0 0 114929512.5914783 6217405.957046089 6217405.957046089 7154456.801449374 0 0 0 0 0 116536542.8181822 7322233.121309355 7322233.121309355 10114202.90701184 0 0 0 0 0 117132849.270559 7458702.946263737 7458702.946263737 13558145.33508611 0 0 0 0 0 117750514.1134906 7218649.273861236 7218649.273861236 16934083.19552527 0 0 0 0 0 118236503.8694529 6405192.715493347 6405192.715493347 20311339.97304797 0 0 0 0 0 118996907.0998742 5064442.441311681 5064442.441311681 23523758.12288477 0 0 0 0 0 120804731.6850376 3545950.44139277 3545950.44139277 26689222.84779447 0 0 0 0 0 123856564.3814024 2094333.028605599 2094333.028605599 28869730.15742986 0 0 0 0 0 110880480.6971943 5086019.902183563 5086019.902183563 3625738.74391856 0 0 0 0 0 111767101.9332204 5521148.47543194 5521148.47543194 4217016.160594559 0 0 0 0 0 112809394.4681848 6037642.458298561 6037642.458298561 5342089.048280635 0 0 0 0 0 114107774.6164932 6529265.99096515 6529265.99096515 6891646.343706101 0 0 0 0 0 115917521.4510867 6824996.16578489 6824996.16578489 7186171.705275656 0 0 0 0 0 117074264.7280907 6415139.401632685 6415139.401632685 7213115.850096569 0 0 0 0 0 117780513.3032281 6531962.954333156 6531962.954333156 10825996.19333317 0 0 0 0 0 118493163.6262906 6226460.76460548 6226460.76460548 14898121.23249851 0 0 0 0 0 119334232.017198 5323770.528024971 5323770.528024971 19038501.30561709 0 0 0 0 0 120946197.7681345 4153249.478856556 4153249.478856556 23100239.71810186 0 0 0 0 0 123441388.6456408 2873257.646932851 2873257.646932851 25905958.08795694 0 0 0 0 0 126492173.6880158 513898.6209241129 513898.6209241129 28880488.87458377 0 0 0 0 0 109735713.008912 4306071.05182264 4306071.05182264 2406301.884843207 0 0 0 0 0 110747192.3077853 4720612.619172757 4720612.619172757 3145817.643465379 0 0 0 0 0 111806389.5166364 5326999.3829056 5326999.3829056 4552588.992784679 0 0 0 0 0 112750457.6864014 5550549.411403718 5550549.411403718 4626617.948574079 0 0 0 0 0 114418184.9807266 5790060.341030573 5790060.341030573 4438538.168649289 0 0 0 0 0 116410852.9424844 5947287.899954021 5947287.899954021 4148147.11969695 0 0 0 0 0 118948175.395083 7710447.371216141 7710447.371216141 10697710.95456953 0 0 0 0 0 118047138.3430872 7088483.426141188 7088483.426141188 7218940.523287956 0 0 0 0 0 119831088.357541 7936787.901462516 7936787.901462516 14594330.74361663 0 0 0 0 0 120706300.5349001 7674702.259807283 7674702.259807283 18517691.68185083 0 0 0 0 0 121711437.0887365 6768244.20360969 6768244.20360969 22206418.51308117 0 0 0 0 0 122787493.9997485 5283637.923430073 5283637.923430073 25669066.35651097 0 0 0 0 0 125088762.709034 3820188.111322545 3820188.111322545 30004634.81637517 0 0 0 0 0 129453193.1326255 2608115.129220165 2608115.129220165 31669414.75796045 0 0 0 0 0 110946715.9394789 4593233.221277591 4593233.221277591 1791061.849925539 0 0 0 0 0 111956710.1397766 5074192.703700518 5074192.703700518 2484169.584115173 0 0 0 0 0 112760050.5901592 5305095.289728264 5305095.289728264 2647882.782010918 0 0 0 0 0 113662523.8426899 5893886.314630019 5893886.314630019 4632017.479459086 0 0 0 0 0 115228338.5704044 6086362.183888729 6086362.183888729 4539510.386196906 0 0 0 0 0 117048558.7050047 6202444.022264296 6202444.022264296 4228516.921016091 0 0 0 0 0 119724390.0759633 6496315.207759267 6496315.207759267 7202482.417801636 0 0 0 0 0 118736076.827557 5940306.597899696 5940306.597899696 3682023.7389486 0 0 0 0 0 120728972.4860723 6658704.117180931 6658704.117180931 11379432.30036195 0 0 0 0 0 121851563.0249848 6275450.675597594 6275450.675597594 16053477.59664755 0 0 0 0 0 123281462.5550888 5226250.341917059 5226250.341917059 20954209.23248111 0 0 0 0 0 125465863.5586401 3908103.513755835 3908103.513755835 25382267.12673607 0 0 0 0 0 128552452.2592926 4985873.587192819 4985873.587192819 26640933.5839874 0 0 0 0 0 133325373.7387296 -127799.9952228361 -127799.9952228361 32374444.47960354 0 0 0 0 0 109744392.5673274 3745845.486805613 3745845.486805613 517877.2781771875 0 0 0 0 0 110675881.1075473 4223875.579932597 4223875.579932597 1317963.714105051 0 0 0 0 0 111887334.2904351 4491096.260418031 4491096.260418031 1024813.754240793 0 0 0 0 0 112826704.3329625 5135519.95665096 5135519.95665096 2710028.13094098 0 0 0 0 0 114097289.7280413 5285615.272890867 5285615.272890867 2255419.096325777 0 0 0 0 0 115742905.5594903 5276642.258693242 5276642.258693242 1671818.716156133 0 0 0 0 0 117781322.5018304 5138907.164723183 5138907.164723183 900573.6715137884 0 0 0 0 0 120489766.4453924 7184574.018432637 7184574.018432637 7146557.381362151 0 0 0 0 0 121792146.0406776 7945440.82655484 7945440.82655484 11173116.13105876 0 0 0 0 0 119169925.9335316 6137365.837798682 6137365.837798682 3727571.661129983 0 0 0 0 0 123101484.7694311 8270498.82633984 8270498.82633984 15624196.43823357 0 0 0 0 0 124506148.7907717 7986047.116628495 7986047.116628495 20227591.78073847 0 0 0 0 0 126022405.8433 6894770.38750653 6894770.38750653 24635475.86996318 0 0 0 0 0 129959515.1442392 3030286.197187453 3030286.197187453 28701551.13490874 0 0 0 0 0 138740241.6858096 2720553.8702174 2720553.8702174 34095780.84150625 0 0 0 0 0 135483260.7063065 5231613.134232803 5231613.134232803 30976223.02081766 0 0 0 0 0 110854354.0398764 3910025.255732725 3910025.255732725 386969.9959320109 0 0 0 0 0 111878520.8389124 4152036.925679662 4152036.925679662 105068.5159829814 0 0 0 0 0 112312600.4534957 4442262.88858738 4442262.88858738 1162858.872334698 0 0 0 0 0 113400013.7930271 4556527.296685573 4556527.296685573 410520.1978342978 0 0 0 0 0 114362190.2345605 5230600.928909474 5230600.928909474 2350949.624566134 0 0 0 0 0 115999115.9286514 5195250.071547027 5195250.071547027 1774290.628440893 0 0 0 0 0 117761163.5710555 4949522.233391445 4949522.233391445 960751.5379876166 0 0 0 0 0 121470968.5586314 5691660.267242525 5691660.267242525 3070477.249369017 0 0 0 0 0 122891652.1017508 6333316.856649648 6333316.856649648 7088314.374742358 0 0 0 0 0 120070144.6601226 4741099.52781131 4741099.52781131 -79754.30551344078 0 0 0 0 0 124423898.4382816 6507148.214237821 6507148.214237821 11898280.42585976 0 0 0 0 0 126175062.5557503 6026459.048118639 6026459.048118639 17329418.43710087 0 0 0 0 0 128195425.0346037 4873590.344412632 4873590.344412632 22967214.81710063 0 0 0 0 0 132208524.2499163 7055087.538786489 7055087.538786489 26928551.89564127 0 0 0 0 0 143828119.1024244 -1143762.269345692 -1143762.269345692 34384760.96394431 0 0 0 0 0 138648704.9997441 1221287.167694442 1221287.167694442 30668395.90055504 0 0 0 0 0 109692031.0711774 3131383.037632065 3131383.037632065 -934307.1378758948 0 0 0 0 0 110717026.1097266 3262366.739559653 3262366.739559653 -1121262.54278911 0 0 0 0 0 111295688.3545606 3669904.09625861 3669904.09625861 -103446.7707435766 0 0 0 0 0 112799615.4847559 3863112.182654125 3863112.182654125 -974238.1006792529 0 0 0 0 0 113591402.3584762 4415978.125192932 4415978.125192932 521725.4945736725 0 0 0 0 0 115030176.3153298 4487723.461672907 4487723.461672907 -279608.8317385663 0 0 0 0 0 116767100.1469506 4207307.629484126 4207307.629484126 -1222612.269845359 0 0 0 0 0 118738179.7934902 3683656.835627691 3683656.835627691 -2403575.609211993 0 0 0 0 0 121467075.1797217 5789939.932616603 5789939.932616603 3030600.597862347 0 0 0 0 0 123286580.3134076 7023034.793743829 7023034.793743829 6925534.182429327 0 0 0 0 0 125135710.4286901 7927029.754162359 7927029.754162359 11534633.36360982 0 0 0 0 0 119689096.3014915 4435057.815358909 4435057.815358909 -65806.71072329857 0 0 0 0 0 127109247.5672896 8328164.424529082 8328164.424529082 16682798.91891167 0 0 0 0 0 129343451.5527627 8029212.118464047 8029212.118464047 22064323.19885753 0 0 0 0 0 135279143.2336412 3742591.539586164 3742591.539586164 25212769.70433828 0 0 0 0 0 151555274.771254 2745460.366625057 2745460.366625057 35945222.20005505 0 0 0 0 0 145838883.5369017 4774979.369250591 4774979.369250591 34651297.29059586 0 0 0 0 0 140124227.3614007 6379947.231873466 6379947.231873466 29792362.98459291 0 0 0 0 0 110763765.5387223 3132255.167725607 3132255.167725607 -939986.6551468704 0 0 0 0 0 111681587.9375583 3261105.456235111 3261105.456235111 -993957.6513245205 0 0 0 0 0 112390665.1941452 3365555.202101428 3365555.202101428 -1528345.342648641 0 0 0 0 0 112451035.5659345 3406339.358693975 3406339.358693975 -949552.389847203 0 0 0 0 0 114100467.2169701 3600253.611737307 3600253.611737307 -1851881.203716541 0 0 0 0 0 114941828.7831089 4193623.620106482 4193623.620106482 -205462.4471041409 0 0 0 0 0 116399457.8012933 3768916.337426222 3768916.337426222 -1178603.324976298 0 0 0 0 0 117923284.59886 3077080.763825141 3077080.763825141 -2419288.597985088 0 0 0 0 0 122716274.5331026 4009497.11400017 4009497.11400017 -1246780.562439894 0 0 0 0 0 124653370.9348979 5055275.154527123 5055275.154527123 2258899.192397105 0 0 0 0 0 126735909.1626335 5737407.860670489 5737407.860670489 6853144.450769635 0 0 0 0 0 120863319.5343549 2815856.002167745 2815856.002167745 -3800804.026829106 0 0 0 0 0 129094601.9887641 5853208.476212507 5853208.476212507 12410344.62898995 0 0 0 0 0 131846825.1026154 5219480.075205722 5219480.075205722 18679808.26187882 0 0 0 0 0 135635417.4328533 7547148.467140628 7547148.467140628 23921422.92946393 0 0 0 0 0 159372391.1311281 -3034896.431154247 -3034896.431154247 35906706.14875139 0 0 0 0 0 150635803.2370733 -1208805.565962671 -1208805.565962671 32507107.64594622 0 0 0 0 0 145100187.6582169 1400235.220873571 1400235.220873571 27180715.21010735 0 0 0 0 0 109507899.7126001 2371262.705127735 2371262.705127735 -2172430.008743012 0 0 0 0 0 110332229.7893037 2443032.174257563 2443032.174257563 -2281853.628657188 0 0 0 0 0 111091881.7053872 2581966.073599419 2581966.073599419 -2344683.046338017 0 0 0 0 0 113322822.8883474 2744673.036550537 2744673.036550537 -3046005.184734517 0 0 0 0 0 113903681.1612715 3182032.094695595 3182032.094695595 -1747155.102926871 0 0 0 0 0 115678108.1527617 3217383.988556711 3217383.988556711 -2867813.77890295 0 0 0 0 0 117352555.5012398 2583824.903375992 2583824.903375992 -4088998.534620743 0 0 0 0 0 119117157.2465371 1631530.133690208 1631530.133690208 -5540351.085316566 0 0 0 0 0 123940588.3434152 5025235.601137793 5025235.601137793 2071443.659974265 0 0 0 0 0 121639022.3088558 3519980.117421483 3519980.117421483 -1350862.407833768 0 0 0 0 0 126425591.1701162 6430164.056543625 6430164.056543625 6485101.11047118 0 0 0 0 0 129038482.8246773 7432276.622193227 7432276.622193227 11759690.23484603 0 0 0 0 0 119437737.9311361 2025251.455141036 2025251.455141036 -3885909.454364619 0 0 0 0 0 132033685.1669026 7854412.517848746 7854412.517848746 17684782.81840447 0 0 0 0 0 139681254.71481 3306933.307655699 3306933.307655699 20044197.50653712 0 0 0 0 0 169012709.0542828 2547726.227156186 2547726.227156186 35992617.52007129 0 0 0 0 0 159970527.0927631 3343630.920217276 3343630.920217276 36153042.11208989 0 0 0 0 0 150983398.5846131 4411200.993457248 4411200.993457248 31502513.09000979 0 0 0 0 0 143742029.3347239 5752547.372591604 5752547.372591604 25353258.3284537 0 0 0 0 0 110397348.5321165 2290783.389488592 2290783.389488592 -2068061.264080635 0 0 0 0 0 111248552.5164905 2404518.809055841 2404518.809055841 -2244247.262988415 0 0 0 0 0 112241109.5127424 2543548.808501646 2543548.808501646 -2436345.581441062 0 0 0 0 0 112941998.5016697 2247660.849621481 2247660.849621481 -2884094.028081355 0 0 0 0 0 114562280.3415512 2246727.054778945 2246727.054778945 -4066507.400902684 0 0 0 0 0 115081880.1749941 2649060.706223207 2649060.706223207 -2834859.875906807 0 0 0 0 0 116256610.0233844 1843356.535618975 1843356.535618975 -4123181.762828765 0 0 0 0 0 117386527.7030368 679954.4786367413 679954.4786367413 -5673655.451148667 0 0 0 0 0 125654394.49017 2752319.066902292 2752319.066902292 -2658134.29374565 0 0 0 0 0 123176315.1324987 1502685.123965284 1502685.123965284 -5410487.271120172 0 0 0 0 0 128326482.1500398 3805484.537242927 3805484.537242927 1265643.475670991 0 0 0 0 0 131418214.2492676 4417052.368741184 4417052.368741184 6566866.616727565 0 0 0 0 0 120892628.6703271 245334.6908702335 245334.6908702335 -7194671.901063612 0 0 0 0 0 135107684.186306 4274240.897125724 4274240.897125724 12992290.39015863 0 0 0 0 0 137914991.0045717 6244912.538267476 6244912.538267476 18398333.71100751 0 0 0 0 0 184635413.5546254 -7023457.720351174 -7023457.720351174 36391194.73465008 0 0 0 0 0 167555231.8557126 -5591181.707867809 -5591181.707867809 32724042.30851521 0 0 0 0 0 158562428.3744829 -3521192.012785933 -3521192.012785933 28810697.96271581 0 0 0 0 0 149920327.353092 -645200.6829684275 -645200.6829684275 21240177.94425916 0 0 0 0 0 109195150.2216775 1576002.254273075 1576002.254273075 -3214795.184116593 0 0 0 0 0 109947381.7416375 1595531.19051748 1595531.19051748 -3546830.696410117 0 0 0 0 0 110749724.6380098 1641983.793094242 1641983.793094242 -3920083.253475198 0 0 0 0 0 111936183.9669568 1607612.473882598 1607612.473882598 -4164853.184344083 0 0 0 0 0 113397741.3834725 1265738.92896888 1265738.92896888 -5029576.547542811 0 0 0 0 0 113818231.799918 1593078.019231701 1593078.019231701 -4024005.296541067 0 0 0 0 0 115967563.9857703 1539025.268685499 1539025.268685499 -5284064.934029009 0 0 0 0 0 117418721.0512021 534232.9075508841 534232.9075508841 -6652402.447954495 0 0 0 0 0 118762809.7303847 -901427.5811821485 -901427.5811821485 -8252620.249830655 0 0 0 0 0 123511629.237625 2032108.300613331 2032108.300613331 -2956670.783648624 0 0 0 0 0 126488438.1453654 3649523.089707695 3649523.089707695 824154.3952590281 0 0 0 0 0 120791070.1435861 453875.1656251162 453875.1656251162 -5659461.189766648 0 0 0 0 0 129809474.7833216 5126842.371137606 5126842.371137606 5817091.264619599 0 0 0 0 0 133442525.1467455 6066356.689541207 6066356.689541207 11798170.75546203 0 0 0 0 0 118289726.1216339 -961354.8583920228 -961354.8583920228 -7462359.558086773 0 0 0 0 0 142775278.3176776 1052844.434488551 1052844.434488551 13754371.49183404 0 0 0 0 0 198538619.4220635 1173936.065940124 1173936.065940124 30160502.02897876 0 0 0 0 0 178726850.8363649 -598348.6609415463 -598348.6609415463 34706200.78539992 0 0 0 0 0 166447043.0149893 -95924.12933080267 -95924.12933080267 31543178.70323621 0 0 0 0 0 153490982.760835 1607752.512719064 1607752.512719064 26511969.89944089 0 0 0 0 0 144546330.1354221 2541266.717734336 2541266.717734336 18724289.26369537 0 0 0 0 0 109890986.7806143 1425758.385479837 1425758.385479837 -2990696.869281911 0 0 0 0 0 110687721.6665728 1416929.823288567 1416929.823288567 -3279473.781820507 0 0 0 0 0 111459628.7429108 1418220.032241913 1418220.032241913 -3581211.027369844 0 0 0 0 0 112192479.1245412 1315826.911300901 1315826.911300901 -3818201.363640348 0 0 0 0 0 112614392.7772245 645658.8433463591 645658.8433463591 -4947778.330531954 0 0 0 0 0 114611866.0244719 566453.6912324915 566453.6912324915 -6087434.526239318 0 0 0 0 0 114731298.8247086 740782.6178851342 740782.6178851342 -5305228.214254471 0 0 0 0 0 115499797.5586367 -489667.5422361253 -489667.5422361253 -6834673.33503361 0 0 0 0 0 116060592.680296 -2135231.703096761 -2135231.703096761 -8553050.671955988 0 0 0 0 0 125494927.2581146 -457753.156787982 -457753.156787982 -7250902.032686043 0 0 0 0 0 128754054.4042576 747187.9690382992 747187.9690382992 -4248488.685657828 0 0 0 0 0 122568981.3972561 -1699590.247004637 -1699590.247004637 -9056084.634766348 0 0 0 0 0 132456488.01055 1640911.274715026 1640911.274715026 214342.6437122128 0 0 0 0 0 137033665.442501 1896464.599112204 1896464.599112204 6348086.98893931 0 0 0 0 0 119953626.6960376 -2821292.865893479 -2821292.865893479 -9999683.258181613 0 0 0 0 0 138114840.505917 3181703.299489019 3181703.299489019 11616712.89241414 0 0 0 0 0 222940705.5582397 -13456300.20385811 -13456300.20385811 30152302.54893259 0 0 0 0 0 197516370.9313238 -14884652.07656693 -14884652.07656693 31106440.83342613 0 0 0 0 0 176868916.4572788 -13264738.42780264 -13264738.42780264 32487682.57632104 0 0 0 0 0 163912147.5693347 -8454306.156730436 -8454306.156730436 22937689.45382164 0 0 0 0 0 152671517.2536944 -5230876.171323677 -5230876.171323677 15389977.25350347 0 0 0 0 0 108787102.1153093 789359.6046736436 789359.6046736436 -4010103.00454331 0 0 0 0 0 109469922.903171 718435.3686567505 718435.3686567505 -4398796.877827273 0 0 0 0 0 110194572.4552423 647453.0451245619 647453.0451245619 -4843563.236637042 0 0 0 0 0 110943487.4645533 555723.3799447047 555723.3799447047 -5180280.849833248 0 0 0 0 0 112409571.0745589 486992.1824419169 486992.1824419169 -5478114.72944661 0 0 0 0 0 113307490.9304244 -290050.9755034097 -290050.9755034097 -6574728.885326618 0 0 0 0 0 113240501.0295907 -247086.3957010146 -247086.3957010146 -6148549.196978339 0 0 0 0 0 115731460.4748063 -485140.7699051981 -485140.7699051981 -7375225.451828908 0 0 0 0 0 116778822.5788844 -1893455.953424609 -1893455.953424609 -8807949.077085178 0 0 0 0 0 117572196.4255154 -3752573.999536836 -3752573.999536836 -10370768.86618283 0 0 0 0 0 121772745.6834449 -1791708.845482431 -1791708.845482431 -7703226.097620957 0 0 0 0 0 125106841.6870751 -207843.7657642489 -207843.7657642489 -4824400.884852346 0 0 0 0 0 128828483.7019497 1367872.672958597 1367872.672958597 -653247.1421063306 0 0 0 0 0 118812013.6297534 -3186487.275736208 -3186487.275736208 -9513313.625988612 0 0 0 0 0 133056401.6531199 2645022.878874822 2645022.878874822 4937548.387635984 0 0 0 0 0 116205706.8987886 -4300288.018093334 -4300288.018093334 -10475564.21022302 0 0 0 0 0 143577962.1042618 -2642886.940757797 -2642886.940757797 6460687.852236181 0 0 0 0 0 237078927.6212735 -395008.8928961324 -395008.8928961324 15454120.04792843 0 0 0 0 0 222214988.6907598 -8606797.079634327 -8606797.079634327 27813529.01538423 0 0 0 0 0 182197086.4733553 -12888642.17342129 -12888642.17342129 26280355.79071433 0 0 0 0 0 168711301.2914914 -6355624.710338741 -6355624.710338741 25975221.70101757 0 0 0 0 0 151578653.0655674 -5135620.501321309 -5135620.501321309 17940881.16276547 0 0 0 0 0 142268367.1693215 -2370556.873982293 -2370556.873982293 11289454.70669552 0 0 0 0 0 109307787.5674804 594935.8910781882 594935.8910781882 -3705076.298125437 0 0 0 0 0 110019820.6851011 505695.4136865982 505695.4136865982 -4064203.994872647 0 0 0 0 0 110882570.2696788 390665.6313915007 390665.6313915007 -4441923.426659926 0 0 0 0 0 111830188.7586361 309597.1611928533 309597.1611928533 -4889047.750654002 0 0 0 0 0 111142350.20686 -271107.7243790834 -271107.7243790834 -5679057.090151773 0 0 0 0 0 111782332.9557545 -1093217.071723322 -1093217.071723322 -6640103.335096598 0 0 0 0 0 114177840.3309934 -1353692.250669092 -1353692.250669092 -7734246.404262195 0 0 0 0 0 113781890.7448564 -1475275.888137722 -1475275.888137722 -7529784.66243971 0 0 0 0 0 114068922.7795506 -3082339.802871605 -3082339.802871605 -9118482.805548465 0 0 0 0 0 113959635.8066924 -5144899.103017182 -5144899.103017182 -10846484.49935971 0 0 0 0 0 123914335.0846411 -4346684.697830372 -4346684.697830372 -11056212.95204959 0 0 0 0 0 127554446.2653704 -3257060.718173601 -3257060.718173601 -9206638.415174942 0 0 0 0 0 131797466.4941256 -2299019.23522146 -2299019.23522146 -5880803.658988724 0 0 0 0 0 120743650.0845373 -5339673.853624026 -5339673.853624026 -11856604.21788926 0 0 0 0 0 136922616.0892479 -1921111.295408425 -1921111.295408425 -697767.9974382799 0 0 0 0 0 117973196.1121785 -6117255.615470544 -6117255.615470544 -11997404.46876875 0 0 0 0 0 135552975.5402523 -1703355.923570728 -1703355.923570728 3849001.1280565 0 0 0 0 0 304557562.6931272 -22876059.96925364 -22876059.96925364 23879515.58599945 0 0 0 0 0 221101169.0495174 -27995007.88160662 -27995007.88160662 3140608.139041478 0 0 0 0 0 211576952.1039924 -25917551.45629072 -25917551.45629072 28134415.57018547 0 0 0 0 0 178555604.8736343 -24283298.14354341 -24283298.14354341 26609413.00644204 0 0 0 0 0 165757215.8437381 -18088406.31697875 -18088406.31697875 21012913.13354603 0 0 0 0 0 150682594.9633883 -10691111.70887216 -10691111.70887216 8076817.484985016 0 0 0 0 0 108292646.3528582 29798.44009565149 29798.44009565149 -4608072.461743292 0 0 0 0 0 108893911.9785503 -123976.9310647288 -123976.9310647288 -5071530.125644064 0 0 0 0 0 109565478.7105268 -318744.4684337922 -318744.4684337922 -5583634.843848287 0 0 0 0 0 110297529.3720812 -558896.0569705555 -558896.0569705555 -6067378.527232695 0 0 0 0 0 112105929.1785247 -957803.7687749236 -957803.7687749236 -6690771.084908964 0 0 0 0 0 112710151.9409139 -2079556.260199851 -2079556.260199851 -7848967.700996773 0 0 0 0 0 112177221.6360461 -2298579.067408863 -2298579.067408863 -7919070.950820817 0 0 0 0 0 114899554.7109811 -2741004.057995744 -2741004.057995744 -9019140.8019151 0 0 0 0 0 115396880.5319395 -4508903.23983581 -4508903.23983581 -10382812.76263765 0 0 0 0 0 115489672.9255398 -6707551.753380472 -6707551.753380472 -11766247.60605235 0 0 0 0 0 118627798.5419025 -6148149.963255099 -6148149.963255099 -11762173.61944001 0 0 0 0 0 122029772.8941495 -4920319.239359484 -4920319.239359484 -9987308.252345536 0 0 0 0 0 125956308.1627607 -3491224.340513438 -3491224.340513438 -6903858.947401751 0 0 0 0 0 130271356.2146456 -2297360.338322202 -2297360.338322202 -2367500.525728063 0 0 0 0 0 115729449.1894203 -7082213.090229411 -7082213.090229411 -12553221.24653656 0 0 0 0 0 113249043.6599382 -7731421.269170948 -7731421.269170948 -12696736.32796178 0 0 0 0 0 140970069.2649517 -7576157.429708562 -7576157.429708562 -1132247.18439317 0 0 0 0 0 269554872.1248983 -45475329.90769739 -45475329.90769739 29138946.89389978 0 0 0 0 0 192926042.3642341 -42644765.91185381 -42644765.91185381 15639107.61810841 0 0 0 0 0 160466757.1887754 -20038134.26524666 -20038134.26524666 19308998.24726423 0 0 0 0 0 144279195.9924158 -12417351.23574745 -12417351.23574745 12074097.79579291 0 0 0 0 0 135600361.2031403 -8904752.605727281 -8904752.605727281 3156150.088328475 0 0 0 0 0 108634687.3506504 -196290.5450471106 -196290.5450471106 -4242907.047930934 0 0 0 0 0 109256090.1667599 -380303.7899878893 -380303.7899878893 -4654274.133674067 0 0 0 0 0 109922695.1366228 -600238.900829751 -600238.900829751 -5117071.260709041 0 0 0 0 0 110615952.2110041 -822244.9062012151 -822244.9062012151 -5596409.805217403 0 0 0 0 0 110635201.7202385 -1775038.907692888 -1775038.907692888 -6758137.475912663 0 0 0 0 0 110743984.0549022 -2952127.545331124 -2952127.545331124 -7966761.061945105 0 0 0 0 0 113212081.7827399 -3418562.721648846 -3418562.721648846 -8952904.214485401 0 0 0 0 0 112259476.3607782 -3849544.855635734 -3849544.855635734 -9323626.757575139 0 0 0 0 0 111965358.1178627 -5777542.083135235 -5777542.083135235 -10840114.1681098 0 0 0 0 0 111123936.6661882 -8143295.546475369 -8143295.546475369 -12419697.83422942 0 0 0 0 0 120835167.3507057 -8541023.925081909 -8541023.925081909 -13705644.30309309 0 0 0 0 0 124509976.3003327 -7834387.746066981 -7834387.746066981 -13043847.66167586 0 0 0 0 0 128868180.3828843 -7111935.25121758 -7111935.25121758 -11090259.18518985 0 0 0 0 0 134219436.1724881 -6782023.405143308 -6782023.405143308 -7262154.784088366 0 0 0 0 0 117674690.8784092 -9066853.090163724 -9066853.090163724 -13617437.50962322 0 0 0 0 0 114957255.1318588 -9382118.708378738 -9382118.708378738 -13100683.72912364 0 0 0 0 0 129800194.693158 -7944574.003080647 -7944574.003080647 -4091383.617165888 0 0 0 0 0 236590436.100102 -62868759.25926232 -62868759.25926232 40230006.95851242 0 0 0 0 0 181617877.813042 -38569989.07909822 -38569989.07909822 28563762.48177492 0 0 0 0 0 155304355.2670318 -22751569.43034474 -22751569.43034474 12384939.93046724 0 0 0 0 0 142113420.1445631 -15653370.87632533 -15653370.87632533 -231919.8769934778 0 0 0 0 0 107737326.9223606 -678118.5647136169 -678118.5647136169 -5012461.404144336 0 0 0 0 0 108254800.4664749 -915994.5249203593 -915994.5249203593 -5509392.314871713 0 0 0 0 0 108825330.5403445 -1199665.924588805 -1199665.924588805 -6075026.700853359 0 0 0 0 0 109403061.7841404 -1511940.008630913 -1511940.008630913 -6714202.015057 0 0 0 0 0 110439538.4430461 -1931302.051386238 -1931302.051386238 -7133492.285668413 0 0 0 0 0 111373535.7220789 -2698815.295736853 -2698815.295736853 -7776580.672945573 0 0 0 0 0 111684928.845318 -3941274.692334406 -3941274.692334406 -8714408.148497593 0 0 0 0 0 110653962.7259268 -4431570.55328836 -4431570.55328836 -9266594.709504586 0 0 0 0 0 113447263.3203601 -5085808.724648004 -5085808.724648004 -10127956.98867121 0 0 0 0 0 113307952.3180515 -7110106.308494401 -7110106.308494401 -11287898.54274712 0 0 0 0 0 112597634.089916 -9520286.707330585 -9520286.707330585 -12366541.70739343 0 0 0 0 0 117254538.5717544 -10031454.12908044 -10031454.12908044 -14198705.83715653 0 0 0 0 0 114231510.6002054 -10588721.4313225 -10588721.4313225 -14733745.71536176 0 0 0 0 0 120860359.2597047 -9224983.29415182 -9224983.29415182 -12511124.48820604 0 0 0 0 0 124919843.3123159 -8411730.442359313 -8411730.442359313 -9301077.830679595 0 0 0 0 0 111678307.4924199 -10894361.4486646 -10894361.4486646 -14561031.13429864 0 0 0 0 0 109528601.8356329 -10975197.18841752 -10975197.18841752 -13985464.08434021 0 0 0 0 0 134052309.7267554 -12982314.70050538 -12982314.70050538 -8246820.519254254 0 0 0 0 0 158922189.5407416 -53510394.81526499 -53510394.81526499 21889753.67143233 0 0 0 0 0 139555666.0767924 -30502203.43261391 -30502203.43261391 14082739.24509885 0 0 0 0 0 131070028.8471375 -19658867.89021725 -19658867.89021725 4377953.326962472 0 0 0 0 0 125418072.8477425 -15935414.95818879 -15935414.95818879 -4883611.317096667 0 0 0 0 0 107905054.3724801 -917631.9877216303 -917631.9877216303 -4618703.582389419 0 0 0 0 0 108404835.9863307 -1189580.229867241 -1189580.229867241 -5052613.975687843 0 0 0 0 0 108942720.4532089 -1516661.287086328 -1516661.287086328 -5542142.159131887 0 0 0 0 0 109525825.8479465 -1860696.484165757 -1860696.484165757 -6072398.204879439 0 0 0 0 0 109811091.3155701 -2381266.102925038 -2381266.102925038 -6661653.167032456 0 0 0 0 0 109518445.8523348 -3466952.46686696 -3466952.46686696 -7955671.604496683 0 0 0 0 0 109233591.8000492 -4853644.494665158 -4853644.494665158 -9036794.695684971 0 0 0 0 0 111716431.8306869 -5499071.602787697 -5499071.602787697 -9711382.004557822 0 0 0 0 0 110220978.8372007 -6219282.815193591 -6219282.815193591 -10570312.74394831 0 0 0 0 0 109304305.3786576 -8362281.002343538 -8362281.002343538 -11897724.66971148 0 0 0 0 0 107728664.1770049 -10886033.6959566 -10886033.6959566 -13184218.26313851 0 0 0 0 0 119625859.2655625 -12491786.3857736 -12491786.3857736 -15442436.06266936 0 0 0 0 0 116294339.2842603 -12594201.67026664 -12594201.67026664 -15088128.5808427 0 0 0 0 0 123577769.1120333 -12294152.03539235 -12294152.03539235 -14933414.93173408 0 0 0 0 0 128328191.6401183 -12216148.05462338 -12216148.05462338 -12796188.01203713 0 0 0 0 0 113455271.6531601 -12538813.6626385 -12538813.6626385 -14292488.95841766 0 0 0 0 0 111061105.6106204 -12320734.36782988 -12320734.36782988 -13289765.58393854 0 0 0 0 0 121118094.1808017 -14884121.3208867 -14884121.3208867 -11310787.0677595 0 0 0 0 0 184927069.3868047 -70350495.28206536 -70350495.28206536 47026664.14603038 0 0 0 0 0 152863013.8978037 -41002189.48576523 -41002189.48576523 22571162.91640992 0 0 0 0 0 137405209.3683799 -26619128.759128 -26619128.759128 3489231.623570475 0 0 0 0 0 129342248.4074815 -20521083.3281039 -20521083.3281039 -8075714.803013002 0 0 0 0 0 107137404.3354802 -1318862.129414569 -1318862.129414569 -5259467.212221901 0 0 0 0 0 107569051.3552764 -1621417.939233257 -1621417.939233257 -5742636.435429362 0 0 0 0 0 108032267.0107438 -1981375.11551946 -1981375.11551946 -6277324.764030322 0 0 0 0 0 108520073.040966 -2392294.020145366 -2392294.020145366 -6898882.557678268 0 0 0 0 0 109001221.3346516 -2870755.08520997 -2870755.08520997 -7501084.620300607 0 0 0 0 0 110024753.9698949 -3214459.852185769 -3214459.852185769 -7565403.481716287 0 0 0 0 0 110301003.7657669 -4331268.744374457 -4331268.744374457 -8376425.499477974 0 0 0 0 0 110186547.9060406 -5772912.519633955 -5772912.519633955 -9206689.638879862 0 0 0 0 0 108705195.5854624 -6499756.254736196 -6499756.254736196 -10142870.38976593 0 0 0 0 0 111399294.2136834 -7350547.252472892 -7350547.252472892 -10670920.57810511 0 0 0 0 0 110574973.2868788 -9513694.51963621 -9513694.51963621 -11530999.65932103 0 0 0 0 0 109033512.3208391 -11974975.50166532 -11974975.50166532 -12217492.42046503 0 0 0 0 0 114090154.4486984 -14845770.82807874 -14845770.82807874 -16530454.30328489 0 0 0 0 0 111271819.5824395 -14825536.62844258 -14825536.62844258 -16821712.17309652 0 0 0 0 0 108910465.3591176 -14624231.11261442 -14624231.11261442 -16318875.66807664 0 0 0 0 0 117355378.4101503 -14784273.87965121 -14784273.87965121 -15006054.91917722 0 0 0 0 0 106927343.70726 -14265698.18163822 -14265698.18163822 -15411691.31465405 0 0 0 0 0 105289612.5173071 -13765814.58585617 -13765814.58585617 -14309880.4123116 0 0 0 0 0 124233468.8843506 -18427772.86212011 -18427772.86212011 -14011239.87312585 0 0 0 0 0 119444380.291619 -57180376.3948859 -57180376.3948859 27198308.42626595 0 0 0 0 0 115683473.5233763 -34888844.1740857 -34888844.1740857 10270596.49350218 0 0 0 0 0 114339462.7226073 -25967257.32876078 -25967257.32876078 -3307789.478784504 0 0 0 0 0 112721857.1833351 -22727974.55357208 -22727974.55357208 -12323803.9745769 0 0 0 0 0 107159333.4322781 -1560871.905067366 -1560871.905067366 -4856558.623093746 0 0 0 0 0 107551715.6352023 -1887568.265894249 -1887568.265894249 -5298126.702714202 0 0 0 0 0 107978821.344027 -2268589.449715265 -2268589.449715265 -5772393.552022721 0 0 0 0 0 108542440.7768468 -2708245.300675 -2708245.300675 -6296282.468949102 0 0 0 0 0 109287043.4037887 -3175569.815007162 -3175569.815007162 -6837857.049474165 0 0 0 0 0 108226626.5630019 -3971947.483611193 -3971947.483611193 -7892849.292374266 0 0 0 0 0 107962208.390473 -5123900.344695765 -5123900.344695765 -8752845.981412625 0 0 0 0 0 107392144.7722062 -6641703.509379624 -6641703.509379624 -9639025.867122287 0 0 0 0 0 109733327.1097977 -7460353.447033604 -7460353.447033604 -9988920.981285488 0 0 0 0 0 107748423.170457 -8431981.160992458 -8431981.160992458 -11236523.52086595 0 0 0 0 0 106229746.377584 -10667190.81211981 -10667190.81211981 -12272782.70475162 0 0 0 0 0 103977477.712449 -13173238.00975286 -13173238.00975286 -13145320.9756201 0 0 0 0 0 116339116.6877328 -17067637.88295612 -17067637.88295612 -16878548.5514273 0 0 0 0 0 113253545.301041 -16638477.39581928 -16638477.39581928 -16280591.45916238 0 0 0 0 0 110604469.2656944 -16083650.77813026 -16083650.77813026 -15212119.34515579 0 0 0 0 0 120086429.7511888 -17521630.61141613 -17521630.61141613 -16400717.70438923 0 0 0 0 0 108373972.4837442 -15420575.59790014 -15420575.59790014 -13937837.06459847 0 0 0 0 0 106519872.9239377 -14685102.15732741 -14685102.15732741 -12646517.67161057 0 0 0 0 0 110538430.6956067 -21414116.68810569 -21414116.68810569 -16841821.03176567 0 0 0 0 0 128980433.3354102 -63505798.47269277 -63505798.47269277 45100326.33713511 0 0 0 0 0 120041042.9231456 -38876408.65681879 -38876408.65681879 12871143.76301242 0 0 0 0 0 116406079.9040945 -28737048.90148153 -28737048.90148153 -5920851.720478641 0 0 0 0 0 114408758.2834916 -24571665.14334242 -24571665.14334242 -14436636.76079437 0 0 0 0 0 106510171.0256069 -1888812.492719384 -1888812.492719384 -5377462.113445179 0 0 0 0 0 106866873.2129976 -2238730.072935897 -2238730.072935897 -5858326.883927985 0 0 0 0 0 107227577.8975776 -2650758.084818642 -2650758.084818642 -6382500.260560064 0 0 0 0 0 107613210.7597304 -3149499.82448649 -3149499.82448649 -6983288.756860386 0 0 0 0 0 107970420.1687763 -3785380.46273737 -3785380.46273737 -7668064.918940991 0 0 0 0 0 108985116.1393995 -4590975.021428552 -4590975.021428552 -7996105.428010139 0 0 0 0 0 108815260.3853222 -5929975.602953703 -5929975.602953703 -8651711.049455866 0 0 0 0 0 108306283.7375499 -7452133.275127758 -7452133.275127758 -9276999.825210454 0 0 0 0 0 106418401.0551849 -8388242.270305213 -8388242.270305213 -10524736.27804747 0 0 0 0 0 108836323.3505283 -9393806.396074381 -9393806.396074381 -10668856.36527934 0 0 0 0 0 107329583.4015457 -11548256.23485868 -11548256.23485868 -11167749.65217191 0 0 0 0 0 105009185.0351641 -13895054.95408751 -13895054.95408751 -11424900.13988375 0 0 0 0 0 108398638.1314935 -20475538.81140646 -20475538.81140646 -18509105.68098421 0 0 0 0 0 106320237.5622907 -19704677.93304912 -19704677.93304912 -18606912.11181778 0 0 0 0 0 104554192.6421753 -18832337.88016174 -18832337.88016174 -17765179.71331409 0 0 0 0 0 103044336.6958119 -17894514.76820892 -17894514.76820892 -16520582.26209266 0 0 0 0 0 101797508.8053652 -16907036.81713477 -16907036.81713477 -15133781.24498045 0 0 0 0 0 100819530.2353538 -15896040.61004615 -15896040.61004615 -13748167.5445028 0 0 0 0 0 112200813.398759 -23004526.75266355 -23004526.75266355 -17275695.52792295 0 0 0 0 0 82304019.28087592 -50216782.56009419 -50216782.56009419 28138742.12454162 0 0 0 0 0 92289985.910806 -35757190.67119079 -35757190.67119079 3912561.795901413 0 0 0 0 0 98018474.9883299 -30326777.10889302 -30326777.10889302 -10147623.13478909 0 0 0 0 0 99503501.19244811 -28049912.37405366 -28049912.37405366 -17215347.0738411 0 0 0 0 0 106407708.4438041 -2120618.14525855 -2120618.14525855 -4975066.568868395 0 0 0 0 0 106695362.5809173 -2501887.970416874 -2501887.970416874 -5425698.628058115 0 0 0 0 0 106971025.1639452 -2940137.794157139 -2940137.794157139 -5891247.791270677 0 0 0 0 0 107233046.1273235 -3467131.385007161 -3467131.385007161 -6403653.024626089 0 0 0 0 0 107472910.3721343 -4078114.634208551 -4078114.634208551 -6982845.706108022 0 0 0 0 0 106990590.940778 -5329605.570883729 -5329605.570883729 -8191090.904574151 0 0 0 0 0 106276718.0867403 -6695814.508409918 -6695814.508409918 -9067369.338170916 0 0 0 0 0 105290450.9174044 -8249375.621971664 -8249375.621971664 -9794625.18136861 0 0 0 0 0 107355293.5184186 -9175478.118930729 -9175478.118930729 -9808338.839977128 0 0 0 0 0 104964095.3860193 -10358241.80086248 -10358241.80086248 -11330880.45020306 0 0 0 0 0 102900460.2966746 -12535403.13373824 -12535403.13373824 -11997540.28630163 0 0 0 0 0 100094847.4573257 -14868287.88154948 -14868287.88154948 -12403718.32075443 0 0 0 0 0 110034567.3661177 -21942086.22820781 -21942086.22820781 -17827077.88900063 0 0 0 0 0 107868002.4348693 -20931281.30504364 -20931281.30504364 -16979086.09953844 0 0 0 0 0 105922090.4618144 -19829131.51957081 -19829131.51957081 -15695326.83737852 0 0 0 0 0 104225332.5093211 -18677781.50988211 -18677781.50988211 -14218393.4591346 0 0 0 0 0 102797828.0206403 -17499117.09811825 -17499117.09811825 -12744199.41274325 0 0 0 0 0 101642322.4223223 -16323578.06542293 -16323578.06542293 -11373970.46694855 0 0 0 0 0 99395035.24880783 -26443163.32090254 -26443163.32090254 -19658541.48602314 0 0 0 0 0 79830390.51147214 -46016419.14610881 -46016419.14610881 31894399.20329095 0 0 0 0 0 86824552.9139245 -31488503.44641703 -31488503.44641703 -2747916.09357389 0 0 0 0 0 94400758.53603902 -27682399.73895037 -27682399.73895037 -14601872.97050582 0 0 0 0 0 98642951.12217875 -27274344.02396842 -27274344.02396842 -17683244.9169853 0 0 0 0 0 105873927.6750987 -2381775.734475056 -2381775.734475056 -5383229.885630858 0 0 0 0 0 106180759.0931388 -2758263.943759492 -2758263.943759492 -5834187.126357927 0 0 0 0 0 106430522.9426779 -3216111.229092099 -3216111.229092099 -6331397.41167049 0 0 0 0 0 106683167.0147621 -3748232.027066681 -3748232.027066681 -6852163.451924595 0 0 0 0 0 106974099.719148 -4384818.301213354 -4384818.301213354 -7499942.707232125 0 0 0 0 0 107513001.9989792 -5110894.240680344 -5110894.240680344 -7924354.024857156 0 0 0 0 0 107639692.192563 -6011930.077529092 -6011930.077529092 -8136550.482567199 0 0 0 0 0 107056227.9172516 -7364963.900838085 -7364963.900838085 -8575456.623899346 0 0 0 0 0 106100617.2335117 -8900034.923943315 -8900034.923943315 -8982426.534903357 0 0 0 0 0 103906110.0847156 -9986928.618759293 -9986928.618759293 -10415865.59306498 0 0 0 0 0 105896834.59692 -11073943.38233442 -11073943.38233442 -10177338.65237963 0 0 0 0 0 103761510.0914522 -13100947.08350259 -13100947.08350259 -10309256.92750872 0 0 0 0 0 100772889.3856059 -15179857.54240719 -15179857.54240719 -10169949.04359981 0 0 0 0 0 98775192.92612469 -24914035.51396788 -24914035.51396788 -19785349.69508132 0 0 0 0 0 98202977.03529054 -23301243.02561548 -23301243.02561548 -18709642.3071872 0 0 0 0 0 97609651.60791837 -21717002.39350143 -21717002.39350143 -17191157.86358404 0 0 0 0 0 97070177.33373597 -20158903.54627295 -20158903.54627295 -15532814.07205822 0 0 0 0 0 96661525.07776682 -18664688.97481592 -18664688.97481592 -13919602.04174896 0 0 0 0 0 96451148.78678645 -17236259.81787888 -17236259.81787888 -12448276.42239098 0 0 0 0 0 99328513.71211843 -26163105.18267384 -26163105.18267384 -18211441.03491906 0 0 0 0 0 52626923.92381748 -37997629.60796253 -37997629.60796253 20288711.62530364 0 0 0 0 0 77601557.37811129 -36184394.04140824 -36184394.04140824 -4884187.526194431 0 0 0 0 0 85223486.90341885 -33467191.55122442 -33467191.55122442 -15954071.9542624 0 0 0 0 0 87223886.35410598 -31525580.32750296 -31525580.32750296 -19443737.28804273 0 0 0 0 0 105644520.7260571 -2533143.757563068 -2533143.757563068 -5067655.585942161 0 0 0 0 0 105741188.0094597 -2997849.23586149 -2997849.23586149 -5482923.374839371 0 0 0 0 0 106026139.4325668 -3490425.020567304 -3490425.020567304 -5872401.659994793 0 0 0 0 0 106140064.1610512 -4030104.684763723 -4030104.684763723 -6361502.716085016 0 0 0 0 0 106291349.0127587 -4722793.869091499 -4722793.869091499 -6871592.830187504 0 0 0 0 0 106122696.3088917 -5514534.675114041 -5514534.675114041 -7414802.634605749 0 0 0 0 0 105357665.8573483 -6679829.081533753 -6679829.081533753 -8478136.32669761 0 0 0 0 0 104345090.097954 -8056980.35778478 -8056980.35778478 -9064358.324862737 0 0 0 0 0 103030469.6448076 -9583928.192611102 -9583928.192611102 -9545498.070638796 0 0 0 0 0 104698224.8555451 -10570794.18453995 -10570794.18453995 -9240283.103070958 0 0 0 0 0 102019764.9273643 -11883412.76740843 -11883412.76740843 -10900027.74733015 0 0 0 0 0 99497982.38063899 -13894607.68549025 -13894607.68549025 -11177491.80401387 0 0 0 0 0 96274294.5560585 -15914266.5977242 -15914266.5977242 -11114848.20193213 0 0 0 0 0 99264176.36807513 -24981839.93088138 -24981839.93088138 -17122584.66882739 0 0 0 0 0 98811129.05062619 -23418264.19886075 -23418264.19886075 -15649444.98336668 0 0 0 0 0 98234547.64239404 -21818095.85819891 -21818095.85819891 -14007803.97944793 0 0 0 0 0 97658797.96897374 -20216948.30416089 -20216948.30416089 -12446940.24529079 0 0 0 0 0 97149193.5979441 -18654064.17888411 -18654064.17888411 -10996488.52630233 0 0 0 0 0 96784700.98639476 -17160839.40775618 -17160839.40775618 -9690474.475048561 0 0 0 0 0 88375144.74106352 -29687114.486241 -29687114.486241 -20065364.38958808 0 0 0 0 0 44039201.21338827 -25344783.04845383 -25344783.04845383 9710570.778551938 0 0 0 0 0 60470618.51909153 -26560392.9361758 -26560392.9361758 -13620422.11631214 0 0 0 0 0 79806747.04251169 -28857792.83359835 -28857792.83359835 -17585822.6532022 0 0 0 0 0 85301362.90144211 -29225452.14084245 -29225452.14084245 -18477263.78354379 0 0 0 0 0 105217669.7042124 -2774589.144889876 -2774589.144889876 -5380888.659577562 0 0 0 0 0 105686377.8325795 -3040324.560767853 -3040324.560767853 -5568041.923138219 0 0 0 0 0 105713130.740448 -3648134.772079972 -3648134.772079972 -6122509.581052637 0 0 0 0 0 105819930.1767459 -4219154.583857334 -4219154.583857334 -6664326.069718168 0 0 0 0 0 105935330.9162928 -4879084.887144474 -4879084.887144474 -7117858.964783241 0 0 0 0 0 105801749.6162653 -5698629.085120753 -5698629.085120753 -7733644.339971705 0 0 0 0 0 106384574.5321436 -6167798.872897534 -6167798.872897534 -7706929.251192788 0 0 0 0 0 105962387.729948 -7240699.522262126 -7240699.522262126 -7958213.235636428 0 0 0 0 0 105036651.4362941 -8583921.08137932 -8583921.08137932 -8213225.012715098 0 0 0 0 0 103698851.7408195 -10047421.9820647 -10047421.9820647 -8385148.027789155 0 0 0 0 0 101307487.7071668 -11234589.35046101 -11234589.35046101 -9887719.190620432 0 0 0 0 0 102737787.1438497 -12324772.55538813 -12324772.55538813 -9289621.531121869 0 0 0 0 0 100057295.3817827 -14110391.35884592 -14110391.35884592 -9068691.35398259 0 0 0 0 0 96565411.95117779 -15798534.67555832 -15798534.67555832 -8563002.781528596 0 0 0 0 0 89606436.02958429 -27508954.31715931 -27508954.31715931 -18808894.97895453 0 0 0 0 0 90420673.58715883 -25382011.74104307 -25382011.74104307 -17199610.3122373 0 0 0 0 0 91013795.68540417 -23267646.84529696 -23267646.84529696 -15381892.0576757 0 0 0 0 0 91508724.64080796 -21292464.08925129 -21292464.08925129 -13616402.32345504 0 0 0 0 0 91926602.80157946 -19458246.29080659 -19458246.29080659 -12017265.58887941 0 0 0 0 0 92324283.90263325 -17780002.04611732 -17780002.04611732 -10633968.61224335 0 0 0 0 0 87350465.70542666 -28023553.33619153 -28023553.33619153 -16624866.17191548 0 0 0 0 0 24200119.16442597 -19136732.44683245 -19136732.44683245 -74497.86357776968 0 0 0 0 0 57112739.32203783 -31067695.59482594 -31067695.59482594 -12588097.83756753 0 0 0 0 0 71671833.91438647 -35351137.23686688 -35351137.23686688 -15328938.0413585 0 0 0 0 0 72986636.85374443 -33552870.88492924 -33552870.88492924 -17635875.92090591 0 0 0 0 0 74865294.94782025 -33022507.76903419 -33022507.76903419 -19024547.16142234 0 0 0 0 0 105362047.3148997 -2905967.217993619 -2905967.217993619 -5037290.57016502 0 0 0 0 0 104809682.0478005 -3363197.251574536 -3363197.251574536 -5609697.508630089 0 0 0 0 0 105115322.7703637 -3837374.882938574 -3837374.882938574 -5709002.473905755 0 0 0 0 0 105115859.5075834 -4493154.376674186 -4493154.376674186 -6213426.622632398 0 0 0 0 0 104919056.2227992 -5246770.225211482 -5246770.225211482 -6726581.536125688 0 0 0 0 0 105770172.1204612 -5891391.726012821 -5891391.726012821 -6946648.933692356 0 0 0 0 0 104406449.7174886 -6666574.524126601 -6666574.524126601 -8026083.410776437 0 0 0 0 0 103520335.2933101 -7823828.779304186 -7823828.779304186 -8438713.786284462 0 0 0 0 0 102288531.8801973 -9157237.210103611 -9157237.210103611 -8745228.351527423 0 0 0 0 0 100722496.3017966 -10592891.16596911 -10592891.16596911 -8967265.228260111 0 0 0 0 0 101898811.2265625 -11569365.38944758 -11569365.38944758 -8373130.647310222 0 0 0 0 0 99038664.26627041 -12952116.54166208 -12952116.54166208 -10042140.81819478 0 0 0 0 0 96210434.04140121 -14686587.71251526 -14686587.71251526 -9907459.303922562 0 0 0 0 0 92736725.92383565 -16281580.56627325 -16281580.56627325 -9425241.619066093 0 0 0 0 0 88945421.53697823 -26327926.12021814 -26327926.12021814 -15089514.4173274 0 0 0 0 0 90081531.16438286 -24460346.30202639 -24460346.30202639 -13186911.20915768 0 0 0 0 0 90857651.97663724 -22510043.57199772 -22510043.57199772 -11599911.49566477 0 0 0 0 0 91424641.89489548 -20634191.6464094 -20634191.6464094 -10142201.21650559 0 0 0 0 0 91867049.96041971 -18886028.08137264 -18886028.08137264 -8870830.990099739 0 0 0 0 0 92320925.87290344 -17262062.00346059 -17262062.00346059 -7743681.058591476 0 0 0 0 0 78704396.66088307 -30766544.65126614 -30766544.65126614 -18048749.27544272 0 0 0 0 0 20457867.94418852 -7016651.466610141 -7016651.466610141 -20022970.44440672 0 0 0 0 0 33973849.40714134 -25367629.76216229 -25367629.76216229 -15818047.38489049 0 0 0 0 0 57018907.33528344 -30552038.46677544 -30552038.46677544 -15966287.86219458 0 0 0 0 0 71568555.58064011 -31157813.62790368 -31157813.62790368 -19345442.3456882 0 0 0 0 0 72762623.25568922 -29464504.2711053 -29464504.2711053 -16488237.25817278 0 0 0 0 0 105172901.6747162 -3565334.634777111 -3565334.634777111 -5340902.979689118 0 0 0 0 0 105128051.1628401 -4491058.826585691 -4491058.826585691 -6211041.470475907 0 0 0 0 0 104473383.6871535 -4105273.771038362 -4105273.771038362 -6058369.126334365 0 0 0 0 0 104926697.9635954 -5269504.782769774 -5269504.782769774 -6760218.396827317 0 0 0 0 0 105308378.8807426 -5768021.614471624 -5768021.614471624 -6668348.785612507 0 0 0 0 0 104096220.2065489 -6414806.713405997 -6414806.713405997 -7544306.865186877 0 0 0 0 0 104987306.7651307 -7070913.045936555 -7070913.045936555 -7365423.929137362 0 0 0 0 0 104104774.9084089 -8252419.255608445 -8252419.255608445 -7537712.58698217 0 0 0 0 0 102866571.9744352 -9537116.86674273 -9537116.86674273 -7612200.147698525 0 0 0 0 0 101226848.9570143 -10851187.41592784 -10851187.41592784 -7522503.776217888 0 0 0 0 0 98711005.1404081 -12073612.24540526 -12073612.24540526 -9018092.225014519 0 0 0 0 0 99502021.16982523 -13103032.82066149 -13103032.82066149 -8108958.763615953 0 0 0 0 0 96428224.77571149 -14555526.49618549 -14555526.49618549 -7610034.915726374 0 0 0 0 0 92666037.37011279 -15802604.06212435 -15802604.06212435 -6836739.146116721 0 0 0 0 0 81273200.21373816 -28410060.89940475 -28410060.89940475 -16394137.39242934 0 0 0 0 0 83445996.34086445 -25857547.83756552 -25857547.83756552 -14482284.48108781 0 0 0 0 0 85160800.95618518 -23531987.18856496 -23531987.18856496 -12755194.17999621 0 0 0 0 0 86481877.83731019 -21349231.88116417 -21349231.88116417 -11157013.36838332 0 0 0 0 0 87625444.91524947 -19388145.35630891 -19388145.35630891 -9783780.489915302 0 0 0 0 0 88655360.54067513 -17625301.71743808 -17625301.71743808 -8570785.035332384 0 0 0 0 0 76523318.05790949 -27986075.95232071 -27986075.95232071 -14030406.00006224 0 0 0 0 0 8407640.21443365 -7815511.935067807 -7815511.935067807 -16933999.55646736 0 0 0 0 0 32349028.4096388 -19429168.40132929 -19429168.40132929 -28199291.19769606 0 0 0 0 0 55273480.0464008 -30973662.37613973 -30973662.37613973 -21590397.16591784 0 0 0 0 0 57281438.3305577 -33241423.82329082 -33241423.82329082 -17310726.82141961 0 0 0 0 0 65315495.40310875 -32492306.15537849 -32492306.15537849 -16543393.8076135 0 0 0 0 0 103979394.2308133 -4792628.646874627 -4792628.646874627 -6229579.02370898 0 0 0 0 0 104857822.2228623 -4331165.390721779 -4331165.390721779 -5598972.405892882 0 0 0 0 0 104697463.1103695 -5395773.70558769 -5395773.70558769 -6176550.755052655 0 0 0 0 0 103626376.2353736 -6186643.310635718 -6186643.310635718 -7175502.523103166 0 0 0 0 0 104567110.8460153 -6716916.71261368 -6716916.71261368 -6761707.426065682 0 0 0 0 0 102984685.5373202 -7565777.379343029 -7565777.379343029 -7891632.53639777 0 0 0 0 0 101748489.7740337 -8738930.134771163 -8738930.134771163 -8083430.157864079 0 0 0 0 0 100226928.8089733 -9959774.214318419 -9959774.214318419 -8161725.405387564 0 0 0 0 0 98473040.54666971 -11247182.9087574 -11247182.9087574 -8098630.147257297 0 0 0 0 0 99073432.54178354 -12154349.30653706 -12154349.30653706 -7286965.705033926 0 0 0 0 0 96166249.0792439 -13551193.74497212 -13551193.74497212 -8853675.687505886 0 0 0 0 0 93217568.26183388 -14909652.04320126 -14909652.04320126 -8360133.850068889 0 0 0 0 0 89696171.45812355 -16034529.27621385 -16034529.27621385 -7562987.321254293 0 0 0 0 0 79628290.13636629 -26183076.10589731 -26183076.10589731 -11821614.76118813 0 0 0 0 0 82232237.95234345 -24062452.56002149 -24062452.56002149 -10283078.8489563 0 0 0 0 0 84208014.8749022 -22053280.0727172 -22053280.0727172 -8841865.939119991 0 0 0 0 0 85879091.06149793 -20118309.23112129 -20118309.23112129 -7681348.251719223 0 0 0 0 0 87166431.73069435 -18324980.02804254 -18324980.02804254 -6673650.250870237 0 0 0 0 0 88257252.61027522 -16710246.22238471 -16710246.22238471 -5835454.671720699 0 0 0 0 0 69942103.43686573 -30301204.85436923 -30301204.85436923 -14927332.67279393 0 0 0 0 0 4382216.782604064 4376954.562869106 4376954.562869106 -53434585.19283597 0 0 0 0 0 16201429.48249336 -20279531.15041132 -20279531.15041132 -22612621.75109991 0 0 0 0 0 36942314.87871614 -27944159.14837216 -27944159.14837216 -18457570.67157771 0 0 0 0 0 57091612.1504283 -30589612.24765303 -30589612.24765303 -17859060.49187681 0 0 0 0 0 59856831.18960375 -27299043.86138859 -27299043.86138859 -12774195.56277678 0 0 0 0 0 104431676.8326127 -5102286.533031081 -5102286.533031081 -5782059.903112708 0 0 0 0 0 103363654.2113773 -5772617.742013951 -5772617.742013951 -6655029.586570065 0 0 0 0 0 103955822.5180857 -6412671.910409275 -6412671.910409275 -6415342.308059751 0 0 0 0 0 102703913.3595001 -7169965.26847738 -7169965.26847738 -7348041.754201613 0 0 0 0 0 103419414.1029549 -7834732.189573122 -7834732.189573122 -6906993.135702336 0 0 0 0 0 102165572.6018431 -8970404.670461122 -8970404.670461122 -6944787.076861599 0 0 0 0 0 100635518.8684441 -10148761.60608542 -10148761.60608542 -6773913.758707073 0 0 0 0 0 98770458.92610165 -11257806.8470521 -11257806.8470521 -6453057.949239675 0 0 0 0 0 96189868.19918846 -12510027.81799033 -12510027.81799033 -7923179.704754148 0 0 0 0 0 96364921.98892128 -13436853.96050174 -13436853.96050174 -6818325.861605206 0 0 0 0 0 93115540.19978371 -14479111.43910221 -14479111.43910221 -6119889.893031366 0 0 0 0 0 89189217.60459346 -15282898.76728775 -15282898.76728775 -5147239.936439388 0 0 0 0 0 74469409.77096388 -27457957.80134407 -27457957.80134407 -12766528.95434405 0 0 0 0 0 77636156.60643923 -25018604.32531495 -25018604.32531495 -11184552.67685806 0 0 0 0 0 80283769.65621559 -22627924.68737531 -22627924.68737531 -9699688.179432051 0 0 0 0 0 82348744.66499037 -20500389.25176178 -20500389.25176178 -8462384.581276687 0 0 0 0 0 84166887.030626 -18562407.74274819 -18562407.74274819 -7361283.905620202 0 0 0 0 0 85759891.34784989 -16845902.9661173 -16845902.9661173 -6415762.550406327 0 0 0 0 0 66775279.77512486 -26210755.62955976 -26210755.62955976 -10049054.42178741 0 0 0 0 0 3301242.12332502 -3145697.751225319 -3145697.751225319 -34137072.06674127 0 0 0 0 0 16911250.05089875 -12598463.99731168 -12598463.99731168 -41104257.35022096 0 0 0 0 0 37631970.1126086 -24901538.74421735 -24901538.74421735 -23762797.48530997 0 0 0 0 0 41136518.27520008 -28948743.53995594 -28948743.53995594 -15724113.62691532 0 0 0 0 0 57165201.87974663 -29722527.61636494 -29722527.61636494 -12187646.16977769 0 0 0 0 0 55621828.83778799 -30283071.51084797 -30283071.51084797 -12911515.46951032 0 0 0 0 0 103684747.767576 -5985693.98446736 -5985693.98446736 -5925767.84260071 0 0 0 0 0 102470941.9775399 -6753721.30546796 -6753721.30546796 -6879578.68573892 0 0 0 0 0 102986882.2924214 -7384520.230775633 -7384520.230775633 -6431633.173199847 0 0 0 0 0 101478376.7739893 -8261953.433713618 -8261953.433713618 -7454575.943722836 0 0 0 0 0 99986550.30602601 -9358161.43785123 -9358161.43785123 -7436273.596290173 0 0 0 0 0 98217037.92677592 -10497246.56602658 -10497246.56602658 -7326099.889145516 0 0 0 0 0 96103607.97135451 -11501913.98144005 -11501913.98144005 -6995647.536775244 0 0 0 0 0 96364851.08873381 -12442234.01190645 -12442234.01190645 -6274794.980093942 0 0 0 0 0 93577563.54603402 -13675669.34884374 -13675669.34884374 -7499101.753861552 0 0 0 0 0 90542819.24169289 -14683204.58135261 -14683204.58135261 -6714900.869662779 0 0 0 0 0 87133667.54957461 -15339003.01324951 -15339003.01324951 -5672912.394382782 0 0 0 0 0 71549263.23345476 -24340170.03502142 -24340170.03502142 -8652530.490428789 0 0 0 0 0 75569000.1623808 -22506781.62066341 -22506781.62066341 -7066296.533391978 0 0 0 0 0 78666130.80306803 -20561088.34376701 -20561088.34376701 -6089136.008609624 0 0 0 0 0 81217320.8476408 -18765184.56929644 -18765184.56929644 -5270442.911847298 0 0 0 0 0 83212641.93925798 -17138349.06502767 -17138349.06502767 -4606749.492062934 0 0 0 0 0 84901734.1657296 -15684507.20749514 -15684507.20749514 -4090411.09514009 0 0 0 0 0 64561082.42524523 -27421163.14461662 -27421163.14461662 -10266095.05461653 0 0 0 0 0 -1547251.11800623 7846985.60952277 7846985.60952277 -79551605.65330257 0 0 0 0 0 7291285.341441015 -15496185.73269731 -15496185.73269731 -25010850.2843623 0 0 0 0 0 22329460.34011829 -25555315.23843054 -25555315.23843054 -18710755.72191436 0 0 0 0 0 41741546.28305002 -25582687.91286341 -25582687.91286341 -16565267.16013769 0 0 0 0 0 56931467.35598832 -25562652.9205161 -25562652.9205161 -8479302.253740307 0 0 0 0 0 41896043.62663081 -27431471.55961928 -27431471.55961928 -11823629.77965113 0 0 0 0 0 102686079.3577369 -6905828.421486579 -6905828.421486579 -5980836.230368997 0 0 0 0 0 101338718.3279859 -7703920.153872349 -7703920.153872349 -6938533.416090838 0 0 0 0 0 101698851.0429544 -8428611.498910472 -8428611.498910472 -6360673.852423474 0 0 0 0 0 100159716.4285046 -9419388.254822787 -9419388.254822787 -6185562.074894411 0 0 0 0 0 98365873.03989989 -10467633.22509204 -10467633.22509204 -5830108.758478055 0 0 0 0 0 96521832.16892752 -11635980.07099575 -11635980.07099575 -5655147.97614154 0 0 0 0 0 93986091.47476633 -12561663.9167426 -12561663.9167426 -6837363.633922966 0 0 0 0 0 93501338.14922617 -13360667.31085273 -13360667.31085273 -5348216.31459065 0 0 0 0 0 90135772.12665917 -13988387.2930589 -13988387.2930589 -4671706.650421072 0 0 0 0 0 86429694.09857933 -14349828.97013611 -14349828.97013611 -3565951.820337048 0 0 0 0 0 69205131.46683408 -25281184.15775602 -25281184.15775602 -8922336.653491192 0 0 0 0 0 73240130.13220762 -22902346.51156776 -22902346.51156776 -7555522.509164832 0 0 0 0 0 76504952.83826961 -20798977.50792393 -20798977.50792393 -6598565.907373881 0 0 0 0 0 79214504.40034413 -18899247.75256276 -18899247.75256276 -5754542.89891969 0 0 0 0 0 81608369.27378748 -17193553.39656822 -17193553.39656822 -5011289.483058881 0 0 0 0 0 83592824.21637902 -15680335.72251648 -15680335.72251648 -4441444.507500865 0 0 0 0 0 58824694.96648931 -23219325.17517688 -23219325.17517688 -6478623.287212881 0 0 0 0 0 3521416.424296963 -3173050.302163336 -3173050.302163336 -44611557.17589065 0 0 0 0 0 5887223.75229038 -7217033.983632329 -7217033.983632329 -46218567.91489816 0 0 0 0 0 21885473.38138657 -16131973.8736328 -16131973.8736328 -24796967.66354928 0 0 0 0 0 28427059.48671253 -25033729.59484403 -25033729.59484403 -13415317.14468965 0 0 0 0 0 47076215.46244166 -24925583.9008176 -24925583.9008176 -8086315.107851814 0 0 0 0 0 43628777.78775006 -23502343.57007635 -23502343.57007635 -10052008.97931652 0 0 0 0 0 101512952.408621 -7832279.423439458 -7832279.423439458 -5896014.222993306 0 0 0 0 0 100000127.2949093 -8693359.083143109 -8693359.083143109 -6850349.756907856 0 0 0 0 0 98438005.30584913 -9671702.299676917 -9671702.299676917 -6665169.053291433 0 0 0 0 0 96498230.73590465 -10671219.55691065 -10671219.55691065 -6295339.773227253 0 0 0 0 0 93916480.78281909 -11537496.6205337 -11537496.6205337 -5618368.432650737 0 0 0 0 0 93759138.21643342 -12336176.25006548 -12336176.25006548 -5183043.701571953 0 0 0 0 0 91438964.89027879 -13404592.1706461 -13404592.1706461 -5906244.686690211 0 0 0 0 0 88424172.30974922 -14014216.98745603 -14014216.98745603 -5130001.319828642 0 0 0 0 0 85519567.02856526 -14300257.56098709 -14300257.56098709 -3832175.999772694 0 0 0 0 0 66011381.59931745 -21639198.76734413 -21639198.76734413 -4985687.34463036 0 0 0 0 0 70605360.24784364 -19933968.74219422 -19933968.74219422 -4227049.370638248 0 0 0 0 0 74422882.30289651 -18340640.19530087 -18340640.19530087 -3600803.141255458 0 0 0 0 0 77509869.51652208 -16862484.24773343 -16862484.24773343 -3112761.571994444 0 0 0 0 0 80084468.17663914 -15512349.14808123 -15512349.14808123 -2735058.737528953 0 0 0 0 0 82350796.21253751 -14259920.1449436 -14259920.1449436 -2407904.03049955 0 0 0 0 0 60515101.43657295 -23893510.80636176 -23893510.80636176 -5978819.880686673 0 0 0 0 0 58881756.49201477 -23441324.09171878 -23441324.09171878 -4913558.958351662 0 0 0 0 0 -6093820.881434253 5443989.318904501 5443989.318904501 -94008416.58160239 0 0 0 0 0 439940.675401449 -7466478.259217991 -7466478.259217991 -28427808.47676765 0 0 0 0 0 15690068.98135303 -20242893.82860897 -20242893.82860897 -16372114.24944366 0 0 0 0 0 30028549.33262464 -17357649.92459529 -17357649.92459529 -12851352.73820619 0 0 0 0 0 48711744.28106403 -20899735.38742304 -20899735.38742304 -5122681.479557554 0 0 0 0 0 35390110.62386847 -23136620.15702591 -23136620.15702591 -8194102.348259103 0 0 0 0 0 100021617.4875371 -8731063.498700792 -8731063.498700792 -5689250.537772771 0 0 0 0 0 98292616.07513216 -9567899.877766328 -9567899.877766328 -5317214.785738016 0 0 0 0 0 95832891.9842525 -10335164.67325199 -10335164.67325199 -4918378.841791994 0 0 0 0 0 94789775.27256291 -11332518.61830054 -11332518.61830054 -5268723.984505583 0 0 0 0 0 93554982.61251283 -12299467.06411985 -12299467.06411985 -5237422.418021162 0 0 0 0 0 91160326.27778621 -12856139.22154471 -12856139.22154471 -3912539.174655884 0 0 0 0 0 87317200.68230002 -13158231.07846367 -13158231.07846367 -3673831.767727127 0 0 0 0 0 84433147.16787413 -12995415.9788023 -12995415.9788023 -2017238.867352284 0 0 0 0 0 65936511.58629005 -21848425.7806736 -21848425.7806736 -4922630.724346218 0 0 0 0 0 70260862.3345699 -20056857.81704498 -20056857.81704498 -4273249.540003503 0 0 0 0 0 73919969.9383962 -18388165.83873922 -18388165.83873922 -3721919.050004691 0 0 0 0 0 76971346.94988208 -16846655.91696247 -16846655.91696247 -3268529.291899385 0 0 0 0 0 79562496.08034268 -15430654.28858474 -15430654.28858474 -2913539.040238372 0 0 0 0 0 81838696.16671377 -14130977.08710528 -14130977.08710528 -2602655.904739186 0 0 0 0 0 59200281.8754313 -19722911.91723884 -19722911.91723884 -2432299.481027908 0 0 0 0 0 50203120.93023314 -21765926.26949933 -21765926.26949933 -5018313.31363335 0 0 0 0 0 -3925249.277124825 -5652562.772587223 -5652562.772587223 -52378500.83983979 0 0 0 0 0 10782671.32455828 -12162739.08990498 -12162739.08990498 -24011562.75142394 0 0 0 0 0 133920.9428724875 1286339.384663636 1286339.384663636 -48026979.58599769 0 0 0 0 0 15137483.93687238 -9248481.551492169 -9248481.551492169 -17404436.36720929 0 0 0 0 0 24352536.54730956 -19076220.13694281 -19076220.13694281 -9791084.387595624 0 0 0 0 0 42221708.45814911 -20128389.15401249 -20128389.15401249 -4975588.501830265 0 0 0 0 0 36455141.77712423 -16243454.00577966 -16243454.00577966 -6157527.254947565 0 0 0 0 0 93211256.77812587 -10949948.92485497 -10949948.92485497 -4326409.107138916 0 0 0 0 0 91039075.65875235 -11893587.7881936 -11893587.7881936 -4670990.271437422 0 0 0 0 0 88434500.86114034 -12760318.04942903 -12760318.04942903 -4500573.927236164 0 0 0 0 0 88829618.84430937 -12828127.98005053 -12828127.98005053 -3127296.96532577 0 0 0 0 0 83332614.20759906 -12885544.43755237 -12885544.43755237 -2339209.153744141 0 0 0 0 0 62370635.453649 -18122943.09361079 -18122943.09361079 -2260399.577318272 0 0 0 0 0 67308315.0080636 -16909654.08027719 -16909654.08027719 -1818590.160299328 0 0 0 0 0 71456532.86259991 -15744529.16981107 -15744529.16981107 -1510032.836465098 0 0 0 0 0 74945193.78289244 -14640082.13649843 -14640082.13649843 -1239699.407493005 0 0 0 0 0 77887256.35259002 -13558057.17318189 -13558057.17318189 -1070586.426471736 0 0 0 0 0 80336613.79879956 -12621881.80489586 -12621881.80489586 -916041.1011967593 0 0 0 0 0 57832016.5934592 -19935147.47381919 -19935147.47381919 -2587603.110370893 0 0 0 0 0 52446435.16073382 -18246849.56649922 -18246849.56649922 -2414170.75733693 0 0 0 0 0 4721193.580339785 -624495.8081955329 -624495.8081955329 -23770229.63268021 0 0 0 0 0 3125071.600447394 -4464525.597013907 -4464525.597013907 -29458749.60824892 0 0 0 0 0 15519176.1939314 -12987151.61864963 -12987151.61864963 -11374786.29331225 0 0 0 0 0 25594256.45232636 -9945720.638250694 -9945720.638250694 -7512259.572280448 0 0 0 0 0 42320026.30574633 -15001512.19098273 -15001512.19098273 -2413781.300890095 0 0 0 0 0 34651749.88462337 -17170461.59752392 -17170461.59752392 -4177702.845261273 0 0 0 0 0 92429661.02929875 -11580963.30486097 -11580963.30486097 -4159559.232317255 0 0 0 0 0 91355569.63114364 -12080472.37099091 -12080472.37099091 -3483816.082943898 0 0 0 0 0 85979796.49743645 -12236957.32479163 -12236957.32479163 -2789867.099602411 0 0 0 0 0 82693332.41606566 -11696810.07653535 -11696810.07653535 -790948.3516595998 0 0 0 0 0 86417684.30230908 -11908546.8479114 -11908546.8479114 -1353307.234758401 0 0 0 0 0 63971704.4337713 -18189168.08879308 -18189168.08879308 -1788432.400117682 0 0 0 0 0 68480511.81244576 -16890833.69733487 -16890833.69733487 -1500665.019585563 0 0 0 0 0 72290446.5588508 -15673863.89786167 -15673863.89786167 -1307615.261778685 0 0 0 0 0 75442921.49515636 -14486747.40617007 -14486747.40617007 -1164375.503381829 0 0 0 0 0 78186223.38898239 -13403462.62488562 -13403462.62488562 -1053219.843653436 0 0 0 0 0 80612834.81179531 -12408192.34777643 -12408192.34777643 -942944.548536308 0 0 0 0 0 54158647.92310543 -14758956.68841301 -14758956.68841301 -523505.4783023166 0 0 0 0 0 45442203.84240847 -15487107.57731909 -15487107.57731909 -2040116.076169177 0 0 0 0 0 11075364.54881171 -5390914.515366925 -5390914.515366925 -15991574.30228541 0 0 0 0 0 17084305.0180675 -2349842.469354438 -2349842.469354438 -10989204.90835997 0 0 0 0 0 25948386.31444924 -11510105.98682898 -11510105.98682898 -4938291.033598924 0 0 0 0 0 43886562.40372919 -15792632.89446227 -15792632.89446227 -1243980.159608411 0 0 0 0 0 33070784.35497065 -9370105.176600304 -9370105.176600304 -2692572.911004442 0 0 0 0 0 91129231.15838169 -11188841.90112401 -11188841.90112401 -3352779.09774875 0 0 0 0 0 89304352.62274212 -12018015.39890871 -12018015.39890871 -3960885.626877893 0 0 0 0 0 87119280.63123605 -11977308.8396663 -11977308.8396663 -2341624.993444103 0 0 0 0 0 82054545.34124315 -11451509.72663033 -11451509.72663033 -1123150.910199943 0 0 0 0 0 83942148.71809791 -11567264.50784087 -11567264.50784087 -1983574.898020776 0 0 0 0 0 60127771.25610107 -14304021.19656623 -14304021.19656623 -133009.2522415815 0 0 0 0 0 65332290.24031255 -13663284.81554587 -13663284.81554587 54019.96636213442 0 0 0 0 0 69682830.99228553 -12953294.7909774 -12953294.7909774 222830.3063910831 0 0 0 0 0 73332973.81987211 -12184011.47259565 -12184011.47259565 312020.6847756407 0 0 0 0 0 76307682.95408882 -11478856.9552676 -11478856.9552676 359160.0652590043 0 0 0 0 0 78814732.92255981 -10870557.68094258 -10870557.68094258 232190.5878126863 0 0 0 0 0 58208739.09720887 -14908270.99430521 -14908270.99430521 662833.3581560599 0 0 0 0 0 52314532.87974773 -15450556.55121494 -15450556.55121494 1513.139357411065 0 0 0 0 0 20403721.06285262 -4773704.095186272 -4773704.095186272 -7027829.64462991 0 0 0 0 0 26178734.49638047 -2732829.981638939 -2732829.981638939 -3981161.100921353 0 0 0 0 0 40903255.82057114 -9577471.831115844 -9577471.831115844 -13930.08500220483 0 0 0 0 0 36391765.19963058 -10587321.37505981 -10587321.37505981 -785401.5525208829 0 0 0 0 0 88485276.31697269 -11236644.5684183 -11236644.5684183 -2370513.133331845 0 0 0 0 0 86225791.76248632 -10764221.21596661 -10764221.21596661 -1160225.835022127 0 0 0 0 0 84483679.20406906 -10828958.77501286 -10828958.77501286 -435073.2843304676 0 0 0 0 0 81124146.87042315 -10347469.21368857 -10347469.21368857 205174.7707784369 0 0 0 0 0 63486993.83630591 -14289080.13858907 -14289080.13858907 792688.8902596603 0 0 0 0 0 67759873.56865115 -13610707.71966743 -13610707.71966743 699191.2796160043 0 0 0 0 0 71596617.57955043 -12789475.78125188 -12789475.78125188 686439.2721147545 0 0 0 0 0 74494767.22008044 -12014428.08235629 -12014428.08235629 565058.7471094535 0 0 0 0 0 77542496.22421603 -11215772.60936797 -11215772.60936797 605404.0284481244 0 0 0 0 0 79926315.55321719 -10633402.3458118 -10633402.3458118 437506.324792985 0 0 0 0 0 53411510.32085621 -10281349.053489 -10281349.053489 1016857.448480917 0 0 0 0 0 46754198.08414845 -9743750.687586023 -9743750.687586023 823219.8495939556 0 0 0 0 0 29613422.9700982 -4114141.126819243 -4114141.126819243 -1790747.928808417 0 0 0 0 0 44553621.86033134 -10165158.36744863 -10165158.36744863 1155835.789735129 0 0 0 0 0 34109561.37862461 -2985246.480271646 -2985246.480271646 -281307.783992985 0 0 0 0 0 82279129.38923779 -10202198.33998565 -10202198.33998565 -428763.116630096 0 0 0 0 0 82127972.2006076 -10179522.8145676 -10179522.8145676 436767.6785772722 0 0 0 0 0 59619019.78225132 -10745273.70038357 -10745273.70038357 1419164.206676978 0 0 0 0 0 64877744.81692071 -10466400.16704609 -10466400.16704609 1508530.458682571 0 0 0 0 0 68992440.27719261 -10168846.44615641 -10168846.44615641 1565132.38575846 0 0 0 0 0 72657573.9360209 -9661290.629744304 -9661290.629744304 1560638.964709799 0 0 0 0 0 75206247.08328404 -9387138.980137583 -9387138.980137583 1310390.131556857 0 0 0 0 0 77769951.95798726 -9159467.762104314 -9159467.762104314 1104151.871138043 0 0 0 0 0 59885360.75574014 -10452646.48443026 -10452646.48443026 2904009.77293903 0 0 0 0 0 53804260.6305192 -9879361.627653522 -9879361.627653522 2789410.205610414 0 0 0 0 0 43057980.12195005 -3143650.020011656 -3143650.020011656 2181783.660670632 0 0 0 0 0 37955588.69340535 -3851236.287646113 -3851236.287646113 1012644.226963763 0 0 0 0 0 79912099.26609445 -9051268.448433051 -9051268.448433051 702003.6595072213 0 0 0 0 0 63810375.79827227 -10730804.1896467 -10730804.1896467 2556601.61587858 0 0 0 0 0 68025695.30840762 -10433834.10899498 -10433834.10899498 2329579.733718678 0 0 0 0 0 71345064.42665616 -9972761.821106913 -9972761.821106913 2121676.25127088 0 0 0 0 0 74625547.66011372 -9454417.771351036 -9454417.771351036 2045722.276909696 0 0 0 0 0 77367100.8119805 -9147517.219017129 -9147517.219017129 1859575.253567082 0 0 0 0 0 79945875.33447774 -8894623.112378486 -8894623.112378486 1702463.564301564 0 0 0 0 0 55569419.30539615 -6923242.137392491 -6923242.137392491 2439645.341191482 0 0 0 0 0 47929154.67222712 -6010190.371262038 -6010190.371262038 1965006.977362558 0 0 0 0 0 45198378.86607906 -3378575.275210564 -3378575.275210564 2399518.859065623 0 0 0 0 0 60669832.84312703 -7537012.108429423 -7537012.108429423 2476519.632554221 0 0 0 0 0 65591073.34262063 -7661605.566668266 -7661605.566668266 2835776.141900382 0 0 0 0 0 69419231.74386367 -7343734.892073127 -7343734.892073127 2622050.033489049 0 0 0 0 0 72283699.82461672 -7270594.356947348 -7270594.356947348 2196421.195323306 0 0 0 0 0 75017771.63761124 -7366485.657536646 -7366485.657536646 2053052.312437793 0 0 0 0 0 77360144.88489917 -7508528.679688012 -7508528.679688012 1591733.922919682 0 0 0 0 0 56483812.46679002 -6271231.797925313 -6271231.797925313 4442262.003807129 0 0 0 0 0 61779662.90860879 -6833754.489355206 -6833754.489355206 4261758.935299261 0 0 0 0 0 51430325.69402178 -2916017.694041244 -2916017.694041244 3924189.126588031 0 0 0 0 0 64429609.40821043 -7884350.083567355 -7884350.083567355 3472419.187003939 0 0 0 0 0 68149466.4123763 -7557381.914018721 -7557381.914018721 3225425.547198689 0 0 0 0 0 72003934.05973464 -7176511.055295224 -7176511.055295224 3245720.2580001 0 0 0 0 0 75227705.58661284 -7143933.480602386 -7143933.480602386 2995758.60907231 0 0 0 0 0 77942079.91708986 -7112930.394744175 -7112930.394744175 2887665.963820496 0 0 0 0 0 53392418.01143245 -2035311.390460542 -2035311.390460542 3330728.302736389 0 0 0 0 0 58996614.19237611 -5648281.45437081 -5648281.45437081 3230997.10781589 0 0 0 0 0 50871191.27715777 -2471464.144814076 -2471464.144814076 3067991.519556743 0 0 0 0 0 63492872.10590859 -5100978.142950925 -5100978.142950925 4142378.897044459 0 0 0 0 0 67134045.1118146 -4633666.037190167 -4633666.037190167 3958350.326640713 0 0 0 0 0 69714020.64465997 -5078304.44815696 -5078304.44815696 3064319.091853841 0 0 0 0 0 73012553.81607088 -5152202.48075462 -5152202.48075462 2806957.101810202 0 0 0 0 0 75406971.36862458 -5622474.99190114 -5622474.99190114 2365755.564695086 0 0 0 0 0 56353472.63439997 -2342218.138487921 -2342218.138487921 3868677.309212966 0 0 0 0 0 59960716.47256476 -2040063.13720558 -2040063.13720558 4309786.987201957 0 0 0 0 0 64203327.09035947 -4883399.080364189 -4883399.080364189 3614078.173983479 0 0 0 0 0 67223694.66682911 -4365866.465128041 -4365866.465128041 3401261.521914279 0 0 0 0 0 71098385.4263304 -4183078.950131491 -4183078.950131491 4433963.261466989 0 0 0 0 0 72831464.67835192 -5013590.866899511 -5013590.866899511 3878906.954631649 0 0 0 0 0 76480100.88667612 -4958809.165512569 -4958809.165512569 3759980.466458974 0 0 0 0 0 60940900.95608123 -1899829.024920896 -1899829.024920896 3804798.104826312 0 0 0 0 0 63975103.67085915 -1719488.530043473 -1719488.530043473 4265462.690332574 0 0 0 0 0 67787496.97224933 -1535611.816754628 -1535611.816754628 4370077.045276193 0 0 0 0 0 69630191.20769165 -3532358.564528826 -3532358.564528826 3455275.181588103 0 0 0 0 0 72292200.51449788 -3045983.984539619 -3045983.984539619 3973214.080570465 0 0 0 0 0 74124018.92084734 -3497094.056578692 -3497094.056578692 2948678.362189363 0 0 0 0 0 65016570.3123673 -1643734.920762028 -1643734.920762028 3973433.639301903 0 0 0 0 0 68411247.43882838 -1335506.951438177 -1335506.951438177 4013220.115669009 0 0 0 0 0 70399380.80243582 -1230180.21740594 -1230180.21740594 4115260.088247132 0 0 0 0 0 72361163.80341011 -2796713.417607035 -2796713.417607035 3425392.097407235 0 0 0 0 0 75457495.00993702 -2598759.217096859 -2598759.217096859 4224313.373135275 0 0 0 0 0 71374005.21490709 -1153849.435595683 -1153849.435595683 3870178.282658986 0 0 0 0 0 72838197.95907167 -969945.1439781213 -969945.1439781213 3990755.771786265 0 0 0 0 0 73725344.79147565 -1291384.744834928 -1291384.744834928 3332349.179911808 0 0 0 0 0 74084703.85234088 -966405.5774915855 -966405.5774915855 4177559.872179923 0 0 0 0 0 </DataArray>
        <DataArray type="Float64" Name="von_mises_stress" format="ascii" NumberOfComponents="3">100762590.7828919 0 0 101147594.9202977 0 0 101569222.2174117 0 0 101300441.9128452 0 0 101122936.96986 0 0 101459547.5412574 0 0 101674403.7594495 0 0 102232946.2878478 0 0 101814010.2897689 0 0 102009034.8341644 0 0 101846123.6744388 0 0 102066043.5848395 0 0 102471938.6981076 0 0 102121664.492153 0 0 102287975.7959984 0 0 103156059.3339674 0 0 103411877.8423966 0 0 102370086.9933288 0 0 102842820.0273894 0 0 102771376.7228738 0 0 102846757.0578258 0 0 102986405.0409219 0 0 103247410.2661588 0 0 103773912.6061518 0 0 102979004.6954874 0 0 103195544.1860245 0 0 104356166.6973407 0 0 104627941.2460184 0 0 104866174.0075932 0 0 103706668.194971 0 0 103626686.2210364 0 0 103872960.5244494 0 0 104030298.8922071 0 0 104202671.384122 0 0 104465388.860563 0 0 104697962.4980123 0 0 105277698.9600613 0 0 104362010.7766209 0 0 104056963.8136486 0 0 104418331.3696074 0 0 105672672.9588001 0 0 106009839.4232142 0 0 106394238.4448043 0 0 106986247.6951361 0 0 105076595.4209209 0 0 105294525.3894999 0 0 105047506.7622525 0 0 105389133.6379555 0 0 105309534.4021806 0 0 105555378.0245326 0 0 105907021.0410986 0 0 106341438.3649999 0 0 106757137.5654758 0 0 107314360.0580383 0 0 105437432.4485015 0 0 105599954.3718412 0 0 106146944.4429087 0 0 107057139.775632 0 0 107446584.1161175 0 0 107814753.9141156 0 0 108493293.7096536 0 0 108840943.4756012 0 0 107305247.3423496 0 0 106676081.9786803 0 0 106847863.7058066 0 0 107504680.5485987 0 0 106585006.5450619 0 0 106974645.0563005 0 0 107321188.9790746 0 0 108009906.619394 0 0 109200169.5692924 0 0 109591443.8772488 0 0 109185808.3348998 0 0 108145663.0507348 0 0 107212551.6706461 0 0 107503479.1565043 0 0 108558678.0708342 0 0 108286710.259173 0 0 108890981.1438059 0 0 109169736.9321311 0 0 109122823.9883063 0 0 110694324.015251 0 0 111097460.4648193 0 0 110291683.8783906 0 0 108994800.8419941 0 0 108671189.4916967 0 0 109194883.6602405 0 0 110587472.308006 0 0 107766694.2757134 0 0 108249541.0601887 0 0 108784253.4640482 0 0 110347886.5794962 0 0 112043247.4274793 0 0 112539921.6543261 0 0 111726094.7056043 0 0 110969709.5489019 0 0 110063431.8591904 0 0 109504896.5448364 0 0 110089212.4701672 0 0 112300324.8450956 0 0 109467831.4465401 0 0 110135343.4018239 0 0 110730388.5313755 0 0 111398305.7890615 0 0 113116096.7693471 0 0 114181453.4325454 0 0 113324135.7301733 0 0 112310127.6219463 0 0 111428031.1633451 0 0 111442658.4027252 0 0 112852977.2897593 0 0 114812843.8042243 0 0 108808485.3722235 0 0 109513920.8122799 0 0 109988713.2042332 0 0 110927200.4839143 0 0 112711785.4990867 0 0 114856062.8050752 0 0 114756216.5920862 0 0 115264064.193814 0 0 114072816.6415109 0 0 113377321.3699005 0 0 112878036.9264174 0 0 112550343.4390217 0 0 113304966.9407389 0 0 116969145.3840152 0 0 110349275.5947546 0 0 111083747.1665439 0 0 111837815.6258672 0 0 111885440.5304401 0 0 113517524.3670244 0 0 115493352.9461915 0 0 116833637.4995306 0 0 117390314.3921856 0 0 116035184.8771927 0 0 115184721.4737502 0 0 114612710.5138165 0 0 115096282.1210961 0 0 117835868.0015894 0 0 120446975.9961798 0 0 109678438.3767476 0 0 110265789.1945709 0 0 111649773.7373673 0 0 111850644.2364997 0 0 113356757.2707162 0 0 115278978.4391535 0 0 117670749.5757536 0 0 117739646.6029196 0 0 117417024.5726461 0 0 117831037.409523 0 0 116961244.6044101 0 0 116549593.9489855 0 0 116303676.1402448 0 0 118367068.2580497 0 0 125312107.5550729 0 0 123290672.6114395 0 0 110868413.621489 0 0 112057029.1692481 0 0 112000311.8575354 0 0 113470103.9129301 0 0 113566964.0759102 0 0 115473368.0511701 0 0 117596635.9260632 0 0 120369577.4582844 0 0 120007668.0886035 0 0 120390432.2803524 0 0 119454903.9513281 0 0 118923796.2938268 0 0 118695087.2591353 0 0 121628037.3341886 0 0 130104837.38987 0 0 126160037.8734319 0 0 110295590.7420195 0 0 111425262.2376441 0 0 111528734.9311155 0 0 113487298.7771766 0 0 113589251.0103341 0 0 115432240.2236663 0 0 117609164.8610415 0 0 120127585.0596451 0 0 120398865.9220244 0 0 120588919.6237921 0 0 120569949.2120911 0 0 119968202.7172395 0 0 120509806.8500571 0 0 120648629.6682207 0 0 124769344.954354 0 0 137244252.8510124 0 0 132229297.5447415 0 0 128334965.3110689 0 0 111368958.2424849 0 0 112323978.8793999 0 0 113312621.0862262 0 0 113082822.049303 0 0 115206475.8245144 0 0 115273769.286167 0 0 117175193.0286369 0 0 119270489.8281732 0 0 123539738.4008851 0 0 123849317.8532857 0 0 123851404.1681818 0 0 122904650.2243543 0 0 123774409.9740447 0 0 123900670.0153486 0 0 126077306.0565785 0 0 144892873.4402775 0 0 137315354.6618556 0 0 133621895.047679 0 0 110686342.6967756 0 0 111570941.5743108 0 0 112371609.4815216 0 0 114974440.3390099 0 0 114919469.697612 0 0 117270827.6313419 0 0 119533363.8469201 0 0 122014463.0107715 0 0 123225741.4274783 0 0 122471894.4907077 0 0 123812943.2927725 0 0 124247671.950374 0 0 121477992.6562769 0 0 124882880.7451136 0 0 130941328.6118023 0 0 154262851.2363801 0 0 145422592.4428836 0 0 138168066.3955115 0 0 133264793.9501512 0 0 111516379.9003659 0 0 112464623.2128025 0 0 113564384.8100484 0 0 114477527.5117217 0 0 116713599.3265009 0 0 116615475.5920307 0 0 118415121.6111674 0 0 120329485.0792066 0 0 127093762.9016748 0 0 125995619.1897354 0 0 127868359.7971468 0 0 128488894.245882 0 0 124646517.5464493 0 0 129314867.9565443 0 0 130148508.2385189 0 0 169833561.4010742 0 0 154130847.3656162 0 0 146427463.805642 0 0 140513928.612379 0 0 110871128.4888383 0 0 111797176.474727 0 0 112796742.1219247 0 0 114109624.0856493 0 0 116015056.3368224 0 0 115915492.359815 0 0 118727769.176784 0 0 120885827.5952347 0 0 123106672.4414383 0 0 125065727.0282288 0 0 126236742.94365 0 0 123720420.7434534 0 0 127310951.1022963 0 0 128382743.0126329 0 0 122203269.980569 0 0 136431316.2738089 0 0 185319586.7371012 0 0 164152221.0490366 0 0 153131802.8138072 0 0 142129422.09997 0 0 136224400.8104998 0 0 111443807.5194377 0 0 112390156.2752259 0 0 113319320.5401016 0 0 114172232.6659549 0 0 115173450.2795945 0 0 117777720.8661713 0 0 117480800.0341064 0 0 119067370.4470046 0 0 120621580.2524083 0 0 129275412.9168126 0 0 130936401.3351481 0 0 127372794.4257594 0 0 132379960.1694884 0 0 134012729.9114203 0 0 125348488.5259183 0 0 132802810.3833605 0 0 210790796.7271642 0 0 185744326.2754392 0 0 164681091.1098898 0 0 154427943.2531307 0 0 145869525.944165 0 0 110855001.0759931 0 0 111741209.2185236 0 0 112700026.0416076 0 0 113626306.9426795 0 0 115249405.2971506 0 0 116734883.3173404 0 0 116437380.9280857 0 0 119592711.2815324 0 0 121466912.4443136 0 0 123257185.3008182 0 0 125839639.7717533 0 0 127587976.8459464 0 0 129178074.8057528 0 0 123965941.9783252 0 0 130737911.1872257 0 0 122009432.1628371 0 0 140533675.1389714 0 0 229743051.3340762 0 0 210225453.8047912 0 0 172036573.0143972 0 0 157724708.8053985 0 0 143727632.9534704 0 0 137034544.6116569 0 0 111211400.2804237 0 0 112110610.0063307 0 0 113170953.9534521 0 0 114354381.5938534 0 0 114088903.7071116 0 0 115261496.3719196 0 0 118258085.5131971 0 0 117755249.442093 0 0 119010519.8701192 0 0 120082955.5051818 0 0 130014255.2353559 0 0 132518194.7943443 0 0 134892874.227965 0 0 127423522.6352723 0 0 137313152.6925315 0 0 124856907.3537222 0 0 133702597.9401345 0 0 296011478.7507172 0 0 224838519.0361105 0 0 204007148.2227829 0 0 172069581.1694324 0 0 159422477.9449466 0 0 147974130.1600312 0 0 110668670.41411 0 0 111516408.4327698 0 0 112462658.3442514 0 0 113457093.3150691 0 0 115608533.6308009 0 0 116888051.7820016 0 0 116407175.5223703 0 0 119758453.3356207 0 0 121174987.7928648 0 0 122352617.3579129 0 0 125377921.9863126 0 0 127602466.2020069 0 0 129687336.9363275 0 0 131531298.2017595 0 0 123102150.186469 0 0 120846062.7184048 0 0 142146578.7856324 0 0 268064132.4369193 0 0 199758795.9254297 0 0 155655214.2306457 0 0 140295406.0068443 0 0 134934532.2988935 0 0 110817598.0002049 0 0 111657947.2924615 0 0 112573293.6747593 0 0 113526601.0496197 0 0 114205781.2638807 0 0 115048317.3163151 0 0 118092195.3086844 0 0 117389277.5899318 0 0 118184629.8639423 0 0 118666944.4162966 0 0 129088936.1894192 0 0 132216104.2287135 0 0 135317856.0065627 0 0 138492980.9899768 0 0 126023087.9721428 0 0 123113319.8230264 0 0 132609355.3284547 0 0 244811959.8706139 0 0 181868590.792412 0 0 154603674.3602784 0 0 144790610.7394706 0 0 110335239.6519403 0 0 111123312.2767788 0 0 112005771.7280005 0 0 112940349.6634264 0 0 114222536.0516044 0 0 115552999.8034472 0 0 116487481.0147326 0 0 115820857.8916126 0 0 119161413.3106254 0 0 119986575.1533398 0 0 120397298.4395556 0 0 126162526.0535336 0 0 123633904.6189407 0 0 128573537.8181058 0 0 130635516.2822684 0 0 121104420.3925309 0 0 118681426.5707873 0 0 140175456.5364839 0 0 175632409.0881421 0 0 143177982.4762899 0 0 133357091.0324651 0 0 130873404.9604228 0 0 110298416.9809007 0 0 111036527.6200455 0 0 111847702.2910687 0 0 112730881.0846384 0 0 113363962.9151645 0 0 113863667.4301683 0 0 114330382.5477848 0 0 117262578.8245792 0 0 116367969.5654905 0 0 116615791.3317185 0 0 116426475.1126928 0 0 129862480.728837 0 0 126422033.9383677 0 0 133391710.8576331 0 0 136827196.4362768 0 0 123164920.6068636 0 0 120177221.609902 0 0 129738501.6789475 0 0 206302209.1700146 0 0 159592609.636594 0 0 143313159.7056072 0 0 138211830.4837849 0 0 109885345.9764078 0 0 110587954.2479288 0 0 111356664.3211794 0 0 112205335.3653827 0 0 113048147.3185286 0 0 114131773.530248 0 0 114963836.6759461 0 0 115500092.5514147 0 0 114669178.81736 0 0 117790050.314255 0 0 117925229.701182 0 0 117472933.7133268 0 0 125845032.006072 0 0 123270272.0228112 0 0 120609684.1794348 0 0 128118039.486858 0 0 118023043.1297621 0 0 115610768.9572089 0 0 135608565.3806721 0 0 146856423.7734462 0 0 126300068.3477709 0 0 124440991.7923689 0 0 125685869.4713337 0 0 109701610.9792709 0 0 110344701.0102355 0 0 111047206.7749572 0 0 111921947.2112158 0 0 112995380.6846784 0 0 112591497.5496869 0 0 112943306.1292451 0 0 113108248.6662494 0 0 115776810.1786086 0 0 114717020.3881878 0 0 114369933.480366 0 0 113452788.6512502 0 0 129062867.2044753 0 0 125561836.0570467 0 0 122161111.0384688 0 0 132590574.340457 0 0 119008665.3978608 0 0 116191565.3925616 0 0 125458173.2842326 0 0 157961676.6925984 0 0 132531423.6589753 0 0 129429938.5803265 0 0 129463347.4087376 0 0 109347111.8867357 0 0 109981568.4447412 0 0 110652380.7719488 0 0 111402969.547949 0 0 112193236.685398 0 0 113474141.8809191 0 0 113853173.0756273 0 0 113963476.9088275 0 0 112990086.2388287 0 0 115693818.6489511 0 0 115078558.7733057 0 0 113738271.4581346 0 0 123923188.5466765 0 0 121627810.9932245 0 0 119031826.3384625 0 0 116421898.2011257 0 0 113973194.4147463 0 0 111793228.3386233 0 0 128114964.1022506 0 0 113203288.7147883 0 0 109578234.2451835 0 0 116036160.1751339 0 0 119460014.168319 0 0 109042322.978415 0 0 109594770.9268144 0 0 110152771.5113719 0 0 110736981.9622167 0 0 111353250.5391574 0 0 111694513.1285216 0 0 111692032.1452588 0 0 111433616.2618994 0 0 113696560.407307 0 0 112503623.5326678 0 0 111527606.9646134 0 0 109898029.8389893 0 0 125822776.0326634 0 0 122758506.9394541 0 0 119615624.948795 0 0 116591500.5549575 0 0 113835589.2573399 0 0 111427031.2248503 0 0 119655820.4545882 0 0 105813676.3340006 0 0 103726651.1833617 0 0 113146328.0747992 0 0 118402389.953614 0 0 108743873.316483 0 0 109319228.9523622 0 0 109874596.0576515 0 0 110459985.950623 0 0 111174127.6781127 0 0 112036493.1416417 0 0 112413310.9924673 0 0 112318113.012922 0 0 111931665.887439 0 0 110844297.4430305 0 0 112975052.1739468 0 0 111612455.6894489 0 0 109429166.4672826 0 0 118171181.0475214 0 0 116017506.2966977 0 0 113648966.1386723 0 0 111313992.0837921 0 0 109214502.5020547 0 0 107469531.5289986 0 0 118575924.2417287 0 0 80280458.5522069 0 0 101748752.6719147 0 0 110622762.1474365 0 0 112532707.4539188 0 0 108356201.437883 0 0 108710594.8007345 0 0 109248362.1017252 0 0 109681892.1913515 0 0 110192444.7525908 0 0 110431495.0374718 0 0 110450050.0423585 0 0 110048291.6856812 0 0 109386591.4847935 0 0 111129507.4534982 0 0 109829448.7203384 0 0 108240949.1441354 0 0 105934628.2222566 0 0 117125982.8527122 0 0 114891814.2194299 0 0 112473922.0035004 0 0 110153962.0765443 0 0 108032915.8198973 0 0 106219379.3175129 0 0 112383445.5685554 0 0 59440514.22442985 0 0 82354176.404993 0 0 102859914.2212191 0 0 108426236.3623581 0 0 108115547.3612325 0 0 108705153.7555117 0 0 109086696.9536817 0 0 109548588.2161656 0 0 109992760.6956236 0 0 110315346.6162726 0 0 110955387.7692072 0 0 110868910.1442008 0 0 110380686.5637349 0 0 109526913.803996 0 0 108357381.1067178 0 0 109779074.4656919 0 0 107695875.8932864 0 0 104756263.7113361 0 0 111079762.5845629 0 0 109360251.9967142 0 0 107444069.9084091 0 0 105666360.7275896 0 0 104093666.5775786 0 0 102795980.6705907 0 0 108234183.4235162 0 0 41062120.75508427 0 0 83874138.32112272 0 0 101091987.4734431 0 0 101501930.9373817 0 0 103259295.8279189 0 0 108086116.1041705 0 0 107881518.6054694 0 0 108287135.7368124 0 0 108635379.039685 0 0 108819059.1652472 0 0 109883843.1462288 0 0 109253966.8810246 0 0 108834218.3346315 0 0 108099603.7093923 0 0 107075984.5880123 0 0 108204619.8273106 0 0 106805120.6337677 0 0 104665629.0483357 0 0 101775592.1655669 0 0 107520248.1384505 0 0 106166848.2194548 0 0 104707773.2352646 0 0 103275776.9279574 0 0 101996224.2179302 0 0 100955228.2410124 0 0 103828686.4777926 0 0 37104867.40109915 0 0 62228473.75301342 0 0 84951395.47610159 0 0 98960889.76667762 0 0 96801135.02704374 0 0 108118997.3521252 0 0 108645974.1135353 0 0 107865146.7155799 0 0 108848256.4590501 0 0 109253671.6018088 0 0 108635733.9535283 0 0 109543842.8523701 0 0 109012111.3118974 0 0 108145216.9521474 0 0 106855917.8116493 0 0 105606296.2571164 0 0 106246569.9350851 0 0 103565087.6355631 0 0 100082145.733731 0 0 103091704.3479946 0 0 101918093.9158641 0 0 100809537.3162525 0 0 99678697.39553505 0 0 98787396.0418247 0 0 98107242.99477164 0 0 97344671.45956227 0 0 26135615.75776468 0 0 62340653.58566321 0 0 87136573.92931773 0 0 88810948.33735605 0 0 93742133.8486854 0 0 107550814.9697541 0 0 108027239.1918655 0 0 108322300.9239054 0 0 107927330.545281 0 0 108730880.9782248 0 0 107947040.6102392 0 0 107096594.3663546 0 0 105960686.0983673 0 0 104592168.1091879 0 0 105041773.7436188 0 0 103579266.1314202 0 0 101022826.0871552 0 0 97735824.2728769 0 0 97357128.95720142 0 0 97213621.0912063 0 0 96813045.74734516 0 0 96478638.55514744 0 0 96081514.28034547 0 0 95792031.78258446 0 0 94410069.30732492 0 0 56268053.53306597 0 0 48723217.54041675 0 0 68774341.31177655 0 0 86053320.13900459 0 0 82136207.40549786 0 0 107802307.6636979 0 0 107313521.7690028 0 0 107880716.172087 0 0 107289260.3503083 0 0 107896932.4695081 0 0 106943709.1219786 0 0 105660219.4670275 0 0 103994382.7978642 0 0 102698098.9130302 0 0 102622523.5038688 0 0 99532646.58669035 0 0 95608524.21636082 0 0 94452164.97832611 0 0 94332308.36545083 0 0 94097630.57323882 0 0 93864755.50632927 0 0 93763098.64586455 0 0 93794932.76593459 0 0 85392980.01783316 0 0 36312792.1282102 0 0 56096689.83173583 0 0 68813781.31691755 0 0 71416982.78672493 0 0 82239857.87051724 0 0 82035665.65131621 0 0 107273197.8905569 0 0 106721214.9266006 0 0 107115036.7374266 0 0 106370529.4953186 0 0 105161120.7034893 0 0 103684052.1284103 0 0 101754762.019573 0 0 101954180.0167422 0 0 100378366.1635 0 0 97457003.62685384 0 0 93939420.15259397 0 0 87123918.45431684 0 0 88398331.16569433 0 0 89290097.68293621 0 0 90047090.36329621 0 0 90609462.75861523 0 0 91161012.61904401 0 0 84806113.25374649 0 0 79953056.14373125 0 0 39767600.33895935 0 0 56795428.22621269 0 0 68349443.23535945 0 0 75869475.64390396 0 0 68175486.04581273 0 0 106477327.7191735 0 0 105824724.5165295 0 0 106033542.6804324 0 0 104670668.0110452 0 0 103014721.865313 0 0 101491271.1732398 0 0 99980689.22137588 0 0 99028739.9119226 0 0 95678603.05817287 0 0 91699318.06604367 0 0 86045596.11654367 0 0 86879931.29120801 0 0 87744881.61989307 0 0 88518023.204285 0 0 89335642.13505787 0 0 90090944.96606447 0 0 74167590.77281015 0 0 46796282.13975862 0 0 50982067.56303371 0 0 49165828.2687571 0 0 57004292.08351082 0 0 67276190.92215483 0 0 64032417.2721125 0 0 105461832.4539853 0 0 104683867.3098242 0 0 103301484.9353888 0 0 101492136.4861015 0 0 98888170.6890008 0 0 98793427.84475197 0 0 97340013.3595039 0 0 94275989.07555379 0 0 90936791.50297764 0 0 78206370.95958541 0 0 80582420.63349336 0 0 82636859.75538324 0 0 84331305.13260706 0 0 85801732.16279301 0 0 87153774.561946 0 0 75975866.27710369 0 0 73681818.08856192 0 0 91601078.85954514 0 0 31433823.89460806 0 0 44726147.19881228 0 0 48545262.94735941 0 0 62920644.18379104 0 0 56705405.4628223 0 0 104088587.2083949 0 0 102405997.0104654 0 0 99999614.95550667 0 0 99486481.72397453 0 0 98609243.98173244 0 0 95801995.51498464 0 0 92076036.05677755 0 0 88374147.40107024 0 0 78284724.42621826 0 0 80386095.0149928 0 0 82264893.54601151 0 0 83894481.84420323 0 0 85351058.61126673 0 0 86697159.78133026 0 0 69437468.51134287 0 0 64951816.3634196 0 0 51470094.78573283 0 0 37356747.74794964 0 0 48145659.49698753 0 0 32436405.9994804 0 0 44933902.9497671 0 0 56859151.79636947 0 0 48815114.73995437 0 0 97314081.10085407 0 0 95705519.04182433 0 0 93420550.56166764 0 0 93123361.03360502 0 0 87423341.67974681 0 0 70862622.94242561 0 0 74255854.86761135 0 0 77200314.73543744 0 0 79713389.42106025 0 0 81868300.57971546 0 0 83703870.81263033 0 0 68506309.58932146 0 0 62305007.73544297 0 0 26470876.94432817 0 0 32084897.83673988 0 0 32446205.12646158 0 0 34648561.04227903 0 0 50735572.91374747 0 0 47407129.62869832 0 0 96681781.91406184 0 0 95467567.88562711 0 0 89941149.33310032 0 0 85525815.27373053 0 0 89511104.01569906 0 0 72128524.41855997 0 0 75169805.04942696 0 0 77840584.79365456 0 0 80065171.0480921 0 0 82070095.11907879 0 0 83888148.30452217 0 0 60127081.7462585 0 0 53678811.81238148 0 0 25351381.45343941 0 0 24838363.67237385 0 0 34975616.84393193 0 0 52253168.51995989 0 0 38123074.87461585 0 0 94851908.94169106 0 0 93690866.26466081 0 0 90717257.07589053 0 0 84969292.93261537 0 0 87281895.39906622 0 0 65093618.61777522 0 0 69461052.9284738 0 0 73099813.13033952 0 0 76159644.22290125 0 0 78682128.03669679 0 0 80919855.8565326 0 0 63378889.17815389 0 0 58761299.22631056 0 0 26028078.12413558 0 0 28771559.25766698 0 0 44145557.15616529 0 0 41107586.89739531 0 0 91781291.72382076 0 0 88791216.09406406 0 0 86753887.3875702 0 0 82980329.18280402 0 0 67774882.81789152 0 0 71416148.84372191 0 0 74619784.17234397 0 0 77076164.67604238 0 0 79646979.6088044 0 0 81808598.55460489 0 0 55826785.2988162 0 0 49325102.9181221 0 0 31368300.01184729 0 0 47379909.67112185 0 0 34639164.05284359 0 0 84365702.62681912 0 0 83786584.81058536 0 0 61791707.28033265 0 0 66649560.98803297 0 0 70460204.84126572 0 0 73811841.95762788 0 0 76311875.44109204 0 0 78836554.27518725 0 0 61225448.04492032 0 0 55185165.36256614 0 0 42360999.05547109 0 0 38048820.17161402 0 0 81093243.94612162 0 0 65273371.57779565 0 0 69289577.61025505 0 0 72399009.20828325 0 0 75423154.56222305 0 0 78078726.78189169 0 0 80594536.95036817 0 0 55696825.77568948 0 0 48117056.8672043 0 0 44434683.44726985 0 0 60886216.74181647 0 0 65576897.81649461 0 0 69322979.66664983 0 0 72315812.2608134 0 0 75104334.15298979 0 0 77673179.89756683 0 0 55472731.2589935 0 0 60923722.05607389 0 0 49841396.58963133 0 0 64233905.22384063 0 0 67869611.58309884 0 0 71525544.56569169 0 0 74805919.33492893 0 0 77524299.94263799 0 0 51927217.25338642 0 0 58276334.72355361 0 0 49593776.78248031 0 0 62157481.54248431 0 0 65736755.80540267 0 0 68798083.18342863 0 0 72203909.08855847 0 0 74888252.37213103 0 0 54672891.80780192 0 0 58033864.60501269 0 0 63044711.80931248 0 0 66023713.22897794 0 0 69367768.16370988 0 0 71500838.95760821 0 0 75163481.58752036 0 0 59221872.01081274 0 0 62024145.02640437 0 0 65765340.76262721 0 0 68243268.19339933 0 0 70587182.63014185 0 0 72946459.78300136 0 0 63187887.7313282 0 0 66535750.19435731 0 0 68467776.73481596 0 0 70876447.40796629 0 0 73574336.01318257 0 0 69548478.63891849 0 0 70946967.06266072 0 0 72151614.30697039 0 0 72106198.65614504 0 0 </DataArray>
      </CellData>
      <PointData>
        <DataArray type="Int64" IdType="1" Name="vtkOriginalPointIds" format="ascii" RangeMin="0" RangeMax="498">55 3 484 56 108 439 54 57 309 498 102 53 316 58 94 310 456 397 52 313 59 317 311 312 315 488 91 51 314 60 320 318 449 382 448 450 465 50 486 61 85 321 491 209 187 399 250 272 383 49 184 62 323 322 426 206 167 376 233 234 478 83 48 173 63 96 324 483 251 240 157 166 185 227 337 495 339 47 402 64 330 459 427 438 420 156 150 168 186 228 338 446 46 268 151 255 65 81 271 226 306 265 148 348 149 373 229 230 93 431 45 476 225 236 242 66 340 347 393 203 417 424 140 147 308 395 261 231 327 463 244 44 202 414 243 67 98 341 444 208 201 217 354 139 136 152 400 196 392 294 328 466 245 43 182 409 246 68 355 342 343 475 388 181 353 235 135 416 128 408 262 396 474 104 451 257 247 42 170 377 248 4 86 345 344 404 389 153 141 133 124 326 305 125 263 127 69 291 440 423 41 154 130 303 70 356 367 346 442 183 163 142 134 132 122 121 197 304 126 129 71 89 292 169 40 155 131 433 99 357 366 365 479 165 164 381 407 137 120 380 119 325 219 378 72 109 110 112 39 349 138 114 375 358 359 362 178 177 198 350 411 145 118 405 379 116 336 334 73 79 111 113 38 237 146 115 105 368 360 361 363 437 199 200 413 162 160 117 123 412 418 335 218 74 289 452 207 37 352 161 385 485 384 369 374 364 477 210 204 205 415 398 175 143 144 188 421 429 428 75 288 494 454 2 419 176 332 90 36 468 100 473 471 391 232 239 238 195 193 158 159 394 241 266 307 76 279 286 333 35 371 422 194 174 277 34 370 458 302 301 425 222 221 387 171 172 189 220 430 443 77 278 280 464 33 88 275 445 299 106 282 32 441 432 80 351 273 274 447 179 180 190 401 249 252 78 300 281 284 31 493 254 480 461 283 295 30 29 28 97 293 462 290 331 191 192 213 215 253 0 492 469 285 27 256 260 5 95 287 482 26 472 82 298 216 211 212 214 406 410 6 481 455 489 460 259 390 7 436 25 24 490 23 258 372 223 224 270 470 8 84 92 296 297 9 22 329 267 264 269 453 319 10 21 87 467 11 496 457 276 435 103 20 12 386 101 497 434 19 13 403 14 15 107 18 16 487 17 1 </DataArray>
        <DataArray type="UInt8" Name="vtkGhostType" format="ascii" RangeMin="0" RangeMax="0">0 0 0 0 0 0 0 0 0 0 0 0 0 0 0 0 0 0 0 0 0 0 0 0 0 0 0 0 0 0 0 0 0 0 0 0 0 0 0 0 0 0 0 0 0 0 0 0 0 0 0 0 0 0 0 0 0 0 0 0 0 0 0 0 0 0 0 0 0 0 0 0 0 0 0 0 0 0 0 0 0 0 0 0 0 0 0 0 0 0 0 0 0 0 0 0 0 0 0 0 0 0 0 0 0 0 0 0 0 0 0 0 0 0 0 0 0 0 0 0 0 0 0 0 0 0 0 0 0 0 0 0 0 0 0 0 0 0 0 0 0 0 0 0 0 0 0 0 0 0 0 0 0 0 0 0 0 0 0 0 0 0 0 0 0 0 0 0 0 0 0 0 0 0 0 0 0 0 0 0 0 0 0 0 0 0 0 0 0 0 0 0 0 0 0 0 0 0 0 0 0 0 0 0 0 0 0 0 0 0 0 0 0 0 0 0 0 0 0 0 0 0 0 0 0 0 0 0 0 0 0 0 0 0 0 0 0 0 0 0 0 0 0 0 0 0 0 0 0 0 0 0 0 0 0 0 0 0 0 0 0 0 0 0 0 0 0 0 0 0 0 0 0 0 0 0 0 0 0 0 0 0 0 0 0 0 0 0 0 0 0 0 0 0 0 0 0 0 0 0 0 0 0 0 0 0 0 0 0 0 0 0 0 0 0 0 0 0 0 0 0 0 0 0 0 0 0 0 0 0 0 0 0 0 0 0 0 0 0 0 0 0 0 0 0 0 0 0 0 0 0 0 0 0 0 0 0 0 0 0 0 0 0 0 0 0 0 0 0 0 0 0 0 0 0 0 0 0 0 0 0 0 0 0 0 0 0 0 0 0 0 0 0 0 0 0 0 0 0 0 0 0 0 0 0 0 0 0 0 0 0 0 0 0 0 0 0 0 0 0 0 0 0 0 0 0 0 0 0 0 0 0 0 0 0 0 0 0 0 0 0 0 0 0 0 0 0 0 0 0 0 0 0 0 0 0 0 0 0 0 0 0 0 0 0 0 0 0 0 0 0 0 0 0 0 0 0 0 0 0 0 0 0 0 0 0 0 0 0 0 0 0 0 0 0 0 0 0 0 </DataArray>
      </PointData>
    </Piece>
  </UnstructuredGrid>
</VTKFile>
