<?xml version="1.0"?>
<VTKFile type="UnstructuredGrid" version="2.2">
  <UnstructuredGrid>
    <Piece NumberOfPoints="146" NumberOfCells="250">
      <Points>
        <DataArray type="Float64" NumberOfComponents="3" format="ascii">0.100000000000416 1 0 0 1 0 0.07242270094929616 0.928716154658712 0 0 0.9042857142860055 0 0.1504496488130419 0.920529655141374 0 0.08949214017363677 0.8499193320733647 0 0.2000000000008322 1 0 0 0.8085714285720079 0 0.2499721953898767 0.9185928771667898 0 0.1985034546005834 0.8442209309135895 0 0.07981914983849675 0.7551853746224031 0 0.3000000000012483 1 0 0.1647172437482728 0.7772037251075434 0 0 0.7128571428580415 0 0.3498228780407905 0.9196059642995653 0 0.2982782210013577 0.8494663949300396 0 0.2569918718770643 0.7888812511183694 0 0.07928054190150095 0.663993488086444 0 0.157601868184365 0.6958879033296577 0 0.4000000000016644 1 0 0.2419461962806136 0.7223495853150373 0 0 0.6171428571437529 0 0.451877599516642 0.9201756489681183 0 0.397494231230507 0.8548415168052996 0 0.3344732598930554 0.7636851316684045 0 0.07947867006930205 0.5692879274260041 0 0.1512795608421136 0.6093594627621804 0 0.2341354436611464 0.6391200623658055 0 0.5000000000020587 1 0 0.3187788313469121 0.6664952827700941 0 0 0.5214285714291634 0 0.5501260307163514 0.9157080124063742 0 0.4982783550828394 0.8283290709972287 0 0.427001818256679 0.7748455101960311 0 0.4034544632129947 0.697636532593755 0 0.07539619259043903 0.4768398233241385 0 0.1430235002238065 0.5157881957001368 0 0.2175071670863925 0.5477913784148304 0 0.3009805024402901 0.5741244053762112 0 0.6000000000013869 1 0 0.3874961043643115 0.6045058592691969 0 0 0.4257142857145926 0 0.6547996067038542 0.9007657124885793 0 0.5904037090422967 0.842914300177944 0 0.4913158036475567 0.7286208350277663 0 0.4745187976455839 0.6356120107071151 0 0.08017840601838515 0.3963300372633093 0 0.1336105785134736 0.43617026892093 0 0.2005261161267241 0.4579553458730797 0 0.2845914509771853 0.4848763822095442 0 0.3706525466147029 0.5134749220451614 0 0.7000000000006934 1 0 0.5766230053158802 0.7565871942768905 0 0.457563969842983 0.5427700263048025 0 0 0.33 0 0.7543567317362886 0.9205245603071641 0 0.6561937266592248 0.7952487040793255 0 0.5631276294683242 0.6660590631089183 0 0.5449520634070169 0.5736116873632142 0 0.0854102851163888 0.3187555226130791 0 0.164059367054696 0.3719448044930115 0 0.2643248175621772 0.3987638366763466 0 0.3539299266278166 0.4249789750790706 0 0.4393289521948477 0.4527926136921333 0 0.7999999999999998 1 0 0.7337357534352471 0.8320636705894818 0 0.6531478674828468 0.7030485185081188 0 0.5264916765091933 0.482014321178542 0 0.8469936203143578 0.9266230858757655 0 0.811207768045256 0.8636996853036776 0 0.7394722959120849 0.7432808756035072 0 0.6374023866986612 0.6062433926805766 0 0.6148622751821854 0.5113105423847633 0 0.1650000004351555 0.2857883829976276 0 0.2462583129076185 0.3160366088497618 0 0.336583731679023 0.3367909035536117 0 0.4214663514767306 0.3644860394694711 0 0.5075735779823183 0.3921138039661037 0 0.8999999999995836 1 0 0.8192566252405329 0.7890860953933757 0 0.7391175425474387 0.634750871670913 0 0.5953929619133023 0.4201954587110724 0 0.9267949192429046 0.9267949192429458 0 0.9016961094998541 0.8502010143526014 0 0.828865114724697 0.6986797578076659 0 0.7022966507725719 0.5383879928347231 0 0.6812846140412887 0.446044915447124 0 0.2333452383548381 0.2333452372282832 0 0.3251853837121149 0.2418990257178654 0 0.4070425547712776 0.2792204871089636 0 0.4889892423138356 0.3038076761249734 0 0.5758076665880538 0.3296092558990192 0 1 1 0 0.9105973158607925 0.7479451577263729 0 0.8337113423553407 0.5996960087499142 0 0.7760953731115514 0.549932349965911 0 0.6649137529579177 0.3577436959955137 0 1 0.8999999999997368 0 1 0.7999999999994734 0 0.913766045699672 0.649704078805911 0 0.764090628624565 0.4727193297685513 0 0.7509658874862277 0.3837908846492589 0 0.2857883835161864 0.1649999995369853 0 0.4035780771799724 0.2107049125048627 0 0.4711446761746212 0.2206591250436211 0 0.5533431996313982 0.2396037875354144 0 0.643608435054521 0.26423538634157 0 1 0.69999999999921 0 0.9143104164693288 0.5502457745856388 0 0.8396680954007476 0.5041237028824692 0 0.7333924435874725 0.2993780894363454 0 0.3648957752606031 0.1555527535858053 0 1 0.5999999999989468 0 0.8342331509350035 0.4140361328318218 0 0.8263642251709324 0.3235072125777742 0 0.3187555227431477 0.08541028463096596 0 0.440794928789532 0.1503338094757088 0 0.5280186054028274 0.15706471926695 0 0.6132366197277309 0.170283671093053 0 0.7180649978892394 0.1971965142324811 0 1 0.4999999999986943 0 0.916368709783832 0.4515076337375428 0 0.7983682599267167 0.2535536781211901 0 0.3966376598822499 0.0784190085544865 0 0.9127558318327541 0.3564464450364734 0 0.8955554812928543 0.2551442917568858 0 0.33 0 0 0.4804947788369185 0.07960233789852755 0 0.5713844803892862 0.08071061624839421 0 0.6649999999991137 0.08289100293350836 0 0.8239593393238148 0.1758659824077986 0 1 0.399999999998975 0 0.4257142857140301 0 0 0.7614399244630438 0.1024449365784278 0 1 0.2999999999992664 0 0.9177753013045604 0.1474028499237799 0 0.521428571427989 0 0 0.6171428571420019 0 0 0.7128571428562255 0 0 0.856428571428122 0.08289100293390837 0 1 0.1999999999995579 0 0.808571428570815 0 0 1 0.09999999999981468 0 0.9307084157825724 0.07051582244471391 0 0.9042857142854293 0 0 1 0 0 </DataArray>
      </Points>
      <Cells>
        <DataArray type="Int32" Name="connectivity" format="ascii">0 1 2 1 3 2 4 0 2 3 5 2 6 0 4 5 4 2 3 7 5 6 4 8 9 4 5 7 10 5 11 6 8 8 4 9 9 5 12 7 13 10 5 10 12 14 11 8 8 9 15 9 12 16 10 13 17 10 18 12 19 11 14 14 8 15 15 9 16 12 20 16 13 21 17 10 17 18 18 20 12 19 14 22 14 15 23 24 15 16 20 24 16 21 25 17 18 17 26 18 27 20 28 19 22 22 14 23 15 24 23 29 24 20 21 30 25 17 25 26 27 18 26 27 29 20 31 28 22 32 22 23 24 33 23 34 24 29 25 30 35 26 25 36 37 27 26 27 38 29 39 28 31 31 22 32 33 32 23 34 33 24 40 34 29 30 41 35 25 35 36 37 26 36 37 38 27 38 40 29 39 31 42 31 32 43 33 44 32 34 44 33 45 34 40 35 41 46 36 35 47 48 37 36 49 38 37 38 50 40 51 39 42 42 31 43 32 52 43 32 44 52 45 44 34 53 45 40 41 54 46 35 46 47 48 36 47 49 37 48 49 50 38 50 53 40 55 51 42 56 42 43 52 56 43 44 57 52 45 57 44 58 45 53 54 59 46 46 60 47 60 48 47 49 48 61 62 50 49 50 63 53 64 51 55 55 42 65 42 56 65 66 56 52 57 66 52 58 57 45 67 58 53 59 60 46 48 60 61 62 49 61 62 63 50 63 67 53 64 55 68 55 65 69 56 70 65 66 70 56 57 71 66 58 71 57 67 72 58 59 73 60 60 74 61 75 62 61 62 76 63 63 77 67 78 64 68 68 55 69 65 79 69 70 79 65 66 80 70 66 71 80 58 72 71 67 81 72 60 73 74 74 75 61 75 76 62 63 76 77 67 77 81 78 68 82 83 68 69 79 83 69 70 84 79 80 84 70 71 85 80 71 72 85 72 81 86 73 87 74 74 88 75 75 89 76 77 76 90 81 77 91 92 78 82 68 83 82 83 79 93 79 84 93 94 84 80 80 85 95 85 72 86 81 96 86 87 88 74 75 88 89 76 89 90 91 77 90 81 91 96 97 92 82 83 97 82 98 83 93 84 99 93 94 99 84 94 80 95 85 100 95 85 86 100 96 101 86 87 102 88 89 88 103 90 89 104 105 91 90 96 91 106 98 97 83 107 98 93 99 107 93 108 99 94 109 94 95 100 109 95 86 101 100 96 110 101 88 102 111 88 111 103 104 89 103 105 90 104 106 91 105 96 106 110 112 107 99 112 99 108 108 94 109 113 109 100 101 113 100 101 110 114 102 115 111 111 116 103 116 104 103 105 104 117 106 105 118 110 106 119 120 112 108 121 108 109 121 109 113 101 114 113 114 110 122 111 115 123 111 123 116 117 104 116 118 105 117 119 106 118 110 119 122 121 120 108 124 121 113 114 124 113 125 114 122 115 126 123 123 127 116 127 117 116 128 118 117 129 119 118 119 130 122 131 120 121 131 121 124 114 125 124 130 125 122 126 132 123 132 127 123 127 128 117 128 129 118 119 129 133 119 133 130 134 131 124 125 134 124 125 130 135 132 136 127 127 136 128 137 129 128 129 138 133 133 139 130 140 134 125 140 125 135 130 139 135 136 137 128 137 138 129 138 141 133 141 139 133 142 140 135 135 139 143 141 144 139 142 135 143 139 144 143 145 142 143 144 145 143 </DataArray>
        <DataArray type="Int32" Name="offsets" format="ascii">3 6 9 12 15 18 21 24 27 30 33 36 39 42 45 48 51 54 57 60 63 66 69 72 75 78 81 84 87 90 93 96 99 102 105 108 111 114 117 120 123 126 129 132 135 138 141 144 147 150 153 156 159 162 165 168 171 174 177 180 183 186 189 192 195 198 201 204 207 210 213 216 219 222 225 228 231 234 237 240 243 246 249 252 255 258 261 264 267 270 273 276 279 282 285 288 291 294 297 300 303 306 309 312 315 318 321 324 327 330 333 336 339 342 345 348 351 354 357 360 363 366 369 372 375 378 381 384 387 390 393 396 399 402 405 408 411 414 417 420 423 426 429 432 435 438 441 444 447 450 453 456 459 462 465 468 471 474 477 480 483 486 489 492 495 498 501 504 507 510 513 516 519 522 525 528 531 534 537 540 543 546 549 552 555 558 561 564 567 570 573 576 579 582 585 588 591 594 597 600 603 606 609 612 615 618 621 624 627 630 633 636 639 642 645 648 651 654 657 660 663 666 669 672 675 678 681 684 687 690 693 696 699 702 705 708 711 714 717 720 723 726 729 732 735 738 741 744 747 750 </DataArray>
        <DataArray type="Int8" Name="types" format="ascii">69 69 69 69 69 69 69 69 69 69 69 69 69 69 69 69 69 69 69 69 69 69 69 69 69 69 69 69 69 69 69 69 69 69 69 69 69 69 69 69 69 69 69 69 69 69 69 69 69 69 69 69 69 69 69 69 69 69 69 69 69 69 69 69 69 69 69 69 69 69 69 69 69 69 69 69 69 69 69 69 69 69 69 69 69 69 69 69 69 69 69 69 69 69 69 69 69 69 69 69 69 69 69 69 69 69 69 69 69 69 69 69 69 69 69 69 69 69 69 69 69 69 69 69 69 69 69 69 69 69 69 69 69 69 69 69 69 69 69 69 69 69 69 69 69 69 69 69 69 69 69 69 69 69 69 69 69 69 69 69 69 69 69 69 69 69 69 69 69 69 69 69 69 69 69 69 69 69 69 69 69 69 69 69 69 69 69 69 69 69 69 69 69 69 69 69 69 69 69 69 69 69 69 69 69 69 69 69 69 69 69 69 69 69 69 69 69 69 69 69 69 69 69 69 69 69 69 69 69 69 69 69 69 69 69 69 69 69 69 69 69 69 69 69 69 69 69 69 69 69 </DataArray>
      </Cells>
      <CellData Tensors="stress" Vectors="von_mises_stress">
        <DataArray type="UInt8" Name="vtkGhostType" format="ascii" RangeMin="0" RangeMax="1">0 0 0 0 0 0 0 0 0 0 0 0 0 0 0 0 0 0 0 0 0 0 0 0 0 0 0 0 0 0 0 0 0 0 0 0 0 0 0 0 0 0 0 0 0 0 0 0 0 0 0 0 0 0 0 0 0 0 0 0 0 0 0 0 0 0 0 0 0 0 0 0 0 0 0 0 0 0 0 0 0 0 0 0 0 0 0 0 0 0 0 0 0 0 0 0 0 0 0 0 0 0 0 0 0 0 0 0 0 0 0 0 0 0 0 0 0 0 0 0 0 0 0 0 0 0 0 0 0 0 0 0 0 0 0 0 0 0 0 0 0 0 0 0 0 0 0 0 0 0 0 0 0 0 0 0 0 0 0 0 0 0 0 0 0 0 0 0 0 0 0 0 0 0 0 0 0 0 0 0 0 0 0 0 0 0 0 0 0 0 0 0 0 0 0 0 0 0 0 0 0 0 0 0 0 0 0 0 0 0 0 0 0 0 0 0 0 0 0 0 0 0 0 0 0 0 0 0 0 0 0 0 0 0 0 0 0 0 0 0 0 0 0 0 0 0 0 0 0 0 </DataArray>
        <DataArray type="Int64" IdType="1" Name="vtkOriginalCellIds" format="ascii" RangeMin="0" RangeMax="249">0 1 2 3 4 5 6 7 8 9 10 11 12 13 14 15 16 17 18 19 20 21 22 23 24 25 26 27 28 29 30 31 32 33 34 35 36 37 38 39 40 41 42 43 44 45 46 47 48 49 50 51 52 53 54 55 56 57 58 59 60 61 62 63 64 65 66 67 68 69 70 71 72 73 74 75 76 77 78 79 80 81 82 83 84 85 86 87 88 89 90 91 92 93 94 95 96 97 98 99 100 101 102 103 104 105 106 107 108 109 110 111 112 113 114 115 116 117 118 119 120 121 122 123 124 125 126 127 128 129 130 131 132 133 134 135 136 137 138 139 140 141 142 143 144 145 146 147 148 149 150 151 152 153 154 155 156 157 158 159 160 161 162 163 164 165 166 167 168 169 170 171 172 173 174 175 176 177 178 179 180 181 182 183 184 185 186 187 188 189 190 191 192 193 194 195 196 197 198 199 200 201 202 203 204 205 206 207 208 209 210 211 212 213 214 215 216 217 218 219 220 221 222 223 224 225 226 227 228 229 230 231 232 233 234 235 236 237 238 239 240 241 242 243 244 245 246 247 248 249 </DataArray>
        <DataArray type="Float64" Name="stress" format="ascii" NumberOfComponents="9">107371412.2769888 989094.1321057873 989094.1321057873 14392299.36005627 0 0 0 0 0 108687903.7428026 1464726.996599448 1464726.996599448 14815942.82490018 0 0 0 0 0 108472865.7419257 3080897.530056961 3080897.530056961 12362714.42806986 0 0 0 0 0 109278675.7164801 862355.6104530453 862355.6104530453 15043042.90221622 0 0 0 0 0 107956760.7907763 3232362.713434957 3232362.713434957 12707565.93233936 0 0 0 0 0 109778241.4734242 3362135.156733164 3362135.156733164 16599323.72002409 0 0 0 0 0 111013511.6475466 1954751.948289357 1954751.948289357 17688414.30670949 0 0 0 0 0 109641465.4940369 4749432.250880717 4749432.250880717 9754235.872090915 0 0 0 0 0 111327296.5402461 4448994.971639142 4448994.971639142 12568900.77665853 0 0 0 0 0 112428881.8567595 901177.0197262026 901177.0197262026 18371376.73716754 0 0 0 0 0 108691278.5559218 4395684.079924432 4395684.079924432 9199981.151763858 0 0 0 0 0 110551546.6392201 4541802.292110392 4541802.292110392 12826392.03714065 0 0 0 0 0 112229199.026134 4261271.310798195 4261271.310798195 15686217.40638215 0 0 0 0 0 115063456.5076183 2462052.82822143 2462052.82822143 21312267.87320191 0 0 0 0 0 114505964.5180798 5438317.582392716 5438317.582392716 17766443.4900007 0 0 0 0 0 110959651.2855828 5637782.614675284 5637782.614675284 6763109.306877083 0 0 0 0 0 112538838.434525 6218106.815200268 6218106.815200268 8888875.127398303 0 0 0 0 0 115348597.6145405 6852661.391421867 6852661.391421867 12163928.68253044 0 0 0 0 0 117496526.5558286 852182.7828981651 852182.7828981651 21745596.09955384 0 0 0 0 0 115287295.334707 3881753.776084892 3881753.776084892 16545997.37717221 0 0 0 0 0 109281220.3465738 4501850.705226393 4501850.705226393 4853898.181973232 0 0 0 0 0 111061862.6709334 5208788.480327143 5208788.480327143 7066185.009371622 0 0 0 0 0 112856152.2050804 5497013.65023787 5497013.65023787 9623928.84863691 0 0 0 0 0 115213431.8842435 5715667.891928525 5715667.891928525 10372892.33695287 0 0 0 0 0 121404182.5391553 3217303.918677228 3217303.918677228 25848699.59543845 0 0 0 0 0 119203735.1207831 6311500.544112335 6311500.544112335 22173868.03581496 0 0 0 0 0 118696376.6989815 8006276.021297442 8006276.021297442 16604392.7596752 0 0 0 0 0 111622173.9911669 5198393.175611145 5198393.175611145 3336624.203238421 0 0 0 0 0 113576764.4463412 5923071.184104506 5923071.184104506 4717079.52179309 0 0 0 0 0 115656067.29998 6880272.087495005 6880272.087495005 6241590.957454163 0 0 0 0 0 116958086.9629834 7576140.990345966 7576140.990345966 9702880.44568803 0 0 0 0 0 126558982.5903017 198087.5257470435 198087.5257470435 26339589.33065372 0 0 0 0 0 121400163.1480933 3919644.139792305 3919644.139792305 18854839.22555215 0 0 0 0 0 119411684.3883538 5638806.670190464 5638806.670190464 10467701.3508627 0 0 0 0 0 109538161.1389611 3730867.522445798 3730867.522445798 789117.4176332749 0 0 0 0 0 111187537.1321523 4365447.031759854 4365447.031759854 1847396.744259206 0 0 0 0 0 113457626.6651789 5145329.810934409 5145329.810934409 3947606.198648448 0 0 0 0 0 118600551.3880889 5714502.637118326 5714502.637118326 3546812.053881915 0 0 0 0 0 132895587.0832016 3969925.927368683 3969925.927368683 30454521.1971126 0 0 0 0 0 126469361.5390655 7092997.800709156 7092997.800709156 26350207.000124 0 0 0 0 0 124363774.5382584 8862278.275253762 8862278.275253762 18789032.35882054 0 0 0 0 0 122273576.510521 8211223.285440815 8211223.285440815 10673940.83291145 0 0 0 0 0 112043494.6921968 3920463.701308405 3920463.701308405 277207.6908885453 0 0 0 0 0 113775765.0326416 4440723.88552292 4440723.88552292 358071.1004652904 0 0 0 0 0 116437628.7876646 5821892.041061265 5821892.041061265 1908799.59460295 0 0 0 0 0 119177822.598944 6053850.022913577 6053850.022913577 3562587.373872655 0 0 0 0 0 144520635.8301282 -2717319.73041398 -2717319.73041398 32200443.33331488 0 0 0 0 0 133335918.9911011 2833568.64291708 2833568.64291708 22483387.36467526 0 0 0 0 0 127035046.7430304 4813640.110686853 4813640.110686853 11694508.4838633 0 0 0 0 0 123771944.6804347 4540019.939780844 4540019.939780844 2302832.476090838 0 0 0 0 0 109336981.2418273 2261405.807947465 2261405.807947465 -2429982.406864452 0 0 0 0 0 111124543.1201603 2659073.150555497 2659073.150555497 -2304748.844875331 0 0 0 0 0 112900910.7492322 3613855.327429212 3613855.327429212 -903403.5649591484 0 0 0 0 0 116025604.8791808 3827147.755958424 3827147.755958424 -1719755.948174408 0 0 0 0 0 121031203.371833 2935100.773056332 2935100.773056332 -3745620.006204048 0 0 0 0 0 155356438.7165087 3583185.002366414 3583185.002366414 31977595.99337862 0 0 0 0 0 139362369.670285 6334495.36257227 6334495.36257227 29622228.82157469 0 0 0 0 0 132537325.8592156 8651494.52311302 8651494.52311302 20911691.9491573 0 0 0 0 0 128473387.1960538 7982194.112185255 7982194.112185255 10567176.66591926 0 0 0 0 0 123513337.5719045 4994453.088266901 4994453.088266901 2003861.247584068 0 0 0 0 0 111078336.7575127 2097034.171845616 2097034.171845616 -2244897.470264473 0 0 0 0 0 112852573.0320947 2506502.220124414 2506502.220124414 -2142201.800745448 0 0 0 0 0 115690507.4378351 2835061.390623771 2835061.390623771 -3940842.214753526 0 0 0 0 0 116590002.8001583 3540278.598596 3540278.598596 -1365576.539969337 0 0 0 0 0 118978375.8977159 1792786.623303636 1792786.623303636 -3792681.230117219 0 0 0 0 0 182331341.3085138 -9859727.198707502 -9859727.198707502 34771296.43197597 0 0 0 0 0 154647297.6795638 -2810974.412637348 -2810974.412637348 27430768.84280749 0 0 0 0 0 140226500.8473602 1319817.412001204 1319817.412001204 12876473.94352456 0 0 0 0 0 132005587.3728295 1481739.635772865 1481739.635772865 1064979.49701693 0 0 0 0 0 126521603.1841947 164374.5684628663 164374.5684628663 -6559898.985360206 0 0 0 0 0 108745089.8404216 704703.1396667422 704703.1396667422 -4432570.18791888 0 0 0 0 0 109795287.7314723 711045.1068165185 711045.1068165185 -4965678.553488636 0 0 0 0 0 112646558.5079117 611974.1190697087 611974.1190697087 -5722360.180259361 0 0 0 0 0 113757183.7435456 1298039.870874966 1298039.870874966 -4232783.699449664 0 0 0 0 0 118121721.2474331 914115.8206021582 914115.8206021582 -6679520.182796725 0 0 0 0 0 121614598.0177739 -2031153.277586215 -2031153.277586215 -9707252.627351411 0 0 0 0 0 194134452.1506781 3374567.093101115 3374567.093101115 27028139.13902888 0 0 0 0 0 159538178.2398819 -299965.2800501943 -299965.2800501943 29484560.49967013 0 0 0 0 0 144430870.6589779 4949658.660738008 4949658.660738008 22100764.56354081 0 0 0 0 0 135369993.412022 4608156.690904684 4608156.690904684 9945542.281558242 0 0 0 0 0 127263439.0778784 1682252.241882657 1682252.241882657 -307369.6381040178 0 0 0 0 0 120617613.7206971 -1837870.516078377 -1837870.516078377 -7172008.739503882 0 0 0 0 0 109319729.2708295 228583.7894305768 228583.7894305768 -3774588.515859863 0 0 0 0 0 112002073.3535706 53136.96385864969 53136.96385864969 -5233407.325362158 0 0 0 0 0 110816809.6470126 -538360.6370592113 -538360.6370592113 -5747405.745536587 0 0 0 0 0 115200249.8733996 -1162255.310259066 -1162255.310259066 -7871348.164101886 0 0 0 0 0 115109277.7542782 -938586.1130369995 -938586.1130369995 -6614431.323319812 0 0 0 0 0 115180302.3533525 -4613354.441202097 -4613354.441202097 -10201843.05143909 0 0 0 0 0 284233374.8897173 -31717249.66972562 -31717249.66972562 37122038.52515816 0 0 0 0 0 185727720.5142803 -10726785.90794997 -10726785.90794997 23202671.61871301 0 0 0 0 0 158426414.0698548 -11565084.59617564 -11565084.59617564 19892061.96312449 0 0 0 0 0 143536939.6816592 -6932567.823315129 -6932567.823315129 1369123.600151263 0 0 0 0 0 132008829.3513652 -5653973.040005643 -5653973.040005643 -9540018.382940169 0 0 0 0 0 124293675.8096364 -7148077.212073731 -7148077.212073731 -13089786.34718578 0 0 0 0 0 107888295.5919717 -611308.9741053639 -611308.9741053639 -5232570.418418177 0 0 0 0 0 109547674.0499214 -1298061.283983772 -1298061.283983772 -5933061.434250975 0 0 0 0 0 109193036.3147124 -1458496.176103876 -1458496.176103876 -6127602.40932666 0 0 0 0 0 112877887.8413773 -2133506.494731283 -2133506.494731283 -7311834.110038476 0 0 0 0 0 111511863.8471907 -2870486.275787542 -2870486.275787542 -8236232.973676871 0 0 0 0 0 117207241.0600531 -3969351.295134712 -3969351.295134712 -10374137.9921888 0 0 0 0 0 118300842.954132 -8425049.977258381 -8425049.977258381 -13015997.15658701 0 0 0 0 0 169948994.7464327 -25702903.89796693 -25702903.89796693 4366490.932414261 0 0 0 0 0 141724069.466309 -5358590.300123601 -5358590.300123601 10537573.28708527 0 0 0 0 0 127421510.9092786 -5985329.076876126 -5985329.076876126 -3228904.915401105 0 0 0 0 0 119040611.326911 -8577421.68071196 -8577421.68071196 -11552663.42698006 0 0 0 0 0 112783841.7981059 -10538197.767546 -10538197.767546 -14298571.43106907 0 0 0 0 0 108046794.5283027 -1158021.344230822 -1158021.344230822 -4331821.077431603 0 0 0 0 0 107843612.3665292 -2249103.760581987 -2249103.760581987 -5772657.510474186 0 0 0 0 0 110840406.1084323 -2737447.553728533 -2737447.553728533 -6701214.037425525 0 0 0 0 0 108683355.8875873 -4005522.977629828 -4005522.977629828 -8405183.296774706 0 0 0 0 0 113679791.7055583 -4951037.459275414 -4951037.459275414 -9491391.744763857 0 0 0 0 0 110818911.2609923 -6280668.167167473 -6280668.167167473 -10867953.59449915 0 0 0 0 0 108207114.8288769 -11315900.3889627 -11315900.3889627 -14132936.37633567 0 0 0 0 0 225880129.3166956 -56383577.04764946 -56383577.04764946 40526776.10638571 0 0 0 0 0 154716422.6570034 -24370899.62453701 -24370899.62453701 8311316.274846923 0 0 0 0 0 133186812.4307467 -15587680.63134535 -15587680.63134535 -11096657.36798952 0 0 0 0 0 123605899.3021747 -14788351.02189057 -14788351.02189057 -15880984.88557755 0 0 0 0 0 116387483.2176226 -14719823.70054401 -14719823.70054401 -15166532.99849193 0 0 0 0 0 106793888.3067631 -1813017.334949389 -1813017.334949389 -5418129.242116201 0 0 0 0 0 107695168.8824638 -2417086.359060897 -2417086.359060897 -6248429.127303422 0 0 0 0 0 108830903.4550738 -3184073.415450367 -3184073.415450367 -6183741.306692453 0 0 0 0 0 107240369.9249698 -4242435.912181687 -4242435.912181687 -8020677.37405275 0 0 0 0 0 110601883.6469062 -5464341.378098205 -5464341.378098205 -8093810.441651756 0 0 0 0 0 107553785.0862293 -7014457.054743987 -7014457.054743987 -10300946.05397909 0 0 0 0 0 113358273.8877834 -9102170.362479115 -9102170.362479115 -11693778.33082596 0 0 0 0 0 110983193.6453199 -14154207.96135765 -14154207.96135765 -12880432.22896538 0 0 0 0 0 124943014.0878134 -38645386.43876882 -38645386.43876882 10760126.97685446 0 0 0 0 0 114891945.1501909 -20605484.13654742 -20605484.13654742 -4051599.422588472 0 0 0 0 0 110039175.2292427 -19107022.37336686 -19107022.37336686 -15395461.70798974 0 0 0 0 0 105085757.8579683 -19139939.2151721 -19139939.2151721 -18421813.14033366 0 0 0 0 0 101567232.9929436 -18132549.50751574 -18132549.50751574 -17115021.20382373 0 0 0 0 0 106775647.2162226 -2118011.288308092 -2118011.288308092 -4734167.060021258 0 0 0 0 0 107180486.6063375 -2885562.447766077 -2885562.447766077 -5467902.805004069 0 0 0 0 0 106132637.2134924 -4277106.288328886 -4277106.288328886 -7272187.068286246 0 0 0 0 0 108623877.9956457 -5102325.094507235 -5102325.094507235 -6776093.400709676 0 0 0 0 0 105492146.1028329 -7224581.600510227 -7224581.600510227 -9611722.306113591 0 0 0 0 0 109322734.490079 -9381636.768033326 -9381636.768033326 -10290518.00849667 0 0 0 0 0 104854821.3418447 -11137498.95893686 -11137498.95893686 -12523007.9136837 0 0 0 0 0 99358110.39514145 -16513528.2952611 -16513528.2952611 -14549281.31719402 0 0 0 0 0 144449555.1906358 -53856898.31899808 -53856898.31899808 35372844.90677812 0 0 0 0 0 118025308.5213022 -27852084.838776 -27852084.838776 -9089713.721161431 0 0 0 0 0 113331497.9891198 -23313737.97758269 -23313737.97758269 -17366334.27399706 0 0 0 0 0 108061285.4488304 -22020967.05986355 -22020967.05986355 -15984775.12466943 0 0 0 0 0 103916726.2237411 -19865008.02168551 -19865008.02168551 -12882039.8217324 0 0 0 0 0 105466805.6571867 -2808671.61364752 -2808671.61364752 -5645369.380849927 0 0 0 0 0 106374203.2240779 -3262130.045828994 -3262130.045828994 -6093683.97457209 0 0 0 0 0 106689536.410982 -4679360.615215142 -4679360.615215142 -6029068.525110085 0 0 0 0 0 104300964.6290325 -6399223.872380684 -6399223.872380684 -8387972.657436969 0 0 0 0 0 106229106.5527624 -7794603.886973455 -7794603.886973455 -7533993.555606657 0 0 0 0 0 103039550.7495864 -10697377.93855576 -10697377.93855576 -9935379.612611294 0 0 0 0 0 107081660.2279261 -13296340.40035355 -13296340.40035355 -10443129.44674962 0 0 0 0 0 101136927.572025 -17433889.60933597 -17433889.60933597 -9725070.394100368 0 0 0 0 0 71660262.40042822 -37613004.25607045 -37613004.25607045 8519360.300734198 0 0 0 0 0 86730090.29532827 -33160485.34255077 -33160485.34255077 -16400509.05958165 0 0 0 0 0 88618822.39859685 -29499827.93595696 -29499827.93595696 -21386674.76042569 0 0 0 0 0 88968618.38915163 -25897111.92170556 -25897111.92170556 -18783185.30379502 0 0 0 0 0 89793764.65124184 -22287592.50424846 -22287592.50424846 -15128429.27864804 0 0 0 0 0 105777514.4529731 -3056362.14149747 -3056362.14149747 -5036084.787479175 0 0 0 0 0 104820501.1680945 -3877639.239979205 -3877639.239979205 -5861061.622926419 0 0 0 0 0 103520616.3285856 -5678661.464221342 -5678661.464221342 -7184526.473006536 0 0 0 0 0 105111221.1348238 -6937543.445344027 -6937543.445344027 -6466043.363309994 0 0 0 0 0 101993502.2666155 -8862602.365763774 -8862602.365763774 -8931478.246157421 0 0 0 0 0 103063194.93761 -10566604.92530866 -10566604.92530866 -9775427.844519405 0 0 0 0 0 104127008.9908075 -12489478.95937509 -12489478.95937509 -8662943.093962178 0 0 0 0 0 98109214.4261076 -14860746.12065823 -14860746.12065823 -11765322.5103931 0 0 0 0 0 90773341.63212349 -18889495.79389081 -18889495.79389081 -11797644.34532866 0 0 0 0 0 67992184.13304518 -29776284.42831706 -29776284.42831706 2475238.116697221 0 0 0 0 0 76166560.61576204 -24868071.67118671 -24868071.67118671 -17211350.01219965 0 0 0 0 0 87789391.6944076 -26851600.54010104 -26851600.54010104 -15391464.11551121 0 0 0 0 0 89390101.99869435 -24401476.91914932 -24401476.91914932 -11385230.27807816 0 0 0 0 0 90059500.59356461 -20927295.64084225 -20927295.64084225 -8266524.342707644 0 0 0 0 0 105511957.4233602 -4348017.066236282 -4348017.066236282 -5430353.785817597 0 0 0 0 0 104157064.9935256 -6095564.49059695 -6095564.49059695 -5661806.607225779 0 0 0 0 0 101615064.7388623 -7744305.662789568 -7744305.662789568 -7579257.187464117 0 0 0 0 0 102479100.3023511 -9274773.487059433 -9274773.487059433 -6263729.403719552 0 0 0 0 0 102250819.0432933 -10811504.96101166 -10811504.96101166 -7128507.086485407 0 0 0 0 0 97450555.93566716 -13331117.06281905 -13331117.06281905 -10175237.12096244 0 0 0 0 0 99255338.55994409 -15227403.46724115 -15227403.46724115 -7671411.338767929 0 0 0 0 0 91055967.24059816 -17612917.029874 -17612917.029874 -5657274.836965987 0 0 0 0 0 27986432.42736504 -22882477.26249813 -22882477.26249813 -9122042.776310999 0 0 0 0 0 66137173.2284695 -33795111.27960407 -33795111.27960407 -19449803.09753129 0 0 0 0 0 66144788.58506327 -34478942.28867803 -34478942.28867803 -18930049.24475616 0 0 0 0 0 70274971.58609805 -31194393.16485738 -31194393.16485738 -17444254.58844108 0 0 0 0 0 75412104.19228537 -26436300.37708299 -26436300.37708299 -13425531.7682465 0 0 0 0 0 81107070.28097327 -21942710.33183617 -21942710.33183617 -9911600.403528715 0 0 0 0 0 101835694.9292348 -7930780.406914704 -7930780.406914704 -5472109.3860379 0 0 0 0 0 98822892.80797772 -9781572.425112309 -9781572.425112309 -7367704.15991394 0 0 0 0 0 98544172.87308203 -11562876.78822917 -11562876.78822917 -8349284.829697501 0 0 0 0 0 97858049.69932443 -13245060.74187804 -13245060.74187804 -6410792.619459708 0 0 0 0 0 91747627.93186608 -16025935.03894238 -16025935.03894238 -9465495.522086026 0 0 0 0 0 84450653.39800099 -17848399.56820871 -17848399.56820871 -7245781.402637593 0 0 0 0 0 22761566.20330876 -4591319.100378819 -4591319.100378819 -47205564.99431181 0 0 0 0 0 34239628.42661549 -31088649.36008877 -31088649.36008877 -18057851.50708134 0 0 0 0 0 64665287.20496671 -28174496.2226515 -28174496.2226515 -15534342.8639472 0 0 0 0 0 68671167.86146216 -25035901.33534244 -25035901.33534244 -8889019.381525587 0 0 0 0 0 73872509.8666863 -21638018.45389787 -21638018.45389787 -5005048.855598347 0 0 0 0 0 77985776.4391038 -18090294.43840403 -18090294.43840403 -3489889.54563918 0 0 0 0 0 98438160.57036112 -9617992.992715361 -9617992.992715361 -4705174.851565966 0 0 0 0 0 97877776.635754 -11346981.15569479 -11346981.15569479 -5376350.584681255 0 0 0 0 0 93263231.51606326 -13790093.4598281 -13790093.4598281 -7688417.412099948 0 0 0 0 0 91332448.69790228 -14775797.42927289 -14775797.42927289 -4813172.76976389 0 0 0 0 0 83513147.66738155 -14976009.28882104 -14976009.28882104 -2862776.222332438 0 0 0 0 0 11971105.75765132 -15190563.13123258 -15190563.13123258 -24727748.55438362 0 0 0 0 0 33863216.17971794 -19370411.03241896 -19370411.03241896 -26425955.7192825 0 0 0 0 0 45955234.40921997 -31525842.43883532 -31525842.43883532 -13805683.63461603 0 0 0 0 0 56385479.72679199 -26842407.88790207 -26842407.88790207 -10008688.75778917 0 0 0 0 0 67007581.63854828 -22171200.09557803 -22171200.09557803 -5927908.047835342 0 0 0 0 0 78150861.61523809 -17549416.98420569 -17549416.98420569 -3656145.8608206 0 0 0 0 0 95081164.54696402 -11636642.65553171 -11636642.65553171 -6229929.730374991 0 0 0 0 0 92185470.14763193 -12641062.84128637 -12641062.84128637 -3851723.69367812 0 0 0 0 0 87131160.47673915 -15127549.11521896 -15127549.11521896 -5964932.906540226 0 0 0 0 0 79288346.2291923 -14998456.70352041 -14998456.70352041 -3458827.976859008 0 0 0 0 0 381409.8172046052 4846144.548954981 4846144.548954981 -80348934.32534723 0 0 0 0 0 18341432.64992803 -24402352.56886369 -24402352.56886369 -16020176.89012784 0 0 0 0 0 44885960.74352951 -20220899.92374942 -20220899.92374942 -9721835.721251508 0 0 0 0 0 54979756.56629027 -17419386.28774126 -17419386.28774126 -1293606.055129086 0 0 0 0 0 63394985.81341823 -14495104.7346575 -14495104.7346575 833058.5061070246 0 0 0 0 0 70217567.82295263 -14010329.42494727 -14010329.42494727 -2080592.885811367 0 0 0 0 0 93463643.98935351 -10738660.70101433 -10738660.70101433 -3451574.096115423 0 0 0 0 0 90120285.5568556 -12639338.00935688 -12639338.00935688 -4468733.841684153 0 0 0 0 0 85436694.16469914 -12805064.16714875 -12805064.16714875 -1555832.536512668 0 0 0 0 0 80577898.64206029 -12646968.80322694 -12646968.80322694 1177015.74863891 0 0 0 0 0 -462650.0425823573 -11824414.56925543 -11824414.56925543 -32877145.31818178 0 0 0 0 0 15802935.26132263 -3703011.80678877 -3703011.80678877 -21953788.99798378 0 0 0 0 0 33401200.239446 -21210782.9425203 -21210782.9425203 -6952830.46723156 0 0 0 0 0 47635787.71703131 -16966152.9404077 -16966152.9404077 -2524740.353732684 0 0 0 0 0 61234334.31507599 -13622132.56764675 -13622132.56764675 -488627.7260020052 0 0 0 0 0 72443204.41113123 -12096591.17081702 -12096591.17081702 2530661.175141029 0 0 0 0 0 87729629.15291166 -10825018.84163143 -10825018.84163143 -1653140.950223595 0 0 0 0 0 84696882.91716702 -12420943.94816781 -12420943.94816781 -1929251.108199596 0 0 0 0 0 73430393.89043576 -10606743.00724565 -10606743.00724565 -286466.4282988055 0 0 0 0 0 18594347.73750583 -9753770.394573409 -9753770.394573409 -9899307.204725076 0 0 0 0 0 33884938.36678322 -5906444.245709514 -5906444.245709514 -3721502.302592675 0 0 0 0 0 48359711.85807544 -5268299.010119271 -5268299.010119271 2257856.171449877 0 0 0 0 0 57549018.73738647 -4795534.298792033 -4795534.298792033 3425219.480638813 0 0 0 0 0 64457596.27840878 -9845231.799907172 -9845231.799907172 498855.0881677225 0 0 0 0 0 81506763.46349539 -9495528.455293525 -9495528.455293525 259965.0121862824 0 0 0 0 0 81689315.21085685 -9408607.370546583 -9408607.370546583 2518174.516664624 0 0 0 0 0 76315489.17792955 -8235058.48720179 -8235058.48720179 4207768.070195689 0 0 0 0 0 36320550.64477821 -7487049.308806125 -7487049.308806125 -1076260.363899037 0 0 0 0 0 50265495.27899957 -5483894.382574604 -5483894.382574604 2546863.289681363 0 0 0 0 0 60814087.76505613 -4525717.465779816 -4525717.465779816 3331421.531832594 0 0 0 0 0 68848343.16403644 -3874521.193969068 -3874521.193969068 4921038.469240675 0 0 0 0 0 76239063.96141231 -6495573.204479533 -6495573.204479533 1935396.494201809 0 0 0 0 0 70465290.97640754 -6179451.573472782 -6179451.573472782 2084593.776814305 0 0 0 0 0 67765477.36174864 -3038239.954409798 -3038239.954409798 3566310.48026336 0 0 0 0 0 77749862.2705096 -5535697.724391825 -5535697.724391825 4364749.47872699 0 0 0 0 0 72661447.07299164 -2516191.536303692 -2516191.536303692 4255703.231269681 0 0 0 0 0 73903105.85707232 -2379812.701488474 -2379812.701488474 3134040.971322953 0 0 0 0 0 73741746.22592697 -2160525.342719684 -2160525.342719684 4073955.913495123 0 0 0 0 0 </DataArray>
        <DataArray type="Float64" Name="von_mises_stress" format="ascii" NumberOfComponents="3">100962229.9111338 0 0 102120982.6123286 0 0 102988620.9088469 0 0 102598583.1802847 0 0 102350482.5728959 0 0 102657036.4844206 0 0 103366773.901865 0 0 105425797.0207246 0 0 105886085.7077945 0 0 104473556.3389786 0 0 104673024.6473737 0 0 105024126.8646831 0 0 105524756.407454 0 0 106111892.3130657 0 0 107152342.8162051 0 0 108179043.2063832 0 0 108902034.5654358 0 0 110413064.9971195 0 0 108284123.2097869 0 0 108178515.638284 0 0 107220825.9180546 0 0 108079966.1070638 0 0 108782641.056742 0 0 110836103.4844946 0 0 110905562.0706499 0 0 110351747.2259776 0 0 112187146.3658445 0 0 110359736.3854031 0 0 111765065.8674218 0 0 113293512.2994133 0 0 113184377.8837993 0 0 115661385.6430462 0 0 113360552.4291401 0 0 114952797.7564933 0 0 109336869.8041227 0 0 110534361.9762905 0 0 111891705.9905567 0 0 117285904.6143775 0 0 120783791.9147784 0 0 116220784.7793282 0 0 117125236.8151428 0 0 118160450.9470367 0 0 112110982.224764 0 0 113857249.2034069 0 0 115934430.1567624 0 0 117904246.4141347 0 0 131497550.0403554 0 0 123734450.4091403 0 0 121895716.0491883 0 0 122888594.3312532 0 0 110641353.4402726 0 0 112389065.853204 0 0 113527999.728032 0 0 117082771.7987168 0 0 123051872.010276 0 0 142227922.3929993 0 0 127638160.4829848 0 0 124323798.8013788 0 0 124300529.884148 0 0 122828702.3145787 0 0 112276393.7593704 0 0 114021458.1288363 0 0 117812794.3111801 0 0 117438949.4269824 0 0 120959198.355721 0 0 168539332.5688184 0 0 143002951.7720935 0 0 134271657.4365692 0 0 131501379.0497107 0 0 129926126.473267 0 0 111034464.4951583 0 0 112367201.7651389 0 0 115618857.7504775 0 0 115953342.283322 0 0 121609457.9571343 0 0 126796141.8247393 0 0 182224520.6934359 0 0 147031039.2167102 0 0 135019201.9234139 0 0 130924887.8509179 0 0 127450712.9719269 0 0 124399559.2149722 0 0 111255761.525507 0 0 114708386.4827976 0 0 113803236.5011643 0 0 119347766.9685443 0 0 118566107.1761228 0 0 120869682.4546279 0 0 273190934.3893117 0 0 176263900.5464149 0 0 150812626.4742272 0 0 143361045.0257381 0 0 137377625.068999 0 0 131911042.1345756 0 0 110602524.0169407 0 0 112653903.9587126 0 0 112410585.9632612 0 0 116764208.6517103 0 0 115956405.9318153 0 0 122916034.094595 0 0 126163598.0087332 0 0 173613260.2084789 0 0 137074680.4422335 0 0 129481935.8240153 0 0 126095534.3468188 0 0 121944465.9281179 0 0 110294772.7858208 0 0 110911171.4168476 0 0 114436655.1351166 0 0 113332939.2707922 0 0 119019743.3696684 0 0 117139483.8270148 0 0 117566800.8597216 0 0 230320173.3588913 0 0 156531704.5901998 0 0 141664104.8257412 0 0 134720798.0219138 0 0 127244977.138917 0 0 109648414.8943627 0 0 111030377.900365 0 0 112186457.8595849 0 0 111709280.7390333 0 0 115252133.1452309 0 0 113707694.2751669 0 0 120668876.4893408 0 0 120472864.6603139 0 0 137340933.7541256 0 0 122294025.1460008 0 0 123024303.0741639 0 0 120071902.2853066 0 0 115470862.8610079 0 0 109281301.4358408 0 0 110129862.2787327 0 0 110198542.1551437 0 0 112513150.4293786 0 0 111317218.1057134 0 0 115958561.2648833 0 0 113298670.3031819 0 0 111118831.1570044 0 0 160340315.9800702 0 0 131956919.1175315 0 0 129400007.016569 0 0 122942501.8737496 0 0 116134180.9093768 0 0 108508904.1278644 0 0 109693843.7230709 0 0 110126902.3450058 0 0 109301295.2613452 0 0 111013427.5272361 0 0 109922243.0757954 0 0 114996463.2198308 0 0 110537958.9719828 0 0 94029183.66177103 0 0 111858644.0832208 0 0 113210719.5351491 0 0 109322085.4691004 0 0 105548275.6835839 0 0 108512549.015538 0 0 108079402.2161335 0 0 107743322.8663472 0 0 109152282.4599943 0 0 107838006.8301352 0 0 109818155.9887623 0 0 110848943.1247894 0 0 107613440.8140264 0 0 102568682.9291287 0 0 84383934.5146976 0 0 96248469.20959383 0 0 107042548.0282288 0 0 104519074.4656936 0 0 101179954.7061436 0 0 108590722.0540316 0 0 107619399.3677246 0 0 106457296.7990907 0 0 106963385.9241643 0 0 107636458.5771075 0 0 105474569.7468408 0 0 106618585.4497336 0 0 98838085.26995736 0 0 51889968.15560123 0 0 97288766.87012142 0 0 97734314.90837193 0 0 96891891.50743054 0 0 94743400.27355053 0 0 94471927.85567838 0 0 105576515.563344 0 0 104093143.4979475 0 0 104902518.0388484 0 0 103783133.1089038 0 0 100728106.2046292 0 0 93552238.25625567 0 0 62323089.52937857 0 0 70825451.91337363 0 0 88367723.92991504 0 0 85355447.21992722 0 0 85185358.34785636 0 0 85719884.85968979 0 0 102239406.5516513 0 0 102574126.8081477 0 0 100223194.9256792 0 0 97259211.60151294 0 0 88851355.29109226 0 0 41749814.8433585 0 0 62173586.57568406 0 0 76932178.71780688 0 0 77494422.22106296 0 0 79981605.47504604 0 0 85618932.67514132 0 0 100388361.9088372 0 0 96682258.19975929 0 0 93987655.0596706 0 0 85133490.46863002 0 0 80976527.11736491 0 0 51704077.66703155 0 0 61418986.31025002 0 0 63291976.1947968 0 0 67802143.50879893 0 0 75298060.14490336 0 0 97035659.965738 0 0 94992724.02048217 0 0 89031924.1521934 0 0 82940816.97016336 0 0 38540374.36728087 0 0 33463006.58699204 0 0 52401401.22852328 0 0 57090819.03072316 0 0 65852036.69338071 0 0 74229882.52982703 0 0 90530620.49701385 0 0 88337563.28223212 0 0 75833034.65014911 0 0 30219618.16721109 0 0 37320232.50928535 0 0 48143901.95028663 0 0 56528710.52561107 0 0 66435392.24010415 0 0 83022444.84041989 0 0 82093502.47508419 0 0 75657715.31600651 0 0 39084508.78061849 0 0 49953042.71406716 0 0 59735254.53565621 0 0 66862107.16274585 0 0 76125982.62061512 0 0 70266408.20335115 0 0 66263854.90185252 0 0 76267065.61922038 0 0 70764150.56494807 0 0 72504251.13019225 0 0 71888978.56692044 0 0 </DataArray>
      </CellData>
      <PointData>
        <DataArray type="Int64" IdType="1" Name="vtkOriginalPointIds" format="ascii" RangeMin="0" RangeMax="145">28 3 134 29 54 120 27 30 92 93 47 26 142 31 46 126 143 107 108 25 124 32 90 139 84 43 127 86 24 117 33 40 110 83 77 106 132 85 74 23 114 34 102 131 76 75 129 141 89 73 63 22 122 111 4 48 99 70 66 35 51 121 59 60 21 130 71 62 119 144 98 67 65 36 55 56 58 61 20 101 97 64 135 53 96 72 113 37 41 57 112 68 2 109 95 137 69 19 18 45 133 81 38 140 116 80 78 17 94 100 79 82 16 125 88 39 138 123 103 87 15 42 145 128 115 49 0 50 91 44 105 14 5 104 13 118 6 7 8 52 12 9 11 136 10 1 </DataArray>
        <DataArray type="UInt8" Name="vtkGhostType" format="ascii" RangeMin="0" RangeMax="0">0 0 0 0 0 0 0 0 0 0 0 0 0 0 0 0 0 0 0 0 0 0 0 0 0 0 0 0 0 0 0 0 0 0 0 0 0 0 0 0 0 0 0 0 0 0 0 0 0 0 0 0 0 0 0 0 0 0 0 0 0 0 0 0 0 0 0 0 0 0 0 0 0 0 0 0 0 0 0 0 0 0 0 0 0 0 0 0 0 0 0 0 0 0 0 0 0 0 0 0 0 0 0 0 0 0 0 0 0 0 0 0 0 0 0 0 0 0 0 0 0 0 0 0 0 0 0 0 0 0 0 0 0 0 0 0 0 0 0 0 0 0 0 0 0 0 </DataArray>
      </PointData>
    </Piece>
  </UnstructuredGrid>
</VTKFile>
