<?xml version="1.0"?>
<VTKFile type="UnstructuredGrid" version="2.2">
  <UnstructuredGrid>
    <Piece NumberOfPoints="750" NumberOfCells="250">
      <Points>
        <DataArray type="Float64" NumberOfComponents="3" format="ascii">0.100000000000416 1 0 1.446963785689993e-18 1 0 0.07242270094929613 0.9287161546587116 0 1.795146145641597e-18 1 0 -4.226811170560926e-18 0.9042857142860056 0 0.07242270094929615 0.9287161546587116 0 0.1504496488130419 0.9205296551413742 0 0.100000000000416 1 0 0.07242270094929611 0.9287161546587116 0 1.209340022088356e-17 0.9042857142860056 0 0.08949214017363677 0.8499193320733648 0 0.07242270094929615 0.9287161546587116 0 0.2000000000008322 1 0 0.100000000000416 1 0 0.1504496488130418 0.9205296551413735 0 0.08949214017363678 0.8499193320733648 0 0.1504496488130419 0.9205296551413741 0 0.07242270094929612 0.9287161546587116 0 2.218247433362023e-18 0.9042857142860056 0 -5.223036048160645e-18 0.808571428572008 0 0.08949214017363676 0.8499193320733642 0 0.2000000000008322 1 0 0.1504496488130419 0.9205296551413741 0 0.2499721953898766 0.9185928771667894 0 0.1985034546005834 0.8442209309135896 0 0.1504496488130419 0.9205296551413741 0 0.08949214017363671 0.8499193320733642 0 1.140338797767988e-17 0.808571428572008 0 0.07981914983849675 0.7551853746224032 0 0.08949214017363674 0.8499193320733642 0 0.3000000000012483 1 0 0.2000000000008322 1 0 0.2499721953898766 0.9185928771667894 0 0.2499721953898767 0.9185928771667899 0 0.1504496488130419 0.9205296551413741 0 0.1985034546005833 0.8442209309135891 0 0.1985034546005834 0.8442209309135896 0 0.08949214017363677 0.8499193320733648 0 0.1647172437482727 0.777203725107543 0 1.978482399893968e-18 0.808571428572008 0 -4.658490635391212e-18 0.7128571428580416 0 0.07981914983849674 0.7551853746224026 0 0.08949214017363678 0.8499193320733648 0 0.07981914983849676 0.7551853746224032 0 0.1647172437482727 0.777203725107543 0 0.3498228780407905 0.9196059642995655 0 0.3000000000012484 1 0 0.2499721953898766 0.9185928771667894 0 0.2499721953898767 0.9185928771667899 0 0.1985034546005834 0.8442209309135896 0 0.2982782210013575 0.8494663949300392 0 0.1985034546005834 0.8442209309135896 0 0.1647172437482728 0.7772037251075435 0 0.2569918718770642 0.7888812511183689 0 0.07981914983849675 0.7551853746224031 0 -9.829688881092117e-20 0.7128571428580416 0 0.07928054190150093 0.6639934880864435 0 0.07981914983849676 0.7551853746224032 0 0.157601868184365 0.6958879033296578 0 0.1647172437482727 0.777203725107543 0 0.4000000000016645 1 0 0.3000000000012484 1 0 0.3498228780407903 0.9196059642995649 0 0.3498228780407905 0.9196059642995654 0 0.2499721953898767 0.9185928771667899 0 0.2982782210013575 0.8494663949300392 0 0.2982782210013577 0.8494663949300397 0 0.1985034546005834 0.8442209309135896 0 0.2569918718770641 0.7888812511183689 0 0.1647172437482728 0.7772037251075435 0 0.2419461962806136 0.7223495853150375 0 0.2569918718770642 0.7888812511183689 0 1.965131890323951e-18 0.7128571428580415 0 -4.627055822621104e-18 0.6171428571437531 0 0.07928054190150094 0.6639934880864437 0 0.07981914983849676 0.7551853746224032 0 0.07928054190150097 0.6639934880864441 0 0.1576018681843649 0.6958879033296572 0 0.157601868184365 0.6958879033296578 0 0.2419461962806136 0.7223495853150375 0 0.1647172437482727 0.777203725107543 0 0.4000000000016645 1 0 0.3498228780407905 0.9196059642995654 0 0.4518775995166418 0.9201756489681179 0 0.3498228780407905 0.9196059642995654 0 0.2982782210013578 0.8494663949300397 0 0.3974942312305068 0.8548415168052992 0 0.3344732598930554 0.7636851316684046 0 0.2982782210013578 0.8494663949300397 0 0.2569918718770642 0.7888812511183689 0 0.2419461962806136 0.7223495853150375 0 0.3344732598930554 0.7636851316684046 0 0.2569918718770642 0.7888812511183689 0 1.111109193047861e-17 0.6171428571437529 0 0.07947867006930205 0.5692879274260042 0 0.07928054190150094 0.6639934880864437 0 0.157601868184365 0.6958879033296577 0 0.07928054190150097 0.6639934880864441 0 0.1512795608421135 0.6093594627621801 0 0.157601868184365 0.6958879033296577 0 0.2341354436611464 0.6391200623658057 0 0.2419461962806135 0.722349585315037 0 0.5000000000020587 1 0 0.4000000000016645 1 0 0.4518775995166418 0.9201756489681179 0 0.4518775995166421 0.9201756489681184 0 0.3498228780407905 0.9196059642995654 0 0.3974942312305068 0.8548415168052992 0 0.2982782210013577 0.8494663949300397 0 0.3344732598930554 0.7636851316684046 0 0.3974942312305068 0.8548415168052992 0 0.3187788313469121 0.6664952827700941 0 0.3344732598930554 0.7636851316684046 0 0.2419461962806135 0.7223495853150369 0 1.97004290596006e-18 0.6171428571437529 0 -4.638619190762411e-18 0.5214285714291635 0 0.07947867006930204 0.5692879274260038 0 0.07928054190150097 0.663993488086444 0 0.07947867006930207 0.5692879274260042 0 0.1512795608421135 0.6093594627621801 0 0.2341354436611464 0.6391200623658055 0 0.157601868184365 0.6958879033296578 0 0.1512795608421135 0.6093594627621801 0 0.2341354436611464 0.6391200623658055 0 0.3187788313469121 0.6664952827700942 0 0.2419461962806135 0.722349585315037 0 0.5501260307163514 0.9157080124063744 0 0.5000000000020587 1 0 0.4518775995166418 0.9201756489681179 0 0.4982783550828395 0.8283290709972289 0 0.4518775995166421 0.9201756489681184 0 0.3974942312305068 0.8548415168052992 0 0.3344732598930554 0.7636851316684046 0 0.427001818256679 0.7748455101960312 0 0.3974942312305068 0.8548415168052992 0 0.4034544632129948 0.697636532593755 0 0.3344732598930554 0.7636851316684046 0 0.3187788313469119 0.6664952827700936 0 0.07947867006930205 0.5692879274260041 0 1.090876063527262e-19 0.5214285714291635 0 0.075396192590439 0.4768398233241383 0 0.1512795608421136 0.6093594627621804 0 0.07947867006930207 0.5692879274260042 0 0.1430235002238064 0.5157881957001366 0 0.2175071670863925 0.5477913784148304 0 0.2341354436611464 0.6391200623658055 0 0.1512795608421135 0.6093594627621801 0 0.2341354436611464 0.6391200623658055 0 0.3009805024402901 0.5741244053762113 0 0.3187788313469119 0.6664952827700937 0 0.6000000000013869 1 0 0.5000000000020588 1 0 0.550126030716351 0.9157080124063738 0 0.5501260307163514 0.9157080124063743 0 0.4518775995166421 0.9201756489681184 0 0.4982783550828392 0.8283290709972283 0 0.427001818256679 0.7748455101960312 0 0.4982783550828395 0.8283290709972289 0 0.3974942312305068 0.8548415168052992 0 0.4034544632129948 0.6976365325937551 0 0.427001818256679 0.7748455101960312 0 0.3344732598930552 0.763685131668404 0 0.3874961043643115 0.6045058592691969 0 0.4034544632129948 0.6976365325937551 0 0.3187788313469119 0.6664952827700937 0 1.868850274163844e-18 0.5214285714291634 0 -4.400353271581869e-18 0.4257142857145926 0 0.07539619259043902 0.4768398233241383 0 0.07947867006930207 0.5692879274260041 0 0.07539619259043905 0.4768398233241385 0 0.1430235002238065 0.5157881957001366 0 0.2175071670863925 0.5477913784148304 0 0.1512795608421136 0.6093594627621804 0 0.1430235002238064 0.5157881957001366 0 0.2175071670863926 0.5477913784148304 0 0.3009805024402901 0.5741244053762112 0 0.2341354436611463 0.6391200623658052 0 0.3009805024402901 0.5741244053762112 0 0.3874961043643115 0.604505859269197 0 0.3187788313469119 0.6664952827700937 0 0.6000000000013869 1 0 0.5501260307163515 0.9157080124063743 0 0.6547996067038538 0.9007657124885788 0 0.5501260307163514 0.9157080124063743 0 0.4982783550828395 0.8283290709972289 0 0.5904037090422963 0.8429143001779436 0 0.427001818256679 0.7748455101960312 0 0.4913158036475568 0.7286208350277664 0 0.4982783550828392 0.8283290709972283 0 0.4034544632129948 0.6976365325937551 0 0.4913158036475568 0.7286208350277664 0 0.4270018182566788 0.7748455101960307 0 0.474518797645584 0.6356120107071151 0 0.4034544632129948 0.6976365325937551 0 0.3874961043643113 0.6045058592691965 0 0.07539619259043902 0.4768398233241385 0 -4.016476358478511e-19 0.4257142857145926 0 0.08017840601838512 0.3963300372633091 0 0.1430235002238065 0.5157881957001368 0 0.07539619259043905 0.4768398233241385 0 0.1336105785134735 0.4361702689209298 0 0.2005261161267241 0.4579553458730798 0 0.2175071670863925 0.5477913784148304 0 0.1430235002238064 0.5157881957001366 0 0.2845914509771853 0.4848763822095443 0 0.3009805024402902 0.5741244053762112 0 0.2175071670863924 0.5477913784148302 0 0.3009805024402901 0.5741244053762112 0 0.370652546614703 0.5134749220451615 0 0.3874961043643113 0.6045058592691965 0 0.7000000000006934 1 0 0.600000000001387 1 0 0.6547996067038538 0.9007657124885788 0 0.6547996067038542 0.9007657124885794 0 0.5501260307163515 0.9157080124063743 0 0.5904037090422963 0.8429143001779436 0 0.4982783550828395 0.8283290709972289 0 0.5766230053158802 0.7565871942768906 0 0.5904037090422963 0.8429143001779436 0 0.4982783550828395 0.8283290709972289 0 0.4913158036475568 0.7286208350277664 0 0.5766230053158798 0.75658719427689 0 0.474518797645584 0.6356120107071151 0 0.4913158036475568 0.7286208350277664 0 0.4034544632129945 0.6976365325937547 0 0.457563969842983 0.5427700263048025 0 0.474518797645584 0.6356120107071151 0 0.3874961043643113 0.6045058592691965 0 1.987387305927174e-18 0.4257142857145926 0 -4.679457928993095e-18 0.3300000000000001 0 0.08017840601838513 0.3963300372633091 0 0.07539619259043905 0.4768398233241385 0 0.08017840601838516 0.3963300372633093 0 0.1336105785134736 0.4361702689209298 0 0.2005261161267241 0.4579553458730798 0 0.1430235002238065 0.5157881957001368 0 0.1336105785134735 0.4361702689209298 0 0.2845914509771853 0.4848763822095443 0 0.2175071670863925 0.5477913784148304 0 0.200526116126724 0.4579553458730795 0 0.2845914509771853 0.4848763822095443 0 0.370652546614703 0.5134749220451614 0 0.30098050244029 0.5741244053762109 0 0.370652546614703 0.5134749220451614 0 0.457563969842983 0.5427700263048025 0 0.3874961043643113 0.6045058592691965 0 0.7543567317362886 0.9205245603071643 0 0.7000000000006935 1 0 0.6547996067038537 0.9007657124885788 0 0.6561937266592248 0.7952487040793256 0 0.6547996067038543 0.9007657124885794 0 0.5904037090422963 0.8429143001779436 0 0.5766230053158802 0.7565871942768906 0 0.6561937266592249 0.7952487040793256 0 0.5904037090422963 0.8429143001779436 0 0.4913158036475568 0.7286208350277664 0 0.5631276294683242 0.6660590631089184 0 0.5766230053158798 0.7565871942768901 0 0.474518797645584 0.6356120107071151 0 0.5631276294683242 0.6660590631089184 0 0.4913158036475565 0.728620835027766 0 0.5449520634070169 0.5736116873632142 0 0.474518797645584 0.6356120107071153 0 0.4575639698429828 0.5427700263048023 0 1.188053603126822e-17 0.3300000000000001 0 0.0854102851163888 0.3187555226130792 0 0.08017840601838513 0.3963300372633091 0 0.08017840601838518 0.3963300372633093 0 0.164059367054696 0.3719448044930115 0 0.1336105785134736 0.4361702689209298 0 0.164059367054696 0.3719448044930115 0 0.2005261161267241 0.4579553458730797 0 0.1336105785134735 0.4361702689209298 0 0.2845914509771853 0.4848763822095443 0 0.2005261161267241 0.4579553458730797 0 0.264324817562177 0.3987638366763464 0 0.3539299266278166 0.4249789750790707 0 0.370652546614703 0.5134749220451614 0 0.2845914509771851 0.484876382209544 0 0.370652546614703 0.5134749220451614 0 0.4393289521948477 0.4527926136921334 0 0.4575639698429828 0.5427700263048022 0 0.7999999999999999 1 0 0.7000000000006935 1 0 0.7543567317362881 0.9205245603071637 0 0.7543567317362887 0.9205245603071642 0 0.6547996067038543 0.9007657124885794 0 0.7337357534352467 0.8320636705894814 0 0.6547996067038542 0.9007657124885794 0 0.6561937266592249 0.7952487040793256 0 0.7337357534352468 0.8320636705894814 0 0.6531478674828468 0.7030485185081189 0 0.6561937266592249 0.7952487040793256 0 0.5766230053158798 0.75658719427689 0 0.5631276294683242 0.6660590631089184 0 0.6531478674828469 0.7030485185081189 0 0.5766230053158798 0.7565871942768901 0 0.5449520634070169 0.5736116873632142 0 0.5631276294683242 0.6660590631089184 0 0.4745187976455837 0.6356120107071148 0 0.5264916765091933 0.4820143211785421 0 0.5449520634070169 0.5736116873632142 0 0.4575639698429828 0.5427700263048023 0 0.08541028511638882 0.3187555226130792 0 0.164059367054696 0.3719448044930115 0 0.08017840601838511 0.3963300372633091 0 0.2005261161267241 0.4579553458730797 0 0.164059367054696 0.3719448044930115 0 0.2643248175621771 0.3987638366763464 0 0.3539299266278166 0.4249789750790707 0 0.2845914509771854 0.4848763822095443 0 0.264324817562177 0.3987638366763464 0 0.3539299266278166 0.4249789750790707 0 0.4393289521948477 0.4527926136921334 0 0.3706525466147027 0.5134749220451612 0 0.4393289521948478 0.4527926136921334 0 0.5264916765091933 0.482014321178542 0 0.4575639698429828 0.5427700263048023 0 0.7999999999999999 1 0 0.7543567317362887 0.9205245603071642 0 0.8469936203143573 0.926623085875765 0 0.7543567317362887 0.9205245603071642 0 0.7337357534352472 0.8320636705894819 0 0.8112077680452555 0.8636996853036771 0 0.6561937266592248 0.7952487040793256 0 0.739472295912085 0.7432808756035073 0 0.7337357534352468 0.8320636705894814 0 0.6531478674828468 0.7030485185081189 0 0.739472295912085 0.7432808756035073 0 0.6561937266592245 0.795248704079325 0 0.5631276294683242 0.6660590631089183 0 0.6374023866986613 0.6062433926805767 0 0.6531478674828465 0.7030485185081184 0 0.5449520634070169 0.5736116873632142 0 0.6374023866986612 0.6062433926805767 0 0.563127629468324 0.6660590631089179 0 0.5264916765091933 0.4820143211785421 0 0.6148622751821854 0.5113105423847633 0 0.5449520634070166 0.5736116873632139 0 0.08541028511638883 0.3187555226130791 0 0.1650000004351555 0.2857883829976277 0 0.1640593670546959 0.3719448044930113 0 0.164059367054696 0.3719448044930115 0 0.2462583129076185 0.3160366088497619 0 0.2643248175621771 0.3987638366763464 0 0.336583731679023 0.3367909035536117 0 0.3539299266278166 0.4249789750790707 0 0.2643248175621771 0.3987638366763464 0 0.3539299266278166 0.4249789750790707 0 0.4214663514767307 0.3644860394694712 0 0.4393289521948475 0.4527926136921331 0 0.4393289521948477 0.4527926136921334 0 0.5075735779823183 0.3921138039661037 0 0.526491676509193 0.4820143211785418 0 0.8999999999995837 1 0 0.7999999999999999 1 0 0.8469936203143573 0.926623085875765 0 0.8469936203143579 0.9266230858757656 0 0.7543567317362887 0.9205245603071642 0 0.8112077680452555 0.8636996853036771 0 0.7337357534352472 0.8320636705894819 0 0.819256625240533 0.7890860953933758 0 0.8112077680452555 0.8636996853036771 0 0.739472295912085 0.7432808756035073 0 0.819256625240533 0.7890860953933758 0 0.7337357534352467 0.8320636705894814 0 0.6531478674828468 0.7030485185081189 0 0.7391175425474388 0.6347508716709132 0 0.7394722959120845 0.7432808756035069 0 0.6531478674828468 0.7030485185081188 0 0.6374023866986613 0.6062433926805767 0 0.7391175425474383 0.6347508716709127 0 0.5449520634070169 0.5736116873632142 0 0.6148622751821854 0.5113105423847634 0 0.6374023866986609 0.6062433926805763 0 0.5264916765091933 0.482014321178542 0 0.5953929619133023 0.4201954587110724 0 0.6148622751821851 0.511310542384763 0 0.164059367054696 0.3719448044930115 0 0.1650000004351555 0.2857883829976277 0 0.2462583129076184 0.3160366088497616 0 0.2462583129076185 0.3160366088497619 0 0.336583731679023 0.3367909035536117 0 0.2643248175621771 0.3987638366763464 0 0.336583731679023 0.3367909035536117 0 0.4214663514767307 0.3644860394694712 0 0.3539299266278164 0.4249789750790705 0 0.4393289521948477 0.4527926136921334 0 0.4214663514767307 0.3644860394694712 0 0.5075735779823181 0.3921138039661035 0 0.5264916765091933 0.482014321178542 0 0.5075735779823183 0.3921138039661037 0 0.5953929619133019 0.4201954587110722 0 0.8999999999995837 1 0 0.8469936203143579 0.9266230858757656 0 0.9267949192429041 0.9267949192429453 0 0.9016961094998542 0.8502010143526015 0 0.8469936203143579 0.9266230858757656 0 0.8112077680452555 0.8636996853036771 0 0.819256625240533 0.7890860953933758 0 0.9016961094998542 0.8502010143526015 0 0.8112077680452555 0.8636996853036771 0 0.739472295912085 0.7432808756035073 0 0.8288651147246971 0.698679757807666 0 0.8192566252405324 0.7890860953933753 0 0.7391175425474388 0.634750871670913 0 0.8288651147246971 0.698679757807666 0 0.7394722959120844 0.7432808756035069 0 0.6374023866986612 0.6062433926805766 0 0.702296650772572 0.5383879928347232 0 0.7391175425474383 0.6347508716709127 0 0.6374023866986612 0.6062433926805766 0 0.6148622751821855 0.5113105423847634 0 0.7022966507725715 0.5383879928347227 0 0.6148622751821854 0.5113105423847633 0 0.5953929619133024 0.4201954587110724 0 0.6812846140412884 0.4460449154471238 0 0.1650000004351555 0.2857883829976276 0 0.2333452383548381 0.2333452372282832 0 0.2462583129076184 0.3160366088497616 0 0.2462583129076185 0.3160366088497618 0 0.3251853837121149 0.2418990257178654 0 0.3365837316790228 0.3367909035536115 0 0.3365837316790231 0.3367909035536117 0 0.4070425547712777 0.2792204871089636 0 0.4214663514767304 0.3644860394694709 0 0.5075735779823183 0.3921138039661037 0 0.4214663514767307 0.3644860394694712 0 0.4889892423138354 0.3038076761249732 0 0.5953929619133023 0.4201954587110724 0 0.5075735779823184 0.3921138039661037 0 0.5758076665880535 0.329609255899019 0 1 1 0 0.8999999999995837 1 0 0.9267949192429041 0.9267949192429453 0 0.8469936203143579 0.9266230858757656 0 0.9016961094998542 0.8502010143526015 0 0.9267949192429041 0.9267949192429453 0 0.9016961094998542 0.8502010143526015 0 0.819256625240533 0.7890860953933758 0 0.9105973158607921 0.7479451577263725 0 0.819256625240533 0.7890860953933758 0 0.8288651147246971 0.698679757807666 0 0.9105973158607921 0.7479451577263725 0 0.8337113423553408 0.5996960087499142 0 0.8288651147246971 0.698679757807666 0 0.7391175425474382 0.6347508716709127 0 0.7391175425474388 0.634750871670913 0 0.702296650772572 0.5383879928347232 0 0.776095373111551 0.5499323499659107 0 0.7022966507725719 0.5383879928347231 0 0.6148622751821855 0.5113105423847633 0 0.6812846140412884 0.4460449154471238 0 0.5953929619133023 0.4201954587110724 0 0.6649137529579178 0.3577436959955138 0 0.6812846140412884 0.4460449154471238 0 0.2333452383548382 0.2333452372282833 0 0.3251853837121149 0.2418990257178654 0 0.2462583129076184 0.3160366088497616 0 0.3365837316790231 0.3367909035536117 0 0.325185383712115 0.2418990257178654 0 0.4070425547712774 0.2792204871089634 0 0.4214663514767307 0.3644860394694711 0 0.4070425547712777 0.2792204871089636 0 0.4889892423138354 0.3038076761249732 0 0.5758076665880538 0.3296092558990192 0 0.5075735779823184 0.3921138039661037 0 0.4889892423138354 0.3038076761249732 0 0.5953929619133023 0.4201954587110724 0 0.5758076665880539 0.3296092558990192 0 0.6649137529579173 0.3577436959955135 0 1 0.899999999999737 0 1 1 0 0.9267949192429041 0.9267949192429453 0 0.9016961094998543 0.8502010143526015 0 1 0.8999999999997369 0 0.9267949192429041 0.9267949192429453 0 1 0.7999999999994735 0 0.9016961094998542 0.8502010143526015 0 0.9105973158607921 0.7479451577263725 0 0.8288651147246971 0.698679757807666 0 0.9137660456996721 0.6497040788059111 0 0.9105973158607921 0.7479451577263726 0 0.8337113423553408 0.5996960087499142 0 0.9137660456996721 0.6497040788059111 0 0.8288651147246966 0.6986797578076656 0 0.8337113423553408 0.5996960087499142 0 0.7391175425474388 0.6347508716709132 0 0.776095373111551 0.5499323499659108 0 0.702296650772572 0.5383879928347231 0 0.7640906286245651 0.4727193297685514 0 0.776095373111551 0.5499323499659107 0 0.702296650772572 0.5383879928347231 0 0.6812846140412888 0.446044915447124 0 0.7640906286245647 0.4727193297685511 0 0.6649137529579177 0.3577436959955138 0 0.7509658874862278 0.383790884649259 0 0.6812846140412883 0.4460449154471238 0 0.2333452383548382 0.2333452372282832 0 0.2857883835161864 0.1649999995369853 0 0.3251853837121148 0.2418990257178653 0 0.4070425547712777 0.2792204871089636 0 0.325185383712115 0.2418990257178654 0 0.4035780771799722 0.2107049125048626 0 0.4889892423138357 0.3038076761249734 0 0.4070425547712777 0.2792204871089636 0 0.471144676174621 0.220659125043621 0 0.5533431996313982 0.2396037875354144 0 0.5758076665880538 0.3296092558990192 0 0.4889892423138354 0.3038076761249732 0 0.6649137529579177 0.3577436959955137 0 0.5758076665880539 0.3296092558990192 0 0.6436084350545207 0.2642353863415699 0 1 0.7999999999994735 0 1 0.8999999999997369 0 0.9016961094998537 0.850201014352601 0 1 0.6999999999992101 0 1 0.7999999999994735 0 0.9105973158607921 0.7479451577263725 0 0.9137660456996722 0.649704078805911 0 1 0.6999999999992101 0 0.9105973158607921 0.7479451577263726 0 0.9143104164693289 0.5502457745856388 0 0.9137660456996721 0.649704078805911 0 0.8337113423553403 0.5996960087499139 0 0.8396680954007477 0.5041237028824692 0 0.8337113423553408 0.5996960087499142 0 0.776095373111551 0.5499323499659108 0 0.7640906286245651 0.4727193297685514 0 0.8396680954007477 0.5041237028824692 0 0.776095373111551 0.5499323499659107 0 0.6812846140412888 0.446044915447124 0 0.7509658874862278 0.383790884649259 0 0.7640906286245646 0.4727193297685511 0 0.6649137529579177 0.3577436959955138 0 0.7333924435874726 0.2993780894363455 0 0.7509658874862274 0.3837908846492588 0 0.3251853837121149 0.2418990257178654 0 0.2857883835161865 0.1649999995369853 0 0.3648957752606029 0.1555527535858052 0 0.325185383712115 0.2418990257178654 0 0.3648957752606031 0.1555527535858053 0 0.4035780771799722 0.2107049125048626 0 0.4711446761746212 0.2206591250436211 0 0.4070425547712777 0.2792204871089636 0 0.4035780771799722 0.2107049125048626 0 0.5533431996313982 0.2396037875354144 0 0.4889892423138357 0.3038076761249734 0 0.471144676174621 0.220659125043621 0 0.643608435054521 0.26423538634157 0 0.5758076665880539 0.3296092558990192 0 0.5533431996313979 0.2396037875354143 0 0.6649137529579177 0.3577436959955137 0 0.6436084350545211 0.2642353863415701 0 0.7333924435874721 0.2993780894363453 0 1 0.5999999999989468 0 1 0.6999999999992101 0 0.9137660456996716 0.6497040788059106 0 1 0.5999999999989468 0 0.9137660456996721 0.6497040788059111 0 0.9143104164693283 0.5502457745856386 0 0.9143104164693289 0.5502457745856388 0 0.8337113423553408 0.5996960087499142 0 0.8396680954007472 0.504123702882469 0 0.8342331509350036 0.4140361328318218 0 0.8396680954007477 0.5041237028824692 0 0.7640906286245646 0.4727193297685511 0 0.7509658874862278 0.383790884649259 0 0.8342331509350036 0.4140361328318218 0 0.7640906286245646 0.4727193297685511 0 0.7509658874862278 0.3837908846492589 0 0.7333924435874726 0.2993780894363455 0 0.826364225170932 0.323507212577774 0 0.2857883835161864 0.1649999995369853 0 0.3187555227431478 0.08541028463096598 0 0.3648957752606029 0.1555527535858052 0 0.3648957752606031 0.1555527535858053 0 0.4407949287895321 0.1503338094757088 0 0.4035780771799722 0.2107049125048626 0 0.4407949287895321 0.1503338094757088 0 0.4711446761746212 0.2206591250436211 0 0.4035780771799722 0.2107049125048626 0 0.5533431996313982 0.2396037875354144 0 0.4711446761746212 0.2206591250436211 0 0.5280186054028271 0.1570647192669499 0 0.643608435054521 0.26423538634157 0 0.5533431996313983 0.2396037875354144 0 0.6132366197277306 0.1702836710930529 0 0.7333924435874726 0.2993780894363454 0 0.6436084350545211 0.2642353863415701 0 0.7180649978892391 0.197196514232481 0 1 0.4999999999986944 0 1 0.5999999999989468 0 0.9143104164693283 0.5502457745856386 0 0.9163687097838321 0.4515076337375429 0 0.9143104164693289 0.5502457745856388 0 0.8396680954007472 0.504123702882469 0 0.9163687097838321 0.4515076337375429 0 0.8396680954007477 0.5041237028824692 0 0.8342331509350031 0.4140361328318216 0 0.7509658874862278 0.383790884649259 0 0.8263642251709326 0.3235072125777743 0 0.8342331509350031 0.4140361328318216 0 0.8263642251709326 0.3235072125777742 0 0.7333924435874726 0.2993780894363455 0 0.7983682599267162 0.25355367812119 0 0.3648957752606031 0.1555527535858053 0 0.3187555227431478 0.08541028463096598 0 0.3966376598822497 0.07841900855448644 0 0.3648957752606031 0.1555527535858053 0 0.39663765988225 0.07841900855448651 0 0.4407949287895318 0.1503338094757087 0 0.5280186054028274 0.15706471926695 0 0.4711446761746212 0.2206591250436211 0 0.4407949287895318 0.1503338094757087 0 0.6132366197277309 0.170283671093053 0 0.5533431996313983 0.2396037875354144 0 0.5280186054028272 0.1570647192669499 0 0.7180649978892394 0.1971965142324811 0 0.6436084350545211 0.26423538634157 0 0.6132366197277306 0.1702836710930529 0 0.7333924435874726 0.2993780894363454 0 0.7180649978892395 0.1971965142324811 0 0.7983682599267162 0.25355367812119 0 0.9163687097838322 0.4515076337375429 0 1 0.4999999999986944 0 0.9143104164693283 0.5502457745856386 0 0.9127558318327542 0.3564464450364734 0 0.9163687097838321 0.4515076337375429 0 0.8342331509350031 0.4140361328318216 0 0.8263642251709326 0.3235072125777743 0 0.9127558318327542 0.3564464450364734 0 0.8342331509350031 0.4140361328318216 0 0.8955554812928544 0.2551442917568858 0 0.8263642251709326 0.3235072125777742 0 0.7983682599267162 0.25355367812119 0 0.3187555227431478 0.08541028463096596 0 0.3300000000000001 2.520012541357935e-19 0 0.3966376598822497 0.07841900855448647 0 0.39663765988225 0.07841900855448651 0 0.4804947788369185 0.07960233789852757 0 0.4407949287895318 0.1503338094757087 0 0.4804947788369186 0.07960233789852757 0 0.5280186054028274 0.15706471926695 0 0.4407949287895318 0.1503338094757087 0 0.5713844803892862 0.08071061624839423 0 0.613236619727731 0.170283671093053 0 0.5280186054028272 0.15706471926695 0 0.6649999999991137 0.08289100293350839 0 0.7180649978892395 0.1971965142324811 0 0.6132366197277306 0.1702836710930529 0 0.7180649978892395 0.1971965142324811 0 0.8239593393238149 0.1758659824077986 0 0.7983682599267162 0.2535536781211901 0 1 0.3999999999989751 0 1 0.4999999999986944 0 0.9163687097838316 0.4515076337375426 0 1 0.3999999999989751 0 0.9163687097838321 0.4515076337375429 0 0.9127558318327537 0.3564464450364732 0 0.8263642251709326 0.3235072125777742 0 0.8955554812928544 0.2551442917568859 0 0.9127558318327537 0.3564464450364732 0 0.8239593393238149 0.1758659824077986 0 0.8955554812928544 0.2551442917568858 0 0.7983682599267162 0.2535536781211901 0 0.3300000000000001 1.943777007849774e-18 0 0.4257142857140301 -4.576774091516917e-18 0 0.3966376598822497 0.07841900855448648 0 0.4257142857140301 1.110396804889263e-17 0 0.4804947788369185 0.07960233789852755 0 0.3966376598822497 0.07841900855448648 0 0.4804947788369186 0.07960233789852757 0 0.5713844803892862 0.08071061624839422 0 0.5280186054028272 0.1570647192669499 0 0.5713844803892862 0.08071061624839422 0 0.6649999999991139 0.08289100293350837 0 0.6132366197277306 0.1702836710930529 0 0.7180649978892395 0.1971965142324811 0 0.6649999999991139 0.08289100293350837 0 0.7614399244630434 0.1024449365784278 0 0.7180649978892395 0.1971965142324811 0 0.7614399244630439 0.1024449365784278 0 0.8239593393238144 0.1758659824077985 0 1 0.2999999999992664 0 1 0.3999999999989751 0 0.9127558318327537 0.3564464450364732 0 0.8955554812928544 0.2551442917568858 0 1 0.2999999999992664 0 0.9127558318327537 0.3564464450364732 0 0.8955554812928544 0.2551442917568858 0 0.8239593393238149 0.1758659824077986 0 0.91777530130456 0.1474028499237798 0 0.4257142857140301 1.973108268395651e-18 0 0.521428571427989 -4.645836824945584e-18 0 0.4804947788369183 0.07960233789852754 0 0.4804947788369186 0.07960233789852755 0 0.521428571427989 -1.940618396839116e-19 0 0.5713844803892859 0.08071061624839418 0 0.6171428571420019 1.153921142231409e-17 0 0.6649999999991139 0.08289100293350836 0 0.5713844803892859 0.08071061624839419 0 0.6649999999991139 0.08289100293350837 0 0.7128571428562256 -1.275952047000134e-18 0 0.7614399244630434 0.1024449365784278 0 0.7614399244630439 0.1024449365784278 0 0.8564285714281221 0.08289100293390839 0 0.8239593393238144 0.1758659824077985 0 1 0.1999999999995579 0 1 0.2999999999992664 0 0.8955554812928539 0.2551442917568857 0 1 0.1999999999995579 0 0.8955554812928544 0.2551442917568858 0 0.91777530130456 0.1474028499237798 0 0.8239593393238149 0.1758659824077986 0 0.8564285714281221 0.08289100293390839 0 0.91777530130456 0.1474028499237798 0 0.521428571427989 2.0005792351227e-18 0 0.6171428571420019 -4.710519351942013e-18 0 0.5713844803892859 0.08071061624839419 0 0.6171428571420019 2.054624620098486e-18 0 0.7128571428562256 -4.837773412837023e-18 0 0.6649999999991134 0.08289100293350835 0 0.7128571428562256 2.5393092307896e-18 0 0.8085714285708151 -5.979001012407179e-18 0 0.7614399244630433 0.1024449365784278 0 0.8085714285708151 1.207794141802703e-17 0 0.8564285714281221 0.08289100293390837 0 0.7614399244630433 0.1024449365784278 0 1 0.09999999999981471 0 1 0.1999999999995579 0 0.91777530130456 0.1474028499237798 0 0.9177753013045605 0.1474028499237799 0 0.8564285714281221 0.08289100293390839 0 0.9307084157825719 0.07051582244471385 0 0.8085714285708151 2.054624620108402e-18 0 0.9042857142854294 -4.837773412860369e-18 0 0.8564285714281216 0.08289100293390836 0 1 0.0999999999998147 0 0.9177753013045605 0.1474028499237799 0 0.9307084157825719 0.07051582244471387 0 0.8564285714281221 0.08289100293390837 0 0.9042857142854294 5.875290786572187e-19 0 0.9307084157825719 0.07051582244471388 0 1 1.325531993502389e-17 0 1 0.09999999999981468 0 0.9307084157825719 0.0705158224447139 0 0.9042857142854295 1.747880225524863e-18 0 1 -4.115519886772524e-18 0 0.9307084157825719 0.0705158224447139 0 </DataArray>
      </Points>
      <Cells>
        <DataArray type="Int32" Name="connectivity" format="ascii">0 1 2 3 4 5 6 7 8 9 10 11 12 13 14 15 16 17 18 19 20 21 22 23 24 25 26 27 28 29 30 31 32 33 34 35 36 37 38 39 40 41 42 43 44 45 46 47 48 49 50 51 52 53 54 55 56 57 58 59 60 61 62 63 64 65 66 67 68 69 70 71 72 73 74 75 76 77 78 79 80 81 82 83 84 85 86 87 88 89 90 91 92 93 94 95 96 97 98 99 100 101 102 103 104 105 106 107 108 109 110 111 112 113 114 115 116 117 118 119 120 121 122 123 124 125 126 127 128 129 130 131 132 133 134 135 136 137 138 139 140 141 142 143 144 145 146 147 148 149 150 151 152 153 154 155 156 157 158 159 160 161 162 163 164 165 166 167 168 169 170 171 172 173 174 175 176 177 178 179 180 181 182 183 184 185 186 187 188 189 190 191 192 193 194 195 196 197 198 199 200 201 202 203 204 205 206 207 208 209 210 211 212 213 214 215 216 217 218 219 220 221 222 223 224 225 226 227 228 229 230 231 232 233 234 235 236 237 238 239 240 241 242 243 244 245 246 247 248 249 250 251 252 253 254 255 256 257 258 259 260 261 262 263 264 265 266 267 268 269 270 271 272 273 274 275 276 277 278 279 280 281 282 283 284 285 286 287 288 289 290 291 292 293 294 295 296 297 298 299 300 301 302 303 304 305 306 307 308 309 310 311 312 313 314 315 316 317 318 319 320 321 322 323 324 325 326 327 328 329 330 331 332 333 334 335 336 337 338 339 340 341 342 343 344 345 346 347 348 349 350 351 352 353 354 355 356 357 358 359 360 361 362 363 364 365 366 367 368 369 370 371 372 373 374 375 376 377 378 379 380 381 382 383 384 385 386 387 388 389 390 391 392 393 394 395 396 397 398 399 400 401 402 403 404 405 406 407 408 409 410 411 412 413 414 415 416 417 418 419 420 421 422 423 424 425 426 427 428 429 430 431 432 433 434 435 436 437 438 439 440 441 442 443 444 445 446 447 448 449 450 451 452 453 454 455 456 457 458 459 460 461 462 463 464 465 466 467 468 469 470 471 472 473 474 475 476 477 478 479 480 481 482 483 484 485 486 487 488 489 490 491 492 493 494 495 496 497 498 499 500 501 502 503 504 505 506 507 508 509 510 511 512 513 514 515 516 517 518 519 520 521 522 523 524 525 526 527 528 529 530 531 532 533 534 535 536 537 538 539 540 541 542 543 544 545 546 547 548 549 550 551 552 553 554 555 556 557 558 559 560 561 562 563 564 565 566 567 568 569 570 571 572 573 574 575 576 577 578 579 580 581 582 583 584 585 586 587 588 589 590 591 592 593 594 595 596 597 598 599 600 601 602 603 604 605 606 607 608 609 610 611 612 613 614 615 616 617 618 619 620 621 622 623 624 625 626 627 628 629 630 631 632 633 634 635 636 637 638 639 640 641 642 643 644 645 646 647 648 649 650 651 652 653 654 655 656 657 658 659 660 661 662 663 664 665 666 667 668 669 670 671 672 673 674 675 676 677 678 679 680 681 682 683 684 685 686 687 688 689 690 691 692 693 694 695 696 697 698 699 700 701 702 703 704 705 706 707 708 709 710 711 712 713 714 715 716 717 718 719 720 721 722 723 724 725 726 727 728 729 730 731 732 733 734 735 736 737 738 739 740 741 742 743 744 745 746 747 748 749 </DataArray>
        <DataArray type="Int32" Name="offsets" format="ascii">3 6 9 12 15 18 21 24 27 30 33 36 39 42 45 48 51 54 57 60 63 66 69 72 75 78 81 84 87 90 93 96 99 102 105 108 111 114 117 120 123 126 129 132 135 138 141 144 147 150 153 156 159 162 165 168 171 174 177 180 183 186 189 192 195 198 201 204 207 210 213 216 219 222 225 228 231 234 237 240 243 246 249 252 255 258 261 264 267 270 273 276 279 282 285 288 291 294 297 300 303 306 309 312 315 318 321 324 327 330 333 336 339 342 345 348 351 354 357 360 363 366 369 372 375 378 381 384 387 390 393 396 399 402 405 408 411 414 417 420 423 426 429 432 435 438 441 444 447 450 453 456 459 462 465 468 471 474 477 480 483 486 489 492 495 498 501 504 507 510 513 516 519 522 525 528 531 534 537 540 543 546 549 552 555 558 561 564 567 570 573 576 579 582 585 588 591 594 597 600 603 606 609 612 615 618 621 624 627 630 633 636 639 642 645 648 651 654 657 660 663 666 669 672 675 678 681 684 687 690 693 696 699 702 705 708 711 714 717 720 723 726 729 732 735 738 741 744 747 750 </DataArray>
        <DataArray type="Int8" Name="types" format="ascii">69 69 69 69 69 69 69 69 69 69 69 69 69 69 69 69 69 69 69 69 69 69 69 69 69 69 69 69 69 69 69 69 69 69 69 69 69 69 69 69 69 69 69 69 69 69 69 69 69 69 69 69 69 69 69 69 69 69 69 69 69 69 69 69 69 69 69 69 69 69 69 69 69 69 69 69 69 69 69 69 69 69 69 69 69 69 69 69 69 69 69 69 69 69 69 69 69 69 69 69 69 69 69 69 69 69 69 69 69 69 69 69 69 69 69 69 69 69 69 69 69 69 69 69 69 69 69 69 69 69 69 69 69 69 69 69 69 69 69 69 69 69 69 69 69 69 69 69 69 69 69 69 69 69 69 69 69 69 69 69 69 69 69 69 69 69 69 69 69 69 69 69 69 69 69 69 69 69 69 69 69 69 69 69 69 69 69 69 69 69 69 69 69 69 69 69 69 69 69 69 69 69 69 69 69 69 69 69 69 69 69 69 69 69 69 69 69 69 69 69 69 69 69 69 69 69 69 69 69 69 69 69 69 69 69 69 69 69 69 69 69 69 69 69 69 69 69 69 69 69 </DataArray>
      </Cells>
      <CellData>
        <DataArray type="UInt8" Name="vtkGhostType" format="ascii" RangeMin="0" RangeMax="1">0 0 0 0 0 0 0 0 0 0 0 0 0 0 0 0 0 0 0 0 0 0 0 0 0 0 0 0 0 0 0 0 0 0 0 0 0 0 0 0 0 0 0 0 0 0 0 0 0 0 0 0 0 0 0 0 0 0 0 0 0 0 0 0 0 0 0 0 0 0 0 0 0 0 0 0 0 0 0 0 0 0 0 0 0 0 0 0 0 0 0 0 0 0 0 0 0 0 0 0 0 0 0 0 0 0 0 0 0 0 0 0 0 0 0 0 0 0 0 0 0 0 0 0 0 0 0 0 0 0 0 0 0 0 0 0 0 0 0 0 0 0 0 0 0 0 0 0 0 0 0 0 0 0 0 0 0 0 0 0 0 0 0 0 0 0 0 0 0 0 0 0 0 0 0 0 0 0 0 0 0 0 0 0 0 0 0 0 0 0 0 0 0 0 0 0 0 0 0 0 0 0 0 0 0 0 0 0 0 0 0 0 0 0 0 0 0 0 0 0 0 0 0 0 0 0 0 0 0 0 0 0 0 0 0 0 0 0 0 0 0 0 0 0 0 0 0 0 0 0 </DataArray>
        <DataArray type="Int64" IdType="1" Name="vtkOriginalCellIds" format="ascii" RangeMin="0" RangeMax="249">0 1 2 3 4 5 6 7 8 9 10 11 12 13 14 15 16 17 18 19 20 21 22 23 24 25 26 27 28 29 30 31 32 33 34 35 36 37 38 39 40 41 42 43 44 45 46 47 48 49 50 51 52 53 54 55 56 57 58 59 60 61 62 63 64 65 66 67 68 69 70 71 72 73 74 75 76 77 78 79 80 81 82 83 84 85 86 87 88 89 90 91 92 93 94 95 96 97 98 99 100 101 102 103 104 105 106 107 108 109 110 111 112 113 114 115 116 117 118 119 120 121 122 123 124 125 126 127 128 129 130 131 132 133 134 135 136 137 138 139 140 141 142 143 144 145 146 147 148 149 150 151 152 153 154 155 156 157 158 159 160 161 162 163 164 165 166 167 168 169 170 171 172 173 174 175 176 177 178 179 180 181 182 183 184 185 186 187 188 189 190 191 192 193 194 195 196 197 198 199 200 201 202 203 204 205 206 207 208 209 210 211 212 213 214 215 216 217 218 219 220 221 222 223 224 225 226 227 228 229 230 231 232 233 234 235 236 237 238 239 240 241 242 243 244 245 246 247 248 249 </DataArray>
      </CellData>
      <PointData Tensors="stress" Vectors="von_mises_stress">
        <DataArray type="Int64" IdType="1" Name="vtkOriginalPointIds" format="ascii" RangeMin="0" RangeMax="749">0 1 2 3 4 5 6 7 8 9 10 11 12 13 14 15 16 17 18 19 20 21 22 23 24 25 26 27 28 29 30 31 32 33 34 35 36 37 38 39 40 41 42 43 44 45 46 47 48 49 50 51 52 53 54 55 56 57 58 59 60 61 62 63 64 65 66 67 68 69 70 71 72 73 74 75 76 77 78 79 80 81 82 83 84 85 86 87 88 89 90 91 92 93 94 95 96 97 98 99 100 101 102 103 104 105 106 107 108 109 110 111 112 113 114 115 116 117 118 119 120 121 122 123 124 125 126 127 128 129 130 131 132 133 134 135 136 137 138 139 140 141 142 143 144 145 146 147 148 149 150 151 152 153 154 155 156 157 158 159 160 161 162 163 164 165 166 167 168 169 170 171 172 173 174 175 176 177 178 179 180 181 182 183 184 185 186 187 188 189 190 191 192 193 194 195 196 197 198 199 200 201 202 203 204 205 206 207 208 209 210 211 212 213 214 215 216 217 218 219 220 221 222 223 224 225 226 227 228 229 230 231 232 233 234 235 236 237 238 239 240 241 242 243 244 245 246 247 248 249 250 251 252 253 254 255 256 257 258 259 260 261 262 263 264 265 266 267 268 269 270 271 272 273 274 275 276 277 278 279 280 281 282 283 284 285 286 287 288 289 290 291 292 293 294 295 296 297 298 299 300 301 302 303 304 305 306 307 308 309 310 311 312 313 314 315 316 317 318 319 320 321 322 323 324 325 326 327 328 329 330 331 332 333 334 335 336 337 338 339 340 341 342 343 344 345 346 347 348 349 350 351 352 353 354 355 356 357 358 359 360 361 362 363 364 365 366 367 368 369 370 371 372 373 374 375 376 377 378 379 380 381 382 383 384 385 386 387 388 389 390 391 392 393 394 395 396 397 398 399 400 401 402 403 404 405 406 407 408 409 410 411 412 413 414 415 416 417 418 419 420 421 422 423 424 425 426 427 428 429 430 431 432 433 434 435 436 437 438 439 440 441 442 443 444 445 446 447 448 449 450 451 452 453 454 455 456 457 458 459 460 461 462 463 464 465 466 467 468 469 470 471 472 473 474 475 476 477 478 479 480 481 482 483 484 485 486 487 488 489 490 491 492 493 494 495 496 497 498 499 500 501 502 503 504 505 506 507 508 509 510 511 512 513 514 515 516 517 518 519 520 521 522 523 524 525 526 527 528 529 530 531 532 533 534 535 536 537 538 539 540 541 542 543 544 545 546 547 548 549 550 551 552 553 554 555 556 557 558 559 560 561 562 563 564 565 566 567 568 569 570 571 572 573 574 575 576 577 578 579 580 581 582 583 584 585 586 587 588 589 590 591 592 593 594 595 596 597 598 599 600 601 602 603 604 605 606 607 608 609 610 611 612 613 614 615 616 617 618 619 620 621 622 623 624 625 626 627 628 629 630 631 632 633 634 635 636 637 638 639 640 641 642 643 644 645 646 647 648 649 650 651 652 653 654 655 656 657 658 659 660 661 662 663 664 665 666 667 668 669 670 671 672 673 674 675 676 677 678 679 680 681 682 683 684 685 686 687 688 689 690 691 692 693 694 695 696 697 698 699 700 701 702 703 704 705 706 707 708 709 710 711 712 713 714 715 716 717 718 719 720 721 722 723 724 725 726 727 728 729 730 731 732 733 734 735 736 737 738 739 740 741 742 743 744 745 746 747 748 749 </DataArray>
        <DataArray type="UInt8" Name="vtkGhostType" format="ascii" RangeMin="0" RangeMax="0">0 0 0 0 0 0 0 0 0 0 0 0 0 0 0 0 0 0 0 0 0 0 0 0 0 0 0 0 0 0 0 0 0 0 0 0 0 0 0 0 0 0 0 0 0 0 0 0 0 0 0 0 0 0 0 0 0 0 0 0 0 0 0 0 0 0 0 0 0 0 0 0 0 0 0 0 0 0 0 0 0 0 0 0 0 0 0 0 0 0 0 0 0 0 0 0 0 0 0 0 0 0 0 0 0 0 0 0 0 0 0 0 0 0 0 0 0 0 0 0 0 0 0 0 0 0 0 0 0 0 0 0 0 0 0 0 0 0 0 0 0 0 0 0 0 0 0 0 0 0 0 0 0 0 0 0 0 0 0 0 0 0 0 0 0 0 0 0 0 0 0 0 0 0 0 0 0 0 0 0 0 0 0 0 0 0 0 0 0 0 0 0 0 0 0 0 0 0 0 0 0 0 0 0 0 0 0 0 0 0 0 0 0 0 0 0 0 0 0 0 0 0 0 0 0 0 0 0 0 0 0 0 0 0 0 0 0 0 0 0 0 0 0 0 0 0 0 0 0 0 0 0 0 0 0 0 0 0 0 0 0 0 0 0 0 0 0 0 0 0 0 0 0 0 0 0 0 0 0 0 0 0 0 0 0 0 0 0 0 0 0 0 0 0 0 0 0 0 0 0 0 0 0 0 0 0 0 0 0 0 0 0 0 0 0 0 0 0 0 0 0 0 0 0 0 0 0 0 0 0 0 0 0 0 0 0 0 0 0 0 0 0 0 0 0 0 0 0 0 0 0 0 0 0 0 0 0 0 0 0 0 0 0 0 0 0 0 0 0 0 0 0 0 0 0 0 0 0 0 0 0 0 0 0 0 0 0 0 0 0 0 0 0 0 0 0 0 0 0 0 0 0 0 0 0 0 0 0 0 0 0 0 0 0 0 0 0 0 0 0 0 0 0 0 0 0 0 0 0 0 0 0 0 0 0 0 0 0 0 0 0 0 0 0 0 0 0 0 0 0 0 0 0 0 0 0 0 0 0 0 0 0 0 0 0 0 0 0 0 0 0 0 0 0 0 0 0 0 0 0 0 0 0 0 0 0 0 0 0 0 0 0 0 0 0 0 0 0 0 0 0 0 0 0 0 0 0 0 0 0 0 0 0 0 0 0 0 0 0 0 0 0 0 0 0 0 0 0 0 0 0 0 0 0 0 0 0 0 0 0 0 0 0 0 0 0 0 0 0 0 0 0 0 0 0 0 0 0 0 0 0 0 0 0 0 0 0 0 0 0 0 0 0 0 0 0 0 0 0 0 0 0 0 0 0 0 0 0 0 0 0 0 0 0 0 0 0 0 0 0 0 0 0 0 0 0 0 0 0 0 0 0 0 0 0 0 0 0 0 0 0 0 0 0 0 0 0 0 0 0 0 0 0 0 0 0 0 0 0 0 0 0 0 0 0 0 0 0 0 0 0 0 0 0 0 0 0 0 0 0 0 0 0 0 0 0 0 0 0 0 0 0 0 0 0 0 0 0 0 0 0 0 0 0 0 0 0 0 0 0 0 0 0 0 0 0 0 0 0 0 0 0 0 0 0 0 0 0 0 0 0 0 0 0 0 0 0 0 0 0 0 0 0 0 0 0 0 0 0 0 0 0 0 0 0 0 0 0 0 0 0 0 0 0 0 0 0 0 0 0 </DataArray>
        <DataArray type="Float64" Name="stress" format="ascii" NumberOfComponents="9">107415322.5801727 2468890.800148812 2468890.800148812 13560184.03169635 0 0 0 0 0 107218771.3658108 25167.41226070425 25167.4122607043 14861979.32835414 0 0 0 0 0 108753774.6021355 2087537.517562566 2087537.517562566 15904369.94628382 0 0 0 0 0 107080898.5822306 -114863.22191777 -114863.22191777 14472394.92997188 0 0 0 0 0 109213954.081405 27385.37276732305 27385.37276732301 17172541.8193363 0 0 0 0 0 108857246.9240626 2209112.926547994 2209112.926547994 16259823.36847732 0 0 0 0 0 109671126.1808403 4186840.814487502 4186840.814487502 14251825.05265519 0 0 0 0 0 107377509.1764124 2397310.506660574 2397310.506660575 13629615.99402144 0 0 0 0 0 108890416.607218 2204358.597783403 2204358.597783403 15802849.04567585 0 0 0 0 0 109359309.9488034 4048.25117866356 4048.25117866356 17816584.53521941 0 0 0 0 0 111083935.1067029 3093509.947934016 3093509.947934016 17815898.66882349 0 0 0 0 0 108787856.693979 2198522.985228796 2198522.985228796 15850015.05377371 0 0 0 0 0 108183681.8022072 4325599.188387629 4325599.188387629 10894714.54603553 0 0 0 0 0 107529786.8370199 2526096.330028493 2526096.330028493 13853574.17747671 0 0 0 0 0 109561337.7509313 4105363.93199951 4105363.93199951 14111712.79506911 0 0 0 0 0 111134022.239979 3255540.081321587 3255540.081321587 17921318.31804089 0 0 0 0 0 109589761.113136 4150690.121296764 4150690.121296764 14005330.8694111 0 0 0 0 0 108902204.4210252 2178489.737883224 2178489.737883224 15867922.21791284 0 0 0 0 0 109101336.9782503 -166229.8014548308 -166229.8014548308 17243959.46753414 0 0 0 0 0 112273934.1115387 170699.331375062 170699.3313750619 20694265.8693907 0 0 0 0 0 111294780.0743252 3242219.877636183 3242219.877636183 18502105.15675932 0 0 0 0 0 108145740.3196439 4232734.745507248 4232734.745507248 11068947.10958744 0 0 0 0 0 109587189.2678383 4246488.800190686 4246488.800190686 13850129.91356625 0 0 0 0 0 110829174.8247967 5712855.225937698 5712855.225937699 10297429.70099471 0 0 0 0 0 112697479.5371509 6038787.161982859 6038787.161982859 13754645.03501111 0 0 0 0 0 109516918.6512063 4140345.603032358 4140345.603032358 14077011.52787083 0 0 0 0 0 111148462.0478814 3287421.483104209 3287421.483104209 17820870.1640537 0 0 0 0 0 112487451.9643061 67278.29771291933 67278.29771291933 21568033.73466526 0 0 0 0 0 115042159.5890866 3410625.562579273 3410625.562579272 21457842.13409865 0 0 0 0 0 111082529.977414 3350833.440263782 3350833.440263782 17714136.78710831 0 0 0 0 0 109103174.5250269 5133605.744878756 5133605.744878756 7316423.585775874 0 0 0 0 0 108354728.1346182 4390474.516116519 4390474.516116519 11334690.54367349 0 0 0 0 0 110598787.8956683 5519789.502049972 5519789.502049972 9969972.595097559 0 0 0 0 0 110658186.4117567 5650975.157542525 5650975.157542525 9737262.581001736 0 0 0 0 0 109757384.6728837 4330439.108122675 4330439.108122675 14403923.57558208 0 0 0 0 0 112447487.6776836 5782142.568613214 5782142.568613214 13305099.63388849 0 0 0 0 0 112493760.9077398 5961941.401667159 5961941.401667159 13105036.67695212 0 0 0 0 0 111391567.9580856 3370773.361535362 3370773.361535362 18599893.07865696 0 0 0 0 0 114771727.7482126 5932709.774957136 5932709.774957136 16499725.28638986 0 0 0 0 0 112154557.7009448 -172607.188379067 -172607.188379067 20692959.65655666 0 0 0 0 0 117307425.4155176 211606.4369086535 211606.4369086535 25088441.65828964 0 0 0 0 0 115321011.9547076 3629225.659048697 3629225.659048697 22399254.12714587 0 0 0 0 0 110970463.1137685 3039330.346613445 3039330.346613445 17764539.96137707 0 0 0 0 0 115206349.5637783 3755745.460021069 3755745.460021069 21413627.3031636 0 0 0 0 0 115084004.8239453 6195105.075356732 6195105.075356732 17184992.03290806 0 0 0 0 0 111641195.1138152 5720572.460851195 5720572.460851195 5567345.326035391 0 0 0 0 0 109028159.7782274 5039892.795587814 5039892.795587814 7491860.048478677 0 0 0 0 0 110703336.0855744 5649234.359869111 5649234.359869111 9727562.24359192 0 0 0 0 0 110599904.4105888 5551228.671224328 5551228.671224328 9959029.330893423 0 0 0 0 0 112534342.6359272 5926431.719887326 5926431.719887324 12983768.89413371 0 0 0 0 0 113529490.0611102 6487853.66233826 6487853.66233826 7968443.535396758 0 0 0 0 0 112428893.4769673 5812089.033887992 5812089.033887992 13314452.63805741 0 0 0 0 0 115046780.375877 6182678.775847323 6182678.775847323 16158677.81348511 0 0 0 0 0 115566463.5981992 7045013.005739858 7045013.005739858 10576312.85309464 0 0 0 0 0 115007605.4954877 3825166.7307247 3825166.7307247 21504417.53328528 0 0 0 0 0 117555327.0541322 62369.71440008933 62369.71440008943 26218462.7721081 0 0 0 0 0 121383410.4863302 4073642.978239799 4073642.978239799 25452554.53273971 0 0 0 0 0 115414462.5516614 3789330.138325085 3789330.138325084 22387085.11922964 0 0 0 0 0 119498817.44479 6644216.680516936 6644216.680516936 18723055.62001286 0 0 0 0 0 114905385.7419747 6166328.792910608 6166328.792910608 16349634.53629817 0 0 0 0 0 109792282.4370886 4878967.548812689 4878967.548812689 3615166.398831536 0 0 0 0 0 109270103.9598164 5199267.951777435 5199267.951777435 7759115.644221375 0 0 0 0 0 111377649.0568931 5529956.347168598 5529956.347168598 5245248.114685737 0 0 0 0 0 111479218.3938507 5636053.351103865 5636053.351103865 5019819.77305614 0 0 0 0 0 110873525.2079833 5741234.270704737 5741234.270704737 10303129.0512095 0 0 0 0 0 113244468.985332 6255469.0928696 6255469.0928696 7536644.802911628 0 0 0 0 0 113336398.0309728 6419120.403370188 6419120.403370188 7287748.677390829 0 0 0 0 0 112759858.9650191 6024859.03079384 6024859.03079384 13787114.71774244 0 0 0 0 0 115326238.4309367 6833363.942525354 6833363.942525354 9996779.389250882 0 0 0 0 0 115256958.0199532 6252565.644539347 6252565.644539347 16976197.54992459 0 0 0 0 0 118603542.2765471 7397742.266067363 7397742.266067363 11174203.37681426 0 0 0 0 0 115406748.7998539 6981406.37818749 6981406.37818749 9942911.567610884 0 0 0 0 0 117132702.1492346 -223931.2787419669 -223931.2787419669 25162665.22524983 0 0 0 0 0 125989015.5029854 334012.8051798009 334012.805179801 30514698.82834073 0 0 0 0 0 121634194.4731492 4273856.681256883 4273856.681256883 26687440.99124004 0 0 0 0 0 114976238.8171982 3480990.575433809 3480990.575433809 21500293.89341668 0 0 0 0 0 121490951.6672812 4517465.906361964 4517465.906361964 25477997.87181612 0 0 0 0 0 119793439.2496742 6887107.324678348 6887107.324678348 19570149.23452708 0 0 0 0 0 119723880.1634565 6984264.914737514 6984264.914737514 18711460.95372521 0 0 0 0 0 118768724.9446635 7525288.284975063 7525288.284975063 11640519.45311894 0 0 0 0 0 114898765.522714 6022007.776516964 6022007.776516964 16380604.44289905 0 0 0 0 0 109685497.2492032 4816720.477504765 4816720.477504765 3740373.731700431 0 0 0 0 0 111531711.6956252 5609962.167033702 5609962.167033701 5082615.043041418 0 0 0 0 0 111859164.4239774 4517738.079010574 4517738.079010574 1125548.546510842 0 0 0 0 0 111417112.7491951 5548720.27566033 5548720.27566033 5236741.838487257 0 0 0 0 0 113368392.9947602 6359743.740216821 6359743.740216821 7263384.540230909 0 0 0 0 0 113687356.9675543 5334671.949009453 5334671.949009453 2487722.028132441 0 0 0 0 0 117065509.0821751 6455096.496434432 6455096.496434435 4713120.152326891 0 0 0 0 0 113146530.2968825 6291570.804385457 6291570.804385456 7586585.249052414 0 0 0 0 0 115539935.931324 6891790.410290475 6891790.410290475 9835687.681184944 0 0 0 0 0 118736991.8503457 7543099.257233993 7543099.257233993 11121133.4957164 0 0 0 0 0 116812313.0705972 6285053.761260108 6285053.761260108 4191149.974248386 0 0 0 0 0 115591297.8621329 6904742.814760114 6904742.814760114 10035332.28618651 0 0 0 0 0 126328530.2152091 89953.9597682131 89953.9597682131 31958093.59973691 0 0 0 0 0 133016869.643723 4253661.268008097 4253661.268008097 30095537.97859482 0 0 0 0 0 121034571.5409875 4661273.988189661 4661273.988189661 25499899.50323327 0 0 0 0 0 119497189.1891661 7041198.6727611 7041198.6727611 18687954.29320761 0 0 0 0 0 121683475.7997761 4463971.587052961 4463971.587052961 26419410.32332424 0 0 0 0 0 127334038.5802276 6947182.923307641 6947182.92330764 21328605.34377952 0 0 0 0 0 119853162.3897269 6967053.599244293 6967053.599244293 19264245.24565642 0 0 0 0 0 124378128.1672392 7628860.859193836 7628860.859193836 11533655.49646941 0 0 0 0 0 118623604.4462815 7567704.862737303 7567704.862737303 11113480.70430905 0 0 0 0 0 109989955.5055345 3827505.587991416 3827505.587991416 377742.1714446409 0 0 0 0 0 109910987.3276377 4940990.228224586 4940990.228224586 3949227.847902033 0 0 0 0 0 111605839.6728794 4373575.312756902 4373575.312756902 882103.5841483006 0 0 0 0 0 111738279.8288254 4438433.170328584 4438433.170328584 718724.7443947864 0 0 0 0 0 111654610.6393805 5692308.716145351 5692308.716145351 5496301.14089511 0 0 0 0 0 113425608.0500181 5175554.87106455 5175554.87106455 2199678.269058954 0 0 0 0 0 113528880.5576895 6488679.042259789 6488679.042259789 7864289.304097462 0 0 0 0 0 116675895.1979347 6165812.2080845 6165812.2080845 4327651.80467609 0 0 0 0 0 113529133.5243168 5253751.985797695 5253751.985797695 1917199.324154165 0 0 0 0 0 121916483.9000958 6178659.516981983 6178659.516981983 3378068.95483936 0 0 0 0 0 116719441.9882595 6370800.834987563 6370800.834987563 4313498.92197232 0 0 0 0 0 118794598.8950427 7498058.031800605 7498058.031800605 11139470.5315458 0 0 0 0 0 125853321.1054192 -231176.5073560995 -231176.5073560995 30691629.88425244 0 0 0 0 0 142863367.3033168 483912.7716891578 483912.7716891574 36305368.04907325 0 0 0 0 0 132966175.1618046 4282382.211375576 4282382.211375577 31536978.12116253 0 0 0 0 0 121442312.6137871 4251096.217471235 4251096.217471235 25619989.11271993 0 0 0 0 0 132568737.4477313 4816428.76858726 4816428.76858726 29964161.17748975 0 0 0 0 0 127380542.080151 7073063.738390851 7073063.738390851 22089595.22214391 0 0 0 0 0 124372424.3295981 7678306.079046114 7678306.079046114 11933849.20077448 0 0 0 0 0 119726050.294399 6850725.696947389 6850725.696947389 18791741.60798762 0 0 0 0 0 127198854.0337452 7347271.059441879 7347271.059441879 21212580.23259963 0 0 0 0 0 124285303.8048804 7727096.276830018 7727096.276830018 11482521.20799053 0 0 0 0 0 121702696.9446537 6068082.872461179 6068082.872461179 3250666.713178408 0 0 0 0 0 118900156.9947473 7552130.858898103 7552130.858898103 11198034.30272536 0 0 0 0 0 111404984.6306888 2678566.802259191 2678566.802259191 -2264181.258190629 0 0 0 0 0 109881709.0771282 3799336.772051222 3799336.772051222 435004.120536937 0 0 0 0 0 111747536.5608414 4392715.789002256 4392715.789002256 838343.0384673259 0 0 0 0 0 113857473.7293486 3027393.069359273 3027393.069359274 -2489576.408699548 0 0 0 0 0 111590186.5858948 4391999.042300606 4391999.042300604 919036.360812031 0 0 0 0 0 113572932.8249439 5228517.423307179 5228517.423307179 1981911.41831114 0 0 0 0 0 116967096.17889 6284661.719301743 6284661.719301743 4017759.805310239 0 0 0 0 0 115913741.2288677 4218868.008427911 4218868.00842791 -851048.540584476 0 0 0 0 0 113396014.2405188 5156693.257019199 5156693.2570192 2148523.361257511 0 0 0 0 0 118813318.8903288 3620817.482489443 3620817.482489443 -2362439.894391328 0 0 0 0 0 117081880.4812593 6434558.173388455 6434558.173388455 4386582.32014009 0 0 0 0 0 121640807.0369134 6103452.966061274 6103452.966061274 3333783.888185333 0 0 0 0 0 131693616.9423423 5069126.184931089 5069126.184931089 29977595.82226206 0 0 0 0 0 143311327.9420041 175451.3691250964 175451.3691250964 37642440.45867008 0 0 0 0 0 155630437.8639251 1377369.041808312 1377369.041808312 34252388.45661647 0 0 0 0 0 126534394.8118199 7609381.747068121 7609381.747068121 21118480.70866311 0 0 0 0 0 132969925.9177939 4559126.521550883 4559126.521550883 30806093.33213184 0 0 0 0 0 141563883.6819665 5012213.048324822 5012213.048324822 24253974.52557102 0 0 0 0 0 133610687.4282109 6147270.768946615 6147270.768946615 12533737.12910461 0 0 0 0 0 123980692.0270433 7961224.749355861 7961224.749355861 11276730.2906715 0 0 0 0 0 127360749.115335 7293722.903852689 7293722.903852689 21830299.87033358 0 0 0 0 0 124353726.9570433 7646652.409972207 7646652.409972207 11475519.17176602 0 0 0 0 0 128189092.3414335 4573415.292226768 4573415.292226768 1932147.502901322 0 0 0 0 0 121549136.1492844 6232986.966466558 6232986.966466558 3199099.412796874 0 0 0 0 0 109627369.4483782 2347450.09634536 2347450.09634536 -2086373.394013364 0 0 0 0 0 110042582.0366008 3869304.977973645 3869304.977973645 546371.9179466973 0 0 0 0 0 111224570.0904001 2595968.036642571 2595968.036642571 -2396222.942330448 0 0 0 0 0 111344335.0124269 2609967.32494486 2609967.32494486 -2440400.932853906 0 0 0 0 0 111834602.2045125 4501819.379747653 4501819.379747654 1087098.878674196 0 0 0 0 0 113520694.4231465 2872989.712773535 2872989.712773535 -2725533.505526706 0 0 0 0 0 115738188.0854333 4083419.561547404 4083419.561547404 -1016482.474362959 0 0 0 0 0 113589603.6079105 2820530.028142806 2820530.028142806 -3013075.726867415 0 0 0 0 0 113799390.3814414 5393392.811769364 5393392.811769364 2454132.566544808 0 0 0 0 0 119023784.4132666 3747641.400676786 3747641.400676786 -2097931.898620325 0 0 0 0 0 115866935.5924501 4161602.181662764 4161602.181662764 -1077216.021422687 0 0 0 0 0 117006364.0513102 6381473.082522263 6381473.082522263 4261081.231696538 0 0 0 0 0 123216887.6541575 1733126.804750967 1733126.804750967 -4810452.816093809 0 0 0 0 0 118716751.8909139 3758060.218691982 3758060.218691982 -2128237.502638524 0 0 0 0 0 121695872.1813463 5972573.715450503 5972573.715450503 2894821.592504222 0 0 0 0 0 143095570.4690369 21627.02989734056 21627.02989734061 36769912.50989211 0 0 0 0 0 180316775.7461542 457498.5353390009 457498.5353390008 38489919.08432163 0 0 0 0 0 154299109.1222698 621313.7817005864 621313.7817005864 34837667.30916886 0 0 0 0 0 133509825.3824508 4707503.968803426 4707503.968803426 30560777.4872271 0 0 0 0 0 153069087.3152443 1905964.749676874 1905964.749676874 33427804.93354968 0 0 0 0 0 140680503.2651509 4802904.429317506 4802904.429317506 24834543.58714454 0 0 0 0 0 133109298.974048 6064326.958670313 6064326.958670313 12836644.09572031 0 0 0 0 0 127815997.7929237 7367673.496555718 7367673.496555717 21549439.97294134 0 0 0 0 0 140100645.2545544 5460424.935820181 5460424.935820181 23722330.45819895 0 0 0 0 0 132752818.1302488 6414666.990824526 6414666.990824526 12174662.47322849 0 0 0 0 0 127618081.8006188 4357968.627906992 4357968.627906992 1722042.769358902 0 0 0 0 0 124818820.5156287 7804498.474035557 7804498.474035557 11577568.59100419 0 0 0 0 0 127424880.5171415 4514725.013977231 4514725.013977231 1758727.647129357 0 0 0 0 0 122536711.5838978 1361976.457564831 1361976.457564831 -5504122.596137036 0 0 0 0 0 122306069.0551434 6275260.752704106 6275260.752704106 3378901.198415111 0 0 0 0 0 109549338.5515272 2352391.559542364 2352391.559542364 -2090500.343596247 0 0 0 0 0 111364415.9898365 2593814.667629295 2593814.667629295 -2400347.868815435 0 0 0 0 0 110366913.8509567 382630.6859847279 382630.6859847279 -4851652.34755077 0 0 0 0 0 111273515.4355675 2593649.910266528 2593649.910266528 -2408130.129262432 0 0 0 0 0 113641064.7826275 2869024.069284412 2869024.069284412 -2725702.613100648 0 0 0 0 0 111924856.6224315 740652.6323989182 740652.6323989182 -4946670.364633117 0 0 0 0 0 115912173.0724474 4049613.154326508 4049613.154326508 -1315442.141940047 0 0 0 0 0 116208049.7375275 1395162.943466978 1395162.943466978 -5192896.004375015 0 0 0 0 0 113407984.3730527 2847955.785166482 2847955.785166482 -2642673.296397291 0 0 0 0 0 118810658.2871441 3678266.161635693 3678266.161635693 -2086721.866942146 0 0 0 0 0 115815788.9644963 1159728.722638937 1159728.722638937 -5693809.896763428 0 0 0 0 0 116107491.3342978 4170628.540525557 4170628.540525557 -1033358.027102541 0 0 0 0 0 118049144.6924903 -1400009.580208819 -1400009.580208819 -8879951.521483049 0 0 0 0 0 119430713.5389225 3934218.477260589 3934218.477260589 -2012475.21270034 0 0 0 0 0 122432604.9323807 1514268.33520289 1514268.33520289 -4926222.834253825 0 0 0 0 0 150919056.2838795 2369830.888815922 2369830.888815922 33780755.92392489 0 0 0 0 0 183149253.8680248 -830048.577116285 -830048.577116285 37415109.47933251 0 0 0 0 0 196616915.5245895 -10746061.53790942 -10746061.53790942 31745480.11211936 0 0 0 0 0 139035321.7116103 5820117.584535155 5820117.584535155 23518393.12103515 0 0 0 0 0 154433143.4484015 1065246.125315765 1065246.125315765 34392655.84070371 0 0 0 0 0 162755572.6315959 -3029428.762434367 -3029428.762434367 26437525.12649997 0 0 0 0 0 147182419.0324517 -365441.8647878788 -365441.8647878788 14212452.16052392 0 0 0 0 0 131952657.4993174 6933793.367525217 6933793.367525217 11785643.4472934 0 0 0 0 0 140808640.5838302 4916901.159949391 4916901.159949391 24256141.76601824 0 0 0 0 0 135419416.4818633 -155852.9428483404 -155852.9428483404 -98028.16780443536 0 0 0 0 0 127203350.8016353 4792737.003272433 4792737.003272433 1493859.176775296 0 0 0 0 0 133072002.7734881 6048169.373837691 6048169.373837691 12219800.15870974 0 0 0 0 0 127616471.4402146 4175732.26718995 4175732.26718995 1051186.893574834 0 0 0 0 0 126949985.3170338 -2701264.034259466 -2701264.034259466 -8406284.110567272 0 0 0 0 0 122341696.0551048 1648688.499456363 1648688.499456364 -5085418.132230719 0 0 0 0 0 108787650.7053952 778004.1622004913 778004.1622004913 -3725848.103923887 0 0 0 0 0 109623003.7023939 2364957.446080178 2364957.446080178 -2071043.182187347 0 0 0 0 0 110275152.0059146 386253.9629780904 386253.9629780905 -4845426.095825579 0 0 0 0 0 110299561.9673096 292332.8394643182 292332.8394643182 -4971191.424136032 0 0 0 0 0 111395958.2488904 2635190.879381867 2635190.879381867 -2343154.604899108 0 0 0 0 0 111875304.9883341 760607.1084332991 760607.1084332991 -4914724.504672538 0 0 0 0 0 113586613.2146626 2848235.994371994 2848235.994371994 -2953389.624915143 0 0 0 0 0 113584138.9186042 -603211.4779228405 -603211.4779228405 -6791859.94368386 0 0 0 0 0 111917485.4046005 784514.8556229763 784514.8556229763 -4907609.366807414 0 0 0 0 0 113923844.0858002 3050678.297299904 3050678.297299904 -2527067.164760103 0 0 0 0 0 115838950.0703044 1276078.98568145 1276078.98568145 -5280333.622394813 0 0 0 0 0 113235240.1553454 -817853.4312384238 -817853.431238424 -7255900.977369142 0 0 0 0 0 118701283.1782959 -1025894.658800227 -1025894.658800228 -8130960.903927494 0 0 0 0 0 115787878.0372797 1257810.360976408 1257810.360976407 -5334773.262791459 0 0 0 0 0 118793488.5187996 3597020.793289619 3597020.793289619 -2604959.779079697 0 0 0 0 0 120253999.1631252 -5390910.43833492 -5390910.43833492 -11745851.56120008 0 0 0 0 0 117932105.0431917 -1173361.735310676 -1173361.735310677 -8310449.608602927 0 0 0 0 0 122532168.342362 1256092.695939148 1256092.695939148 -5763431.500186699 0 0 0 0 0 185245612.7059782 1054603.173433398 1054603.173433398 38719209.65557953 0 0 0 0 0 277930755.8961676 -4156397.545470111 -4156397.54547011 10637104.50655682 0 0 0 0 0 189995469.7977543 -17865537.00964109 -17865537.00964109 34336138.94786756 0 0 0 0 0 157740359.8098134 2772094.351704024 2772094.351704024 35867413.01842026 0 0 0 0 0 186469303.4215339 -11875885.37729002 -11875885.37729002 28559139.70496479 0 0 0 0 0 159564473.6336184 -4400632.172806947 -4400632.172806947 27677518.08988547 0 0 0 0 0 145497836.7017378 -917906.9008344231 -917906.9008344231 13831194.50886235 0 0 0 0 0 142625820.7752846 5507108.819839078 5507108.819839078 24646301.6291837 0 0 0 0 0 158748004.9663714 -2521883.210424093 -2521883.210424093 25129773.18162736 0 0 0 0 0 133870182.1680348 -732376.2350325147 -732376.2350325147 -555891.4394003856 0 0 0 0 0 134773745.59309 6669090.602448323 6669090.602448323 12670751.49829579 0 0 0 0 0 143879617.3339719 299614.2449077743 299614.2449077744 12999772.98200054 0 0 0 0 0 133280856.299554 -270880.8401699983 -270880.8401699983 -617818.4993055225 0 0 0 0 0 125651720.9682906 -3365272.287295995 -3365272.287295995 -9497925.900895724 0 0 0 0 0 129005419.5284335 4833508.179207968 4833508.179207968 1958949.714382302 0 0 0 0 0 125362287.9657835 -3020979.120559938 -3020979.120559938 -8677209.909880443 0 0 0 0 0 119177851.8106922 -5979177.399047562 -5979177.399047562 -12841973.30537505 0 0 0 0 0 123702618.6083911 1845132.684771324 1845132.684771324 -4815467.525564781 0 0 0 0 0 108524274.0340781 -1181208.111191926 -1181208.111191926 -5644581.966950662 0 0 0 0 0 108802087.7969786 800432.4744703139 800432.4744703139 -3752747.938359734 0 0 0 0 0 110234080.995235 326872.7576860624 326872.7576860624 -4774487.03275633 0 0 0 0 0 111211542.12778 -1681954.568424167 -1681954.568424167 -6966470.076177432 0 0 0 0 0 110137204.2608171 318168.8887139665 318168.8887139665 -4847538.954853156 0 0 0 0 0 111955302.2597187 764593.9811446862 764593.9811446862 -5052655.266678916 0 0 0 0 0 113148139.1935973 -753060.6683921753 -753060.6683921753 -6849797.763727334 0 0 0 0 0 110925271.0496457 -1846699.638557128 -1846699.638557128 -7273893.152518571 0 0 0 0 0 112186902.2982226 889171.2869933336 889171.2869933336 -4876852.046529442 0 0 0 0 0 115862252.1912198 1130238.739776784 1130238.739776784 -5808871.808628134 0 0 0 0 0 114679443.5960048 -3179385.615144445 -3179385.615144445 -9295477.733240999 0 0 0 0 0 113201534.7848035 -692139.1938589754 -692139.1938589752 -6868758.502111927 0 0 0 0 0 117956196.4922584 -1237343.565942819 -1237343.565942819 -8231887.874066402 0 0 0 0 0 114136610.3526558 -3493908.228960873 -3493908.228960873 -9934271.820309246 0 0 0 0 0 116437294.870155 1440363.962399381 1440363.962399381 -5245977.925075455 0 0 0 0 0 114082295.6327507 -7576926.521954661 -7576926.521954661 -13027207.01997568 0 0 0 0 0 118964941.9344535 -975890.8932943663 -975890.8932943663 -8126969.754790645 0 0 0 0 0 118972059.5234985 -5682862.574945741 -5682862.574945741 -11951111.61710973 0 0 0 0 0 306682046.6179149 -12612664.23770788 -12612664.23770788 3256210.771412449 0 0 0 0 0 266726464.3963251 -64889425.43106882 -64889425.43106882 23510028.05247537 0 0 0 0 0 170301432.5035925 -8679769.208731595 -8679769.208731594 29224181.27100316 0 0 0 0 0 194016371.1926321 -15698595.85442176 -15698595.85442176 32944532.18632989 0 0 0 0 0 169971916.5165433 -20585859.72543479 -20585859.72543479 21592237.89201101 0 0 0 0 0 157683761.6739104 -3452033.160453726 -3452033.160453726 26615073.15879567 0 0 0 0 0 168962001.5705289 -20526793.00378605 -20526793.00378605 21588833.73244004 0 0 0 0 0 143080573.249978 1339436.350123317 1339436.350123317 11616592.31119699 0 0 0 0 0 159968083.6177189 -3570729.067464478 -3570729.067464478 26642476.34587075 0 0 0 0 0 132689590.9879751 448280.2932293237 448280.2932293237 -1372455.412461953 0 0 0 0 0 145106461.1223429 -963607.7408200996 -963607.7408200996 13695209.26767864 0 0 0 0 0 140783865.5543115 -11027033.83347418 -11027033.83347418 -512507.1763470924 0 0 0 0 0 127366859.5421026 -10860852.74672797 -10860852.74672797 -12143247.11445203 0 0 0 0 0 125221540.132465 -2771356.748845649 -2771356.748845649 -8985147.034923451 0 0 0 0 0 133855878.0033201 -1090044.116604879 -1090044.116604879 -1418453.997001634 0 0 0 0 0 125629792.542432 -3538214.982715051 -3538214.982715051 -9722935.637935361 0 0 0 0 0 118880357.0829619 -12264265.74199048 -12264265.74199048 -15543052.98847606 0 0 0 0 0 118971397.6688309 -5590561.303350972 -5590561.303350972 -12084629.40014784 0 0 0 0 0 107625526.9251189 -669450.2538952196 -669450.2538952196 -4661790.148716995 0 0 0 0 0 108741309.0409705 754514.964089473 754514.964089473 -3835868.081053985 0 0 0 0 0 108603872.7825689 -1115527.351751537 -1115527.351751537 -5524253.813906586 0 0 0 0 0 108536369.8658319 -1129862.851344442 -1129862.851344442 -5497052.17064347 0 0 0 0 0 110200263.8538965 261404.0546427206 261404.0546427206 -5032344.415233488 0 0 0 0 0 109317812.3907659 -2407228.978201512 -2407228.978201512 -6855868.8194577 0 0 0 0 0 110506333.914718 426414.3957836338 426414.3957836338 -4733140.063490176 0 0 0 0 0 110866657.8485693 -1762590.584100055 -1762590.584100056 -7072650.718072765 0 0 0 0 0 109107478.5324195 -2526165.09716344 -2526165.097163439 -7088884.531298047 0 0 0 0 0 111304888.0604464 -4353638.669039685 -4353638.669039685 -9076964.355259702 0 0 0 0 0 110859796.1151937 -1790846.970627151 -1790846.970627151 -7121844.727072603 0 0 0 0 0 113218030.8392358 -821421.2586871082 -821421.2586871082 -7184828.985671083 0 0 0 0 0 114031881.5524436 -3352539.408245347 -3352539.408245347 -9408999.386377163 0 0 0 0 0 110899134.2627487 -4592641.57448327 -4592641.57448327 -9544468.037504492 0 0 0 0 0 113650936.0559058 -577045.0946596506 -577045.0946596506 -6787996.284628566 0 0 0 0 0 114889640.6897732 -7135862.883574356 -7135862.883574356 -12206368.85045877 0 0 0 0 0 114048754.1548366 -3300842.128221553 -3300842.128221553 -9452004.709976468 0 0 0 0 0 118027702.3828127 -1450911.396193767 -1450911.396193767 -8901518.650951197 0 0 0 0 0 112529629.8659898 -12963280.43133171 -12963280.43133171 -15125848.3342845 0 0 0 0 0 113921689.7710275 -7295359.035634194 -7295359.035634194 -12435757.9612986 0 0 0 0 0 119169592.7060378 -6039793.3549547 -6039793.3549547 -12734115.40272273 0 0 0 0 0 231221127.8795035 -58818627.89449695 -58818627.89449695 13507524.43045013 0 0 0 0 0 167843506.7352775 -25772051.22474355 -25772051.22474355 30156810.20819032 0 0 0 0 0 199220029.3332055 -9925995.336643115 -9925995.336643115 36232404.51104875 0 0 0 0 0 148994703.4355218 225326.6928314549 225326.6928314542 13666390.48298456 0 0 0 0 0 160763022.6892707 -19684006.19619114 -19684006.19619114 19564783.90275815 0 0 0 0 0 136970825.003844 -11795793.87387678 -11795793.87387678 1224236.930627762 0 0 0 0 0 125248988.9527304 -11829043.7943525 -11829043.7943525 -13332776.48069667 0 0 0 0 0 136542422.7787377 83027.85630513195 83027.85630513178 -186809.786514146 0 0 0 0 0 135922586.8334574 -11006669.68345927 -11006669.68345927 -1734390.22094685 0 0 0 0 0 124676830.1343629 -11273973.68945993 -11273973.68945993 -12656731.94650044 0 0 0 0 0 117359530.8733679 -13062446.25184758 -13062446.25184758 -16934830.94589292 0 0 0 0 0 127506050.4338571 -2643939.309491122 -2643939.309491122 -8438109.793354876 0 0 0 0 0 117006334.4453417 -12614622.0737644 -12614622.0737644 -15847430.08189548 0 0 0 0 0 111473578.0644255 -13518309.43268382 -13518309.43268382 -16094695.22152675 0 0 0 0 0 120471031.1871383 -5407605.613491138 -5407605.613491138 -11789094.07316494 0 0 0 0 0 107650878.1705371 -652578.09794801 -652578.09794801 -4690589.424311413 0 0 0 0 0 108543287.1959991 -1138471.25190628 -1138471.25190628 -5484226.232528376 0 0 0 0 0 107005951.4947464 -2362043.154237519 -2362043.154237519 -5876470.646915419 0 0 0 0 0 108682809.2191126 -1076702.036458594 -1076702.036458594 -5493235.398018287 0 0 0 0 0 109027293.4138743 -2494548.694818549 -2494548.694818549 -6874620.636453543 0 0 0 0 0 107532834.2452602 -3048869.740967149 -3048869.740967149 -6668468.470093729 0 0 0 0 0 110975159.9811412 -1857469.035215032 -1857469.035215032 -7286546.757463081 0 0 0 0 0 108774332.8221782 -4811180.415350921 -4811180.415350921 -8378958.6081819 0 0 0 0 0 109032254.8455711 -2458781.042368921 -2458781.042368921 -6914020.890700568 0 0 0 0 0 110796248.2767981 -4449826.963286825 -4449826.963286825 -9220786.504347511 0 0 0 0 0 108551047.2490287 -4946377.329240152 -4946377.329240152 -8626715.708051311 0 0 0 0 0 111255031.2454385 -1690011.990934323 -1690011.990934323 -7012330.55638754 0 0 0 0 0 114139613.2862579 -3502665.767742108 -3502665.767742108 -9852059.269727772 0 0 0 0 0 110552548.7681617 -7991666.857114309 -7991666.857114309 -11292585.90214827 0 0 0 0 0 110789592.644146 -4459834.793141443 -4459834.793141443 -9255582.379762195 0 0 0 0 0 113902693.2659365 -7342091.84821961 -7342091.84821961 -12360675.23940739 0 0 0 0 0 109949169.137806 -8318594.075223891 -8318594.075223891 -11862241.75626947 0 0 0 0 0 114802579.6302702 -3159995.890166053 -3159995.890166053 -9325524.854272952 0 0 0 0 0 111224052.5620229 -13170525.48051507 -13170525.48051507 -15358733.34560971 0 0 0 0 0 107177147.0152086 -13168606.49433468 -13168606.49433468 -13912106.88454324 0 0 0 0 0 114966450.9527024 -7170258.222615588 -7170258.222615588 -12227784.01033879 0 0 0 0 0 254751743.6506824 -71226764.10176158 -71226764.10176158 28274315.22220193 0 0 0 0 0 165267439.3140709 -87661261.42251544 -87661261.42251547 47662452.94567574 0 0 0 0 0 151969026.6308247 -15270497.99123562 -15270497.99123562 14992149.68004755 0 0 0 0 0 166989836.2088338 -26321734.23030246 -26321734.23030245 26029811.15321235 0 0 0 0 0 129827505.5140805 -32221762.29589112 -32221762.29589112 7399105.687366053 0 0 0 0 0 133528206.97823 -8615306.90711868 -8615306.90711868 -3839624.72654399 0 0 0 0 0 116885828.7268212 -23235201.11330988 -23235201.11330988 -13934240.71379316 0 0 0 0 0 124445809.1497022 -10781490.75087033 -10781490.75087033 -13266174.90710834 0 0 0 0 0 137524655.523098 -12924574.54415125 -12924574.54415125 -1258425.385079759 0 0 0 0 0 125209705.5243351 -12120876.95625631 -12120876.95625631 -13694424.16037099 0 0 0 0 0 110325673.4795321 -21746721.04284657 -21746721.04284657 -18541322.97590398 0 0 0 0 0 117090386.3576252 -12546385.87346402 -12546385.87346402 -16025114.0400628 0 0 0 0 0 117325407.3515954 -13138170.58036315 -13138170.58036315 -16636554.65375144 0 0 0 0 0 105130529.9392469 -20485005.80109764 -20485005.80109764 -17283565.57525844 0 0 0 0 0 111290160.2371034 -13172804.52271735 -13172804.52271735 -15434101.16831712 0 0 0 0 0 106321071.8934654 -1848701.708326062 -1848701.708326062 -5021401.15479506 0 0 0 0 0 107582751.2018117 -694361.4476323711 -694361.4476323711 -4761369.057012252 0 0 0 0 0 107075237.2870375 -2310857.417594638 -2310857.417594638 -5787983.396565291 0 0 0 0 0 107038908.7545613 -2342701.615115482 -2342701.615115482 -5753950.675825878 0 0 0 0 0 108501223.6968853 -1165663.492734675 -1165663.492734675 -5642050.094341989 0 0 0 0 0 107626402.1174031 -2999511.397356546 -2999511.397356546 -6578708.626225888 0 0 0 0 0 109076156.5494321 -2554527.676702016 -2554527.676702016 -7004171.177427774 0 0 0 0 0 106996200.5158935 -4737328.872216045 -4737328.872216045 -7501775.915900019 0 0 0 0 0 107496099.7991711 -3003456.875316401 -3003456.875316401 -6568511.150457397 0 0 0 0 0 108441595.0519611 -4879091.412175788 -4879091.412175788 -8488937.212356271 0 0 0 0 0 106906716.2898356 -4797619.08540588 -4797619.08540588 -7584577.17610147 0 0 0 0 0 109260256.5468251 -2430204.370367846 -2430204.370367846 -6841680.934259549 0 0 0 0 0 110940961.2328931 -4578848.389998976 -4578848.389998976 -9475164.95951177 0 0 0 0 0 106902491.809571 -8472353.289332328 -8472353.289332328 -9940157.620268293 0 0 0 0 0 108429665.7758599 -4843073.495800331 -4843073.495800331 -8485304.190432828 0 0 0 0 0 111409786.0400591 -4340394.887006713 -4340394.887006714 -9135489.068825591 0 0 0 0 0 109826177.1339551 -8123869.670098836 -8123869.670098835 -11436515.52239879 0 0 0 0 0 106430541.0811421 -8710582.091561325 -8710582.091561327 -10270779.17947206 0 0 0 0 0 114060345.6266336 -7602164.086553442 -7602164.086553442 -12856128.65076081 0 0 0 0 0 107911606.6032677 -12803001.46932601 -12803001.46932601 -13330039.8671447 0 0 0 0 0 109815895.5970801 -8102395.177982613 -8102395.177982613 -11462533.8112917 0 0 0 0 0 111460466.0045833 -13523929.5438794 -13523929.5438794 -15758499.12422812 0 0 0 0 0 101469829.5237964 -18618590.17574014 -18618590.17574014 -14476575.67020017 0 0 0 0 0 107033993.8796005 -12925781.49220528 -12925781.49220528 -13539311.99545613 0 0 0 0 0 177032615.2057355 -21819929.57473141 -21819929.57473141 21799098.65113878 0 0 0 0 0 142245582.6788928 -76044923.64639708 -76044923.64639708 40225052.29358933 0 0 0 0 0 125479416.5124265 -33730237.12089022 -33730237.12089022 14022434.64194259 0 0 0 0 0 122158581.3896602 -31247426.80827259 -31247426.80827259 4874830.551550125 0 0 0 0 0 114385110.390264 -24197721.84811947 -24197721.84811947 -14387518.62895918 0 0 0 0 0 141990336.8489271 -11158757.28787507 -11158757.28787507 -208429.4844981023 0 0 0 0 0 113677095.6481051 -23853469.3755846 -23853469.3755846 -14462663.38021824 0 0 0 0 0 108629895.6636309 -22648639.87736965 -22648639.87736965 -20159504.13222445 0 0 0 0 0 127696539.1067144 -11007139.50704182 -11007139.50704182 -12289994.87763184 0 0 0 0 0 118854043.2763595 -12420103.16947339 -12420103.16947339 -15629742.62950989 0 0 0 0 0 108245642.2180028 -22196255.56003201 -22196255.56003201 -18847560.81818073 0 0 0 0 0 104030371.6225121 -21059408.89842392 -21059408.89842392 -18279653.37421616 0 0 0 0 0 112415970.2123768 -13089818.30886271 -13089818.30886271 -15188351.01052996 0 0 0 0 0 103751727.4817797 -20691064.30155234 -20691064.30155234 -17526638.56514768 0 0 0 0 0 100796269.796736 -18939228.06419683 -18939228.06419683 -14946031.49746103 0 0 0 0 0 106334644.9704746 -1835664.563493639 -1835664.563493639 -5054002.369917704 0 0 0 0 0 107042269.0966505 -2319239.631584892 -2319239.631584892 -5760646.6229843 0 0 0 0 0 105723748.0867131 -3197481.940132419 -3197481.940132419 -5782413.634570994 0 0 0 0 0 105665228.0528774 -4316752.633901034 -4316752.633901034 -6615893.341078832 0 0 0 0 0 107115667.2485695 -2313194.380671985 -2313194.380671985 -5804263.782602848 0 0 0 0 0 107534421.3470822 -3027377.338779852 -3027377.338779852 -6530688.045363436 0 0 0 0 0 106837975.644654 -4768125.147686936 -4768125.147686938 -7556229.74579721 0 0 0 0 0 105710495.42778 -4283949.499513141 -4283949.499513141 -6499808.237145565 0 0 0 0 0 107531180.2465654 -3013781.204488484 -3013781.204488483 -6561265.631181191 0 0 0 0 0 108536768.4454768 -4936751.429285862 -4936751.429285862 -8478592.473770035 0 0 0 0 0 105287018.6268352 -7225995.379382052 -7225995.379382052 -8354924.3642555 0 0 0 0 0 106830719.4771178 -4752390.982997479 -4752390.982997479 -7551799.372627709 0 0 0 0 0 106477576.4460329 -8490059.868391745 -8490059.868391745 -10067477.61537749 0 0 0 0 0 105247562.5550472 -7254831.719032565 -7254831.719032565 -8337341.842633209 0 0 0 0 0 108705003.352956 -4819728.082871419 -4819728.082871419 -8402903.999564294 0 0 0 0 0 109917770.7465475 -8339391.695573867 -8339391.695573867 -11741843.46641516 0 0 0 0 0 104645690.8785133 -12174322.03768116 -12174322.03768116 -11315492.64199428 0 0 0 0 0 106323798.030214 -8457843.974101694 -8457843.974101694 -9909787.278499629 0 0 0 0 0 110617687.1666955 -8038587.428465237 -8038587.428465237 -11303903.80874641 0 0 0 0 0 106987872.1149179 -12898779.21510484 -12898779.21510484 -13498814.05869788 0 0 0 0 0 104095042.7573595 -12406523.59180564 -12406523.59180564 -11644780.5017553 0 0 0 0 0 107795563.7027963 -12910419.73539517 -12910419.73539517 -13351576.02378049 0 0 0 0 0 100588607.0015829 -18681066.2878614 -18681066.2878614 -14668628.41360399 0 0 0 0 0 98634438.75287424 -16809685.63751455 -16809685.63751455 -11926251.54459885 0 0 0 0 0 150605992.8945478 -81590739.54828234 -81590739.54828234 55713462.07650747 0 0 0 0 0 57133650.1919618 -57596283.63736963 -57596283.63736963 47687488.65249307 0 0 0 0 0 121102870.5239304 -29489703.00395337 -29489703.00395337 2375093.399484659 0 0 0 0 0 125507114.8036501 -34785147.29798817 -34785147.29798817 9656429.253033319 0 0 0 0 0 72280121.81218663 -31871217.37168004 -31871217.37168004 -11965200.78860919 0 0 0 0 0 114161525.4133939 -23923491.07830995 -23923491.07830996 -14614925.09748347 0 0 0 0 0 114170772.6317317 -24668090.78510028 -24668090.78510028 -15563944.24735425 0 0 0 0 0 87436092.76880574 -30739653.56990371 -30739653.56990371 -19311504.59371627 0 0 0 0 0 108766364.8569307 -22492962.5481502 -22492962.5481502 -18794572.773899 0 0 0 0 0 103998783.6171458 -20839144.12126344 -20839144.12126343 -17502521.76853238 0 0 0 0 0 108549299.0305221 -22705749.9748767 -22705749.97487671 -19511090.18523522 0 0 0 0 0 89103041.6374761 -28121383.43607216 -28121383.43607216 -17641903.30528942 0 0 0 0 0 100707826.2037635 -18764788.55445844 -18764788.55445844 -14646172.75766933 0 0 0 0 0 104005640.6544626 -21028363.4827212 -21028363.4827212 -17700107.1494087 0 0 0 0 0 89267422.05288629 -24470192.72391412 -24470192.72391412 -14028590.16449253 0 0 0 0 0 105008118.9643549 -2719503.869952423 -2719503.869952422 -4984457.22799146 0 0 0 0 0 106290928.1151263 -1862490.01215197 -1862490.01215197 -5088162.316764388 0 0 0 0 0 105753242.2039026 -3162522.826062676 -3162522.826062676 -5742649.234009251 0 0 0 0 0 107005060.0689484 -2362752.116949323 -2362752.116949323 -5885490.486290621 0 0 0 0 0 105780388.6655514 -4249840.885847011 -4249840.885847011 -6497646.325274724 0 0 0 0 0 105740378.6000592 -3163898.496029324 -3163898.496029324 -5726351.078853867 0 0 0 0 0 105680714.0997967 -4263618.14498801 -4263618.14498801 -6557173.145607224 0 0 0 0 0 106892368.6615037 -4797815.692278423 -4797815.692278423 -7508939.975481687 0 0 0 0 0 104186680.1023016 -6493937.069594343 -6493937.069594343 -7203162.680701156 0 0 0 0 0 106932606.4926357 -4764169.3853166 -4764169.385316601 -7525549.937345454 0 0 0 0 0 105159571.8372807 -7223501.866880874 -7223501.866880872 -8391152.534419887 0 0 0 0 0 104165701.5351084 -6514166.708749522 -6514166.708749522 -7162098.15483582 0 0 0 0 0 102032909.8182332 -10230142.13577543 -10230142.13577543 -8711538.047828794 0 0 0 0 0 105213733.6320768 -7232681.585078382 -7232681.585078382 -8396856.298479987 0 0 0 0 0 106523776.7444799 -8529282.67623058 -8529282.67623058 -9906077.594629698 0 0 0 0 0 106948869.012406 -8402069.888539234 -8402069.888539236 -9867068.900067572 0 0 0 0 0 104002622.7828162 -12197897.42274389 -12197897.42274389 -11394563.44685475 0 0 0 0 0 101708291.4223119 -11996757.43747536 -11996757.43747537 -9891787.88922946 0 0 0 0 0 103991871.9854564 -12229802.7379176 -12229802.7379176 -11438542.41957909 0 0 0 0 0 107173626.4828409 -13163670.59558738 -13163670.59558738 -13659909.07937679 0 0 0 0 0 99080537.76517072 -16639848.94668522 -16639848.94668522 -11750443.53888036 0 0 0 0 0 100788069.635842 -18899518.22918202 -18899518.22918202 -14558287.43234127 0 0 0 0 0 89746917.52185005 -20695404.57862585 -20695404.57862585 -10778734.53240108 0 0 0 0 0 98550139.11113966 -16685359.346674 -16685359.346674 -11853319.46307787 0 0 0 0 0 53611826.1703311 -47914672.56705938 -47914672.56705938 41994615.47028007 0 0 0 0 0 74292197.75795057 -31251876.30694694 -31251876.30694693 -11908390.52346556 0 0 0 0 0 127685514.3129446 -34841624.63730912 -34841624.63730912 6668852.838674018 0 0 0 0 0 114376018.0562575 -24390604.80114988 -24390604.80114988 -14406887.23566732 0 0 0 0 0 76589126.58324577 -34365082.1939586 -34365082.1939586 -9947077.334977768 0 0 0 0 0 87723642.76008658 -31115840.41022702 -31115840.41022702 -22110963.41700479 0 0 0 0 0 109288629.4288172 -22298056.40940903 -22298056.40940903 -18738078.10896607 0 0 0 0 0 87617155.97356899 -31359021.21995686 -31359021.21995686 -18987169.59006415 0 0 0 0 0 88581642.9549223 -28504749.06883676 -28504749.06883676 -18628284.46820514 0 0 0 0 0 89004856.47800826 -24602188.56539494 -24602188.56539494 -14247288.38718804 0 0 0 0 0 104553731.0417412 -20785608.00062097 -20785608.00062097 -17388393.95251876 0 0 0 0 0 88550907.15577386 -28347532.90311314 -28347532.90311314 -17659579.8318348 0 0 0 0 0 101043213.9272228 -18811340.6574321 -18811340.6574321 -14533485.28456141 0 0 0 0 0 88926228.19101028 -24476273.03040205 -24476273.03040205 -14112761.6016798 0 0 0 0 0 89730968.44404808 -20672717.12450368 -20672717.12450368 -10650370.48960627 0 0 0 0 0 104446238.1749285 -4130386.315838118 -4130386.315838118 -5682336.388367372 0 0 0 0 0 105006588.1945046 -2709389.545881121 -2709389.545881121 -5020493.947553918 0 0 0 0 0 105750129.2444037 -3165115.556667116 -3165115.556667116 -5729906.13226406 0 0 0 0 0 105608496.5202408 -4294606.413048108 -4294606.413048108 -6492449.431062338 0 0 0 0 0 104419938.7872237 -4155406.351416824 -4155406.351416824 -5690959.371918015 0 0 0 0 0 105770524.2626003 -3143003.96447715 -3143003.96447715 -5738745.48858186 0 0 0 0 0 103255793.8877421 -5827416.972146995 -5827416.972146995 -6141631.605855129 0 0 0 0 0 105752418.4173748 -4293251.293025992 -4293251.293025992 -6542879.436579884 0 0 0 0 0 104105732.4841663 -6480921.525991704 -6480921.525991704 -7223935.059293923 0 0 0 0 0 105243789.5092521 -7275279.896442696 -7275279.896442696 -8294700.742386593 0 0 0 0 0 101689606.2805462 -8805682.80868699 -8805682.80868699 -7409346.886525643 0 0 0 0 0 104119020.3552162 -6484877.616564227 -6484877.616564227 -7230135.617610889 0 0 0 0 0 102093243.3766406 -10146603.2037894 -10146603.2037894 -8682927.894461151 0 0 0 0 0 101714507.3887286 -8788350.179605102 -8788350.179605102 -7300058.327592582 0 0 0 0 0 105235002.4535417 -7282786.385988538 -7282786.385988538 -8396904.788387436 0 0 0 0 0 102116678.9398973 -10175635.8288558 -10175635.82885579 -8540636.940625722 0 0 0 0 0 106383985.1108833 -8619693.386658719 -8619693.386658721 -10194518.23544352 0 0 0 0 0 101948096.6726536 -11907257.65231223 -11907257.65231223 -9756247.808337377 0 0 0 0 0 104071144.2890071 -12420855.55332539 -12420855.55332539 -11476815.18441146 0 0 0 0 0 97697094.26475655 -14707827.49568893 -14707827.49568893 -9547482.518242149 0 0 0 0 0 101676301.6494405 -11816070.23112166 -11816070.23112166 -9740319.733736735 0 0 0 0 0 104502918.8021225 -12261626.2544575 -12261626.2544575 -11290562.56193745 0 0 0 0 0 98500693.46173696 -16639485.18033858 -16639485.18033858 -11896864.40209738 0 0 0 0 0 97520023.31784986 -14753281.1092069 -14753281.1092069 -9557744.414182363 0 0 0 0 0 89673069.47684999 -20628183.28534028 -20628183.28534028 -10831295.59331909 0 0 0 0 0 90369578.70486127 -17503824.4761886 -17503824.4761886 -8103326.324798398 0 0 0 0 0 98673749.258802 -16775371.44743421 -16775371.44743421 -11776302.07000682 0 0 0 0 0 53149694.78523489 -42928625.68090001 -42928625.68090001 45921090.7703202 0 0 0 0 0 -1842118.121990367 -7090072.374320455 -7090072.374320452 1849586.667452567 0 0 0 0 0 75345603.773413 -33817039.2952905 -33817039.29529051 -14148376.89663633 0 0 0 0 0 89774973.72576991 -32464730.20372418 -32464730.20372418 -18589715.19460769 0 0 0 0 0 72264345.2388514 -31315081.42081693 -31315081.42081694 -14718016.86670792 0 0 0 0 0 57865893.32035971 -32581927.05903579 -32581927.05903579 -18938074.91254424 0 0 0 0 0 89105488.6413773 -28798511.47535608 -28798511.47535608 -17292260.73135401 0 0 0 0 0 87116094.05016604 -31092018.60405757 -31092018.60405757 -20317035.00913489 0 0 0 0 0 63842658.31746518 -31732171.31263797 -31732171.31263797 -16095219.91259794 0 0 0 0 0 70041399.20705792 -27921166.39256095 -27921166.39256095 -11605910.87152262 0 0 0 0 0 89155488.60566211 -24702325.41104227 -24702325.41104227 -13920066.35083363 0 0 0 0 0 88553539.90194173 -28360984.65626957 -28360984.65626957 -17696575.20119351 0 0 0 0 0 89804542.01935323 -20776629.73304249 -20776629.73304249 -10719920.75986426 0 0 0 0 0 89008342.32904758 -24477122.69537668 -24477122.69537668 -13718564.08328637 0 0 0 0 0 75451931.04248068 -23228553.58013121 -23228553.58013121 -8146871.680500883 0 0 0 0 0 103290979.2689301 -5802687.136973525 -5802687.136973525 -6151891.112296451 0 0 0 0 0 104386076.6657525 -4132397.99467024 -4132397.99467024 -5712874.132958742 0 0 0 0 0 105677962.9313243 -4344944.206094362 -4344944.206094363 -6542760.38278716 0 0 0 0 0 101260762.4878293 -7651281.444119757 -7651281.444119757 -6286165.223756017 0 0 0 0 0 103209859.6391521 -5798900.872919326 -5798900.872919326 -6190500.348724985 0 0 0 0 0 104161564.4671252 -6516265.095712259 -6516265.095712259 -7138038.452513755 0 0 0 0 0 101676716.5944398 -8765544.780640718 -8765544.780640718 -7409834.477575424 0 0 0 0 0 101285789.0816042 -7635692.84138642 -7635692.84138642 -6194913.867795441 0 0 0 0 0 104151322.267935 -6522215.894133281 -6522215.894133281 -7223607.876328565 0 0 0 0 0 97841738.91183792 -11091012.39805659 -11091012.39805659 -6959605.932481894 0 0 0 0 0 101718014.8150244 -8784333.602906886 -8784333.602906886 -7406693.774596452 0 0 0 0 0 102133253.9101765 -10176420.03340041 -10176420.03340041 -8537718.873080395 0 0 0 0 0 97263657.30613922 -12930709.04148254 -12930709.04148254 -8078812.647658303 0 0 0 0 0 102225627.093448 -10184243.31364311 -10184243.31364311 -8686906.259300834 0 0 0 0 0 101716610.6458066 -11857561.33659487 -11857561.33659487 -9603604.923249725 0 0 0 0 0 97459433.46147014 -14693021.93091119 -14693021.93091119 -9619543.384955479 0 0 0 0 0 97364994.98651241 -12861791.18731167 -12861791.18731167 -7880092.621038248 0 0 0 0 0 101742742.9071146 -11857642.15076591 -11857642.15076591 -9704931.898750184 0 0 0 0 0 98650936.10103755 -16759061.2931495 -16759061.29314949 -11665425.70510781 0 0 0 0 0 90282713.11424889 -17583875.84464145 -17583875.84464145 -8343967.87218092 0 0 0 0 0 97452486.26987998 -14683743.98984972 -14683743.98984972 -9594407.020093819 0 0 0 0 0 89748408.53515327 -20611613.61162316 -20611613.61162316 -10417104.07620215 0 0 0 0 0 80796892.81090374 -19110927.25385056 -19110927.25385056 -6127627.257788379 0 0 0 0 0 90371712.91976914 -17546898.35527951 -17546898.35527951 -8256045.789643364 0 0 0 0 0 72237820.97417985 -35575129.82877381 -35575129.82877381 -10745313.53945896 0 0 0 0 0 5266898.133930049 -5887843.487796523 -5887843.487796523 93164.71412069691 0 0 0 0 0 28400781.51736287 -24115828.94867633 -24115828.94867633 -27312468.65481037 0 0 0 0 0 69940772.9483344 -34207572.75977229 -34207572.75977229 -9216342.588469284 0 0 0 0 0 27783603.16997603 -22621419.51703909 -22621419.51703909 -25462808.35936059 0 0 0 0 0 58385704.87985395 -32051744.30254908 -32051744.30254908 -19315073.86434788 0 0 0 0 0 64282752.03190227 -31759870.90157447 -31759870.90157447 -16835396.38094106 0 0 0 0 0 86391045.3320016 -31196345.32479056 -31196345.32479056 -19763895.01784175 0 0 0 0 0 59599215.72265507 -33533127.02118086 -33533127.02118086 -18296965.33637287 0 0 0 0 0 70584830.16696934 -27757590.17829005 -27757590.17829005 -11543861.85321093 0 0 0 0 0 88018988.90964393 -28515123.79999442 -28515123.79999442 -17732377.00593191 0 0 0 0 0 64990769.75292024 -32069321.98452996 -32069321.98452996 -15608819.20290617 0 0 0 0 0 76070626.99147958 -22923143.8355877 -22923143.8355877 -7639472.623229614 0 0 0 0 0 88496074.33194919 -24713370.96643687 -24713370.96643687 -14072493.10062813 0 0 0 0 0 70854686.13526741 -27932991.39549316 -27932991.39549316 -11401087.14198282 0 0 0 0 0 89275579.86493608 -20853504.99631255 -20853504.99631255 -10806964.53701189 0 0 0 0 0 76358357.03262775 -23135948.19246366 -23135948.19246366 -7974168.401349458 0 0 0 0 0 81279066.45905878 -18849717.59400345 -18849717.59400345 -5654517.231675628 0 0 0 0 0 98237832.31407015 -9452263.050861429 -9452263.050861429 -5897304.009046287 0 0 0 0 0 101273069.4559066 -7625507.554652702 -7625507.554652702 -6295061.189586024 0 0 0 0 0 101713012.2685208 -8790752.093760094 -8790752.093760094 -7269614.612505347 0 0 0 0 0 98341626.31098908 -9386288.162350476 -9386288.162350476 -5729059.630097515 0 0 0 0 0 101616028.5260546 -8852644.109390905 -8852644.109390905 -7438258.99789215 0 0 0 0 0 97990012.43870895 -11012307.81236807 -11012307.81236807 -6914007.88304752 0 0 0 0 0 97962578.48002577 -11013361.64816903 -11013361.64816903 -6741427.12623489 0 0 0 0 0 101996650.4557897 -10263399.10784391 -10263399.10784391 -8767631.077910999 0 0 0 0 0 97406674.56943169 -12865172.30363944 -12865172.30363945 -8025780.967971486 0 0 0 0 0 91265169.19313926 -14969910.40227035 -14969910.40227035 -6700461.216524662 0 0 0 0 0 97353663.04025015 -12864663.07451072 -12864663.07451073 -7988839.49312678 0 0 0 0 0 97512753.58517052 -14712188.97151607 -14712188.97151607 -9385122.521986222 0 0 0 0 0 90370412.14029607 -17504084.37173865 -17504084.37173865 -8350227.555244315 0 0 0 0 0 91465432.16382793 -14842492.98858391 -14842492.98858391 -6403042.439538947 0 0 0 0 0 97411537.59797412 -14782522.56489987 -14782522.56489987 -9567721.19395015 0 0 0 0 0 89941455.73351747 -17645743.45465685 -17645743.45465684 -8313722.296322322 0 0 0 0 0 81433538.63019338 -19003346.41727567 -19003346.41727567 -6021072.163189651 0 0 0 0 0 84038266.30410773 -15629658.09102046 -15629658.09102046 -4003241.003014252 0 0 0 0 0 4121789.65524203 2396505.449618636 2396505.449618636 -10102287.99882602 0 0 0 0 0 -12989884.19026794 18307169.41357145 18307169.41357145 -68276743.83917427 0 0 0 0 0 30912952.22006026 -27596139.00248434 -27596139.00248434 -15936756.66489196 0 0 0 0 0 30211365.69813701 -24562625.33701696 -24562625.33701696 -21856637.66209929 0 0 0 0 0 36751745.33803102 -28715830.95317591 -28715830.9531759 -18740466.02888057 0 0 0 0 0 58275524.5959349 -32122335.30524511 -32122335.30524511 -19139252.22492743 0 0 0 0 0 36484818.31771272 -27720227.34131211 -27720227.34131211 -16915239.19249084 0 0 0 0 0 65101233.0814231 -32359128.41519552 -32359128.41519552 -14738309.37765827 0 0 0 0 0 58750841.29795948 -32588253.03406419 -32588253.03406419 -20025065.25933291 0 0 0 0 0 71014623.35697922 -28222136.53601959 -28222136.53601959 -10958267.64083276 0 0 0 0 0 64480093.69059747 -31385401.64330233 -31385401.64330233 -15984343.74898236 0 0 0 0 0 46948719.11754245 -25688257.00647965 -25688257.00647965 -8529018.903490158 0 0 0 0 0 76376171.46344487 -23352740.87726782 -23352740.87726782 -7666409.842663867 0 0 0 0 0 70625776.42063046 -27481324.23496786 -27481324.23496786 -10972523.77999163 0 0 0 0 0 56832093.66882757 -21732407.08203024 -21732407.08203024 -4321387.48741471 0 0 0 0 0 81723999.0608165 -19305578.0650599 -19305578.0650599 -5923159.427067239 0 0 0 0 0 76056058.9883014 -22764145.06051617 -22764145.06051617 -7361266.103196891 0 0 0 0 0 66949937.34268554 -17614238.93754094 -17614238.93754094 -2137432.95146618 0 0 0 0 0 94141802.22234137 -10868000.40036364 -10868000.40036364 -4857329.184766296 0 0 0 0 0 98383380.6934879 -9407968.519427588 -9407968.519427588 -5858361.985841683 0 0 0 0 0 97964658.3389982 -11001804.93265564 -11001804.93265564 -6727280.212850737 0 0 0 0 0 92584850.4243941 -12783639.60467483 -12783639.60467483 -5617619.93859054 0 0 0 0 0 98042972.79281947 -11050199.26579536 -11050199.26579536 -6888155.498966054 0 0 0 0 0 97334677.31228119 -12837047.53632003 -12837047.53632003 -7798836.431216314 0 0 0 0 0 92826416.49467604 -12637833.4292665 -12637833.4292665 -5309304.196615985 0 0 0 0 0 97114007.297006 -12966743.47279439 -12966743.47279439 -8043912.071661834 0 0 0 0 0 91520754.80743738 -14885369.77496502 -14885369.77496502 -6637908.254293717 0 0 0 0 0 90360884.69186357 -17424870.88460674 -17424870.88460674 -7959547.811890244 0 0 0 0 0 83595066.06445441 -15869259.54907957 -15869259.54907957 -4415545.350073881 0 0 0 0 0 91501421.93003817 -14910429.82425407 -14910429.82425407 -6579132.832831766 0 0 0 0 0 84027355.09466094 -15703626.98628224 -15703626.98628224 -4263741.230929747 0 0 0 0 0 81411755.19833016 -18884930.01712751 -18884930.01712751 -5769347.546602532 0 0 0 0 0 76605791.36331019 -15848792.79094427 -15848792.79094427 -2283794.494783587 0 0 0 0 0 21228632.55444409 -21693911.80056088 -21693911.80056088 -24290001.49364258 0 0 0 0 0 -664996.4870818169 9791530.57128836 9791530.57128836 -52864174.82221382 0 0 0 0 0 3475524.645182027 -15102520.82258216 -15102520.82258216 -35573830.63570481 0 0 0 0 0 28717341.33116072 -24802962.72462568 -24802962.72462568 -26763768.67879329 0 0 0 0 0 3307435.716387013 -11361017.38794159 -11361017.38794159 -31379498.6106266 0 0 0 0 0 38310166.84574132 -29898764.01585171 -29898764.01585171 -12753793.68280676 0 0 0 0 0 48314237.96685147 -25445035.42184668 -25445035.42184668 -8682897.199405627 0 0 0 0 0 63042528.27104235 -31645443.24548139 -31645443.24548139 -15834545.06121432 0 0 0 0 0 38157128.05833618 -28748852.12748544 -28748852.12748544 -15491263.78394451 0 0 0 0 0 58292055.52245516 -21190708.62857208 -21190708.62857208 -3593348.728174751 0 0 0 0 0 69100123.58204019 -27986564.28228393 -27986564.28228393 -11557228.76422299 0 0 0 0 0 48875963.94926673 -25821112.1535851 -25821112.1535851 -8011679.768454212 0 0 0 0 0 68302021.9756778 -16998411.82842369 -16998411.82842369 -1318160.324922417 0 0 0 0 0 74757978.99288398 -23326558.32661742 -23326558.32661742 -8015718.053456111 0 0 0 0 0 58726863.2680084 -21770484.37990355 -21770484.37990355 -3905938.330990251 0 0 0 0 0 80544317.27572104 -19338067.52748336 -19338067.52748336 -6239987.984847324 0 0 0 0 0 68867863.6520595 -17473714.38208069 -17473714.38208069 -1656770.344010877 0 0 0 0 0 77020895.34876591 -15648575.30123141 -15648575.30123141 -2213037.579354616 0 0 0 0 0 92936217.22431417 -12687007.05529468 -12687007.05529468 -5507110.739568247 0 0 0 0 0 94350065.72792719 -10738410.25482532 -10738410.25482532 -4611221.916528284 0 0 0 0 0 97736168.49327524 -11143631.46926132 -11143631.46926132 -6985140.092270871 0 0 0 0 0 86418388.91658702 -13400078.81964256 -13400078.81964256 -3586991.274330672 0 0 0 0 0 92917068.12193948 -12721154.74147769 -12721154.74147769 -5459967.051112406 0 0 0 0 0 91451395.45237817 -14807878.51269178 -14807878.51269177 -6345221.215469413 0 0 0 0 0 84156969.1460924 -15751605.90791682 -15751605.90791682 -4277496.207227467 0 0 0 0 0 86809781.37987378 -13179191.42540838 -13179191.42540837 -3196185.536800487 0 0 0 0 0 91052003.06485873 -15025882.10478427 -15025882.10478427 -6684710.470700558 0 0 0 0 0 79536847.90823409 -12467815.78055712 -12467815.78055711 -602878.9905966773 0 0 0 0 0 83627011.73520526 -15732684.16822573 -15732684.16822573 -4290787.025812758 0 0 0 0 0 77017115.44910632 -15737983.05871545 -15737983.05871545 -2344496.363200783 0 0 0 0 0 -6879109.087521521 15664583.81371345 15664583.81371345 -77306037.31632902 0 0 0 0 0 -5493797.28497769 7922098.664259542 7922098.664259542 -103804468.7234038 0 0 0 0 0 9003733.92709869 -16952962.14681543 -16952962.14681543 -13996294.08013298 0 0 0 0 0 9509697.058556337 -14772902.5624617 -14772902.5624617 -25776555.30534942 0 0 0 0 0 22837333.51917717 -16964757.40139822 -16964757.40139822 -11149631.33961721 0 0 0 0 0 33919073.07697794 -27582501.85822921 -27582501.85822921 -16541846.72088961 0 0 0 0 0 21247448.75965904 -16444554.18693498 -16444554.18693498 -10284865.44997386 0 0 0 0 0 49067999.00225139 -26378890.72007753 -26378890.72007753 -6761260.337723409 0 0 0 0 0 37470030.58165075 -28042167.62090805 -28042167.62090805 -17341600.61593543 0 0 0 0 0 36628285.6068638 -13956773.57973714 -13956773.57973714 -1744148.611157621 0 0 0 0 0 58641796.56668953 -21938242.89227265 -21938242.89227265 -3427628.962005972 0 0 0 0 0 48579026.48957215 -25008074.35321873 -25008074.35321873 -7891680.864394887 0 0 0 0 0 49242916.1500289 -10901206.51947547 -10901206.51947547 1639756.074686954 0 0 0 0 0 68938940.53067181 -18003074.34081085 -18003074.34081085 -1515914.905497658 0 0 0 0 0 58325752.98352923 -20990722.93674234 -20990722.93674234 -3362062.054746279 0 0 0 0 0 67967308.08560523 -17055150.91661564 -17055150.91661564 -1637335.855699278 0 0 0 0 0 70992108.35000773 -12072879.24129843 -12072879.24129843 980597.0922842789 0 0 0 0 0 77394211.06668589 -15811177.26698155 -15811177.26698155 -2324484.357140782 0 0 0 0 0 89162968.40647899 -11438060.82431911 -11438060.82431911 -3143539.075668407 0 0 0 0 0 94471641.24570699 -10807648.61271374 -10807648.61271374 -4747412.614526297 0 0 0 0 0 92802161.99408834 -12612060.81426255 -12612060.81426255 -5298674.380918055 0 0 0 0 0 89479681.55051507 -11248419.68421013 -11248419.68421013 -2853544.927782269 0 0 0 0 0 92463132.74657707 -12813938.76468162 -12813938.76468162 -5586378.294230347 0 0 0 0 0 86991114.91371459 -13302154.26676691 -13302154.26676691 -3425607.238043066 0 0 0 0 0 83997741.78922214 -15555603.01259462 -15555603.01259462 -4005751.432418767 0 0 0 0 0 79066741.16930206 -12690378.89446724 -12690378.89446724 -956776.1280074148 0 0 0 0 0 86978167.62091343 -13367877.89772787 -13367877.89772787 -3364375.363527852 0 0 0 0 0 71265421.9819276 -12099774.33286334 -12099774.33286334 1010884.975918072 0 0 0 0 0 79466429.03746842 -12562886.83079671 -12562886.83079671 -851296.6570664161 0 0 0 0 0 77022917.00902575 -15727172.30341476 -15727172.30341476 -2323607.303894802 0 0 0 0 0 -6872394.554493096 956581.6694860603 956581.6694860611 -81903164.52531075 0 0 0 0 0 3014023.245348581 -126243.5031914616 -126243.5031914617 -23662341.07326242 0 0 0 0 0 1367702.853476455 -9557945.582276296 -9557945.582276296 -29142891.81363402 0 0 0 0 0 -574220.6749747552 456195.1471596574 456195.1471596574 -23684932.26244298 0 0 0 0 0 24322696.81864936 -18248730.89714701 -18248730.89714701 -6352558.844989188 0 0 0 0 0 7472770.417178999 -13888187.71759981 -13888187.71759981 -32462144.31908065 0 0 0 0 0 24147357.10017469 -17426739.07999728 -17426739.07999728 -8768463.607210219 0 0 0 0 0 39027177.67952643 -13512784.91386427 -13512784.91386427 -1078228.884916567 0 0 0 0 0 46277309.95981073 -25343558.64780618 -25343558.64780617 -8382635.297956482 0 0 0 0 0 39275608.44286933 -14292569.60189615 -14292569.60189615 -1076219.319626486 0 0 0 0 0 51645261.79231972 -10243006.32768425 -10243006.32768425 2636145.185160189 0 0 0 0 0 55881420.62676264 -21545966.71128437 -21545966.71128437 -4178862.600469437 0 0 0 0 0 66699268.68450148 -17837713.7512084 -17837713.7512084 -1931598.171271677 0 0 0 0 0 51965265.48858585 -11151196.0863452 -11151196.0863452 2208245.845852485 0 0 0 0 0 61982693.4602363 -9050521.785573063 -9050521.785573063 2960571.279822437 0 0 0 0 0 67842406.16219239 -17446035.46497756 -17446035.46497755 -1323819.621600433 0 0 0 0 0 61266744.42527711 -9278665.740908634 -9278665.740908634 2601718.904718338 0 0 0 0 0 70971990.84595847 -12089883.82866439 -12089883.82866439 938323.1594584134 0 0 0 0 0 83753933.44404419 -10720981.23729663 -10720981.23729663 -957716.9982317057 0 0 0 0 0 89652207.80487385 -11375744.51449259 -11375744.51449259 -2964500.019293814 0 0 0 0 0 86799616.32023172 -13157603.2719051 -13157603.2719051 -3220038.284729868 0 0 0 0 0 79856898.32040703 -12587206.17965899 -12587206.17965899 -786583.5452614957 0 0 0 0 0 84216007.64876346 -10460738.68270648 -10460738.68270648 -673325.6589348605 0 0 0 0 0 86331715.32544272 -13421775.19682289 -13421775.19682289 -3517202.393443443 0 0 0 0 0 79594852.22482342 -12672354.19894383 -12672354.19894383 -598660.3403952767 0 0 0 0 0 70951872.19053115 -11974403.33954333 -11974403.33954333 835177.6811589317 0 0 0 0 0 73675316.40936445 -8148489.042728721 -8148489.042728721 2310662.955806869 0 0 0 0 0 3315217.114573134 -1418496.700265331 -1418496.700265331 -20562098.29149629 0 0 0 0 0 24279351.86279524 596996.5971028608 596996.597102861 -2717620.046390407 0 0 0 0 0 19775609.18964512 -16057124.76689447 -16057124.76689447 -10003274.5436918 0 0 0 0 0 23799090.2542898 -16010509.66644177 -16010509.66644177 -9780137.844413633 0 0 0 0 0 20563912.8203195 -130058.1391065757 -130058.1391065756 -3916987.503415377 0 0 0 0 0 39325213.49641067 -14533859.38691846 -14533859.38691846 -192286.9122795198 0 0 0 0 0 38385497.66284604 -108194.4033875973 -108194.4033875973 1944281.685069753 0 0 0 0 0 51637062.797875 -10948858.87136646 -10948858.87136646 2466032.760126574 0 0 0 0 0 39292014.53605478 -13037058.81472239 -13037058.81472239 -767552.9977107756 0 0 0 0 0 51390932.3478183 -9985061.08324448 -9985061.083244482 2391727.814923265 0 0 0 0 0 51434810.35849847 -173746.2689736158 -173746.2689736157 3683489.591802947 0 0 0 0 0 62435218.07614747 -9838093.747107558 -9838093.747107558 3083246.436733358 0 0 0 0 0 61844404.14691378 -9375850.139939612 -9375850.139939612 2562876.868736041 0 0 0 0 0 67898701.79279709 -5633131.56637627 -5633131.56637627 3683166.866449175 0 0 0 0 0 70776836.50268057 -12091823.98439597 -12091823.98439597 1049831.582173613 0 0 0 0 0 78856415.90308297 -8434709.63427403 -8434709.634274032 1305736.557139958 0 0 0 0 0 84462380.10398969 -10671334.07488349 -10671334.07488349 -694225.8087486778 0 0 0 0 0 79461398.44380213 -12237447.96156398 -12237447.96156398 -640062.5222515784 0 0 0 0 0 79197290.50931169 -8209792.42634777 -8209792.42634777 1475938.561523625 0 0 0 0 0 78929758.58771467 -12590984.58641734 -12590984.58641734 -727919.1606691486 0 0 0 0 0 74059635.87419233 -8208993.333350739 -8208993.333350739 2378029.78293237 0 0 0 0 0 71038178.38767263 -11968078.74404735 -11968078.74404735 1214754.395655981 0 0 0 0 0 67501438.18930969 -5850327.863709577 -5850327.863709577 3405050.593321103 0 0 0 0 0 73731330.65437488 -8055894.755637525 -8055894.755637523 2221349.269717678 0 0 0 0 0 24494248.26823185 -925403.9952903179 -925403.9952903179 -2839879.005461493 0 0 0 0 0 41279926.55557095 571900.9619471172 571900.961947117 2985131.717958777 0 0 0 0 0 35999671.38516504 -13591356.82398497 -13591356.82398497 -1593746.82006335 0 0 0 0 0 41326028.9033559 -597060.3247554566 -597060.3247554566 2650752.971031066 0 0 0 0 0 53847996.92376468 328800.2049698552 328800.2049698553 4432309.96631324 0 0 0 0 0 49123380.82716578 -10441952.22836857 -10441952.22836857 1713662.108323419 0 0 0 0 0 53638452.8294741 -524063.9061693275 -524063.9061693275 4324158.813987561 0 0 0 0 0 62738300.90753925 389234.1679455074 389234.1679455072 4677546.068886633 0 0 0 0 0 60196773.99441867 -9530582.911660595 -9530582.911660595 2496374.193302062 0 0 0 0 0 61298473.40615153 31717.00335902907 31717.00335902907 4085080.528631938 0 0 0 0 0 67716256.66730237 -5908808.668267394 -5908808.668267394 3556716.299167091 0 0 0 0 0 62132814.91463721 -9139916.690519432 -9139916.690519432 3177987.296116247 0 0 0 0 0 75547011.92704165 -4626528.221461254 -4626528.221461253 3087754.580545392 0 0 0 0 0 79548161.99166144 -8400915.938426055 -8400915.938426057 1568152.206616201 0 0 0 0 0 73713549.2661933 -8016497.317307808 -8016497.317307808 2226465.618943741 0 0 0 0 0 73745805.80425255 -8114799.704058782 -8114799.704058782 2409202.743946112 0 0 0 0 0 67698939.66362152 -5890351.931483109 -5890351.931483109 3377070.416446329 0 0 0 0 0 71857020.28315596 -3910160.909503065 -3910160.909503065 3584883.805216695 0 0 0 0 0 62913904.15687794 -173944.1891196088 -173944.1891196088 4368272.222953579 0 0 0 0 0 69561312.40158838 217911.5143352257 217911.5143352256 4184847.505970777 0 0 0 0 0 66870334.04531266 -5822775.396078941 -5822775.396078941 3444551.805061546 0 0 0 0 0 75748174.1510236 -4506069.722638593 -4506069.722638593 3070802.360804387 0 0 0 0 0 73617868.2674989 -8070355.295206207 -8070355.295206207 2393747.714068636 0 0 0 0 0 71900738.68293972 -4020493.221948354 -4020493.221948354 3548197.737599407 0 0 0 0 0 67906393.48321459 -5632827.182727323 -5632827.182727323 3722994.00605365 0 0 0 0 0 68742071.67571667 27666.35506858092 27666.35506858097 3897879.705991301 0 0 0 0 0 71831239.10063316 -4003640.068329933 -4003640.068329933 3639707.63953046 0 0 0 0 0 74172094.55597384 35093.42010802915 35093.42010802915 3718010.637524989 0 0 0 0 0 75910773.94894043 -4627614.288136694 -4627614.288136694 3233068.342347451 0 0 0 0 0 71759855.37076893 -3896705.566552906 -3896705.566552906 3579458.285526512 0 0 0 0 0 69583464.88982546 -56392.47701484882 -56392.47701484882 4123561.332687708 0 0 0 0 0 74710056.2803804 180269.5870371036 180269.5870371036 3736099.319977651 0 0 0 0 0 71316947.34263732 -4015740.573026413 -4015740.573026413 3566326.875924393 0 0 0 0 0 </DataArray>
        <DataArray type="Float64" Name="von_mises_stress" format="ascii" NumberOfComponents="3">101393887.2351658 0 0 100592652.1656487 0 0 101793113.6071255 0 0 100614656.8267766 0 0 101709632.6714692 0 0 101756960.5232168 0 0 103524867.580683 0 0 101331501.0726542 0 0 101973214.2470724 0 0 101598561.429269 0 0 103453606.9930087 0 0 101852691.2090281 0 0 103424705.2143045 0 0 101395246.699857 0 0 103468343.0669627 0 0 103487770.1207362 0 0 103533148.4712455 0 0 101957137.3379708 0 0 101558563.0205075 0 0 103468932.7162409 0 0 103402672.1476092 0 0 103312679.5080732 0 0 103607659.5610794 0 0 106502461.1963383 0 0 106972984.4877835 0 0 103439717.2722535 0 0 103521566.027523 0 0 103354152.4468729 0 0 106099030.0269469 0 0 103502556.045335 0 0 105996043.1290998 0 0 103422918.0423356 0 0 106391591.0811796 0 0 106555167.8285813 0 0 103564491.9613806 0 0 106883248.7624738 0 0 107015086.7587578 0 0 103475025.8916092 0 0 107952164.4533286 0 0 103342717.946347 0 0 106965991.5823732 0 0 106045983.2293844 0 0 103354946.211772 0 0 106308352.7105397 0 0 108023035.0265598 0 0 109402604.0107043 0 0 105838640.1458565 0 0 106612456.8788144 0 0 106401855.4677961 0 0 107111944.9354334 0 0 110319742.3201532 0 0 106866490.8608878 0 0 108388944.0360538 0 0 111305232.6790574 0 0 106076546.1772529 0 0 106816986.9246052 0 0 111067818.6652353 0 0 106157865.0723257 0 0 111899194.3184815 0 0 108167272.7675386 0 0 108349723.0400867 0 0 105975217.618288 0 0 109266818.4617612 0 0 109474837.3718163 0 0 106543877.0855371 0 0 110199206.9501791 0 0 110411121.9045601 0 0 107015874.838509 0 0 111290021.7297122 0 0 108270348.7884932 0 0 114135449.2305563 0 0 111405848.448161 0 0 106760463.7015065 0 0 113809819.1692362 0 0 110906339.0035867 0 0 106023940.5643224 0 0 111214851.2117106 0 0 111894639.4669674 0 0 112180766.3805646 0 0 114102988.5000927 0 0 108136923.2839797 0 0 108182459.2164236 0 0 109499728.1665885 0 0 111561749.7176085 0 0 109312067.9200111 0 0 110451552.6473098 0 0 112825980.1340334 0 0 115306805.3360354 0 0 110086445.1249268 0 0 111573816.7136914 0 0 114311671.002802 0 0 115245718.1295601 0 0 111543231.6514226 0 0 113677283.2669716 0 0 121012084.0867938 0 0 110756108.4374513 0 0 111964785.9549851 0 0 111059245.1700998 0 0 118713478.5424753 0 0 112058388.4005153 0 0 119735034.5154742 0 0 114204035.3421481 0 0 109993254.4203023 0 0 108314656.8957665 0 0 111420904.6689515 0 0 111630612.8037924 0 0 109434736.9861166 0 0 112693808.5751211 0 0 110354232.3132352 0 0 115063348.9062888 0 0 112927153.2791997 0 0 120708112.2847217 0 0 115135420.6760432 0 0 114315246.0403543 0 0 113628129.9283355 0 0 128592840.7358942 0 0 120503056.9353182 0 0 111100406.9643523 0 0 120673230.5915549 0 0 118476682.8683823 0 0 119530655.4755975 0 0 112131291.5338552 0 0 118680274.6265222 0 0 119682920.0916798 0 0 120497960.3588744 0 0 114434290.3658944 0 0 112633722.9890165 0 0 109857391.5169581 0 0 111580821.6824612 0 0 115214326.3470301 0 0 111386143.6936602 0 0 112940056.3960017 0 0 115503967.61986 0 0 116546467.9177429 0 0 112685640.1209392 0 0 120115279.5177433 0 0 115456842.9103724 0 0 120454749.864726 0 0 119796178.535688 0 0 128618809.5358351 0 0 141629207.6099865 0 0 118078978.6120349 0 0 120729332.7499097 0 0 131378306.9659028 0 0 128197935.8564535 0 0 119493159.6035944 0 0 118540263.7744889 0 0 119669553.4946043 0 0 127419025.9041976 0 0 120437443.2156024 0 0 110753592.4948665 0 0 109959588.1787068 0 0 112525813.8926551 0 0 112664837.0967887 0 0 111542835.6492605 0 0 115005831.911173 0 0 116456276.5934149 0 0 115200387.9317041 0 0 112943967.0391272 0 0 120233427.2785062 0 0 116615724.9120622 0 0 115410226.4159775 0 0 125663674.1538143 0 0 119953141.2840196 0 0 120642891.8279995 0 0 128677828.0003123 0 0 164467866.5414095 0 0 140162104.9791777 0 0 121390572.0063068 0 0 139389777.5831485 0 0 130265095.8103722 0 0 127519995.6203867 0 0 119154397.4024761 0 0 130172289.6560392 0 0 127545090.7281865 0 0 126872607.5515622 0 0 120148269.1048986 0 0 126765602.7507585 0 0 125289934.5918639 0 0 121062877.1387908 0 0 110675767.2465653 0 0 112663600.0870655 0 0 112850385.816398 0 0 112579162.5538235 0 0 115126764.7257276 0 0 114465881.8538597 0 0 116764890.8506324 0 0 118888827.4615723 0 0 114851878.1152249 0 0 120024374.08122 0 0 118739877.4768851 0 0 116827303.769887 0 0 122667481.1570018 0 0 120563082.2912485 0 0 124975010.846873 0 0 136986559.9597958 0 0 167503545.2782812 0 0 183439953.2490036 0 0 129100248.4907697 0 0 140339673.1556041 0 0 151208293.9883212 0 0 140447774.3830034 0 0 126898192.6142461 0 0 130514021.9744781 0 0 135311314.6510442 0 0 126667492.6390368 0 0 127660027.3955656 0 0 127167162.1255297 0 0 131299289.8334473 0 0 124955876.9069001 0 0 110701156.2767237 0 0 110731983.4371002 0 0 112767517.2569895 0 0 112856628.0068955 0 0 112655464.0650937 0 0 114412265.2236499 0 0 115160836.3170991 0 0 117101806.41713 0 0 114449507.9844528 0 0 115285042.9408054 0 0 118576795.5574104 0 0 116996243.1311569 0 0 122922962.2042093 0 0 118550391.6034331 0 0 120218240.7253563 0 0 126764475.4445951 0 0 122287447.727408 0 0 125437857.2140452 0 0 168428909.6694691 0 0 272096620.5554677 0 0 177019269.2751907 0 0 142860686.9680951 0 0 174850709.3273075 0 0 147781989.1987322 0 0 138969462.4806225 0 0 132162907.9368999 0 0 147745816.4371768 0 0 133938970.5569381 0 0 129204081.404129 0 0 137738021.8798597 0 0 133532285.1912893 0 0 130592108.5472843 0 0 128112118.6527739 0 0 129982978.8311389 0 0 126372462.3267062 0 0 126052828.8899328 0 0 111459142.5121072 0 0 110725922.9139105 0 0 112694947.9498104 0 0 114868849.3355558 0 0 112633555.7589001 0 0 114561803.7360363 0 0 116725674.3778751 0 0 114762582.9697661 0 0 114691263.2634546 0 0 118847720.2739621 0 0 119676344.7194089 0 0 116781750.3973121 0 0 122283085.3711557 0 0 119507770.2644678 0 0 119107276.5391819 0 0 121744349.3108828 0 0 123114822.5938892 0 0 125729070.7502991 0 0 303461918.9689227 0 0 275591803.8681729 0 0 156508364.2697079 0 0 181745920.1038211 0 0 163798582.7544366 0 0 145828057.9263524 0 0 162301237.4625491 0 0 136980153.308291 0 0 148224728.1018038 0 0 133144631.9961599 0 0 138502622.2796136 0 0 141940283.5504579 0 0 134881745.998199 0 0 129943083.4733056 0 0 134382421.7552341 0 0 130768252.2402727 0 0 128911230.9058432 0 0 125766661.5202588 0 0 110033349.8778719 0 0 110704915.6036341 0 0 111477820.5970816 0 0 111399308.0678741 0 0 112783874.8556837 0 0 112961365.9470741 0 0 112920213.9534429 0 0 114599132.8497121 0 0 112886273.0695573 0 0 116317531.2749065 0 0 114618730.7940481 0 0 116961347.8839828 0 0 119144686.0229767 0 0 116205947.3898348 0 0 117148643.4500346 0 0 121994928.5315399 0 0 119171975.774818 0 0 122684646.5044496 0 0 122725274.7124591 0 0 121238810.3236873 0 0 126370003.364363 0 0 244855254.5201011 0 0 160615732.744242 0 0 182208859.7429259 0 0 141866226.288901 0 0 155103971.2054633 0 0 137539333.1372856 0 0 133680746.3114282 0 0 136168978.7152503 0 0 137937939.7176207 0 0 132807798.81511 0 0 128473494.0034431 0 0 131673118.7575055 0 0 127496626.9000074 0 0 122468224.6893277 0 0 126900310.0228139 0 0 110070690.9121619 0 0 111401730.7961975 0 0 110128846.1057494 0 0 111534181.9229456 0 0 112701445.5097209 0 0 111135106.073819 0 0 114821525.9687139 0 0 113475051.6120835 0 0 112720622.4810758 0 0 115927032.7772642 0 0 113416369.0144345 0 0 114922316.3119597 0 0 119489226.5643211 0 0 117366764.5469318 0 0 115935218.7513427 0 0 121202819.2007975 0 0 117174027.777737 0 0 119777515.7910999 0 0 121746296.8301316 0 0 116946740.3535622 0 0 122031938.0170526 0 0 269843731.0468858 0 0 205328761.4210964 0 0 141074984.5649277 0 0 161555029.0117353 0 0 136992978.0837735 0 0 134782712.4845043 0 0 130230646.9622696 0 0 132626139.9862684 0 0 139674631.0051317 0 0 134063901.1746993 0 0 126042506.9271125 0 0 127612486.2475347 0 0 128392468.9933766 0 0 119871644.8073093 0 0 121828382.8666839 0 0 108963500.6665274 0 0 110039343.9213496 0 0 110150632.9192401 0 0 110101156.5047342 0 0 111438452.9783596 0 0 111176174.5074915 0 0 112819594.0345859 0 0 111225052.4643933 0 0 111043593.1525715 0 0 113231151.3466058 0 0 111195409.4964643 0 0 112891814.3786802 0 0 116214387.5302986 0 0 113102356.1666668 0 0 113202896.9046838 0 0 116423286.5195237 0 0 116796936.1490913 0 0 112896250.5039371 0 0 121667572.2811166 0 0 117174551.3898208 0 0 116787135.0375103 0 0 122323362.3346486 0 0 113936159.7954257 0 0 116519745.8921914 0 0 166645986.9467115 0 0 177442512.5436325 0 0 131044481.9448336 0 0 130478232.4773752 0 0 128660280.482166 0 0 142233980.2116479 0 0 128099390.1508225 0 0 125958049.0360845 0 0 134988243.2185611 0 0 128823111.4748157 0 0 124699092.1479075 0 0 119802613.087645 0 0 122623393.1118787 0 0 118943443.5099201 0 0 113791943.6022778 0 0 108991862.2489845 0 0 110107633.2674223 0 0 108865994.9739273 0 0 109368087.7615911 0 0 110196833.4039797 0 0 111064959.6118214 0 0 111110475.4762763 0 0 109354847.7446134 0 0 111070685.2729689 0 0 113328911.2328735 0 0 110391327.0238331 0 0 111094828.3270652 0 0 112786295.7159377 0 0 110361017.6852398 0 0 113409307.5355283 0 0 117099887.6881354 0 0 112667178.4203526 0 0 112544814.0024816 0 0 117418765.4483467 0 0 116458850.2969386 0 0 112415416.0585961 0 0 117083619.0293345 0 0 113307685.5658954 0 0 109024461.5412349 0 0 191309175.3580627 0 0 105084040.3231124 0 0 121485286.2883954 0 0 134528020.1617518 0 0 95268110.97154172 0 0 128093685.2300976 0 0 129745699.4085412 0 0 111454084.1594944 0 0 125262935.1062979 0 0 119210122.5260388 0 0 125696839.3536365 0 0 110079894.1611224 0 0 113427678.3430126 0 0 119514343.175812 0 0 105697335.8946629 0 0 107688653.5008123 0 0 108967087.311724 0 0 108872512.2559945 0 0 110133978.3484132 0 0 109412855.4954793 0 0 108852385.4915196 0 0 109347226.6973743 0 0 111143833.0162647 0 0 108536421.8488671 0 0 111174824.6755431 0 0 110295844.4179932 0 0 108507574.6887175 0 0 108089573.9129401 0 0 110345765.7296532 0 0 112770419.7465398 0 0 113088026.1247855 0 0 112126000.9468639 0 0 108970818.5788552 0 0 112136812.1345638 0 0 116831024.99711 0 0 109229823.9682819 0 0 113590108.1648155 0 0 101997017.1629847 0 0 108828103.958432 0 0 86691022.53087659 0 0 94215781.29772434 0 0 134722976.4225989 0 0 128471195.5461693 0 0 100449193.7129008 0 0 113826098.1929918 0 0 125358424.3188281 0 0 112171781.8887276 0 0 110667035.6966267 0 0 105789162.7920643 0 0 119504242.0704904 0 0 109913780.2576709 0 0 113659921.5172233 0 0 105499209.8670756 0 0 101950298.0115641 0 0 107632209.2472975 0 0 107702684.2632143 0 0 108864830.8625311 0 0 109250783.0136581 0 0 107617658.0967161 0 0 108884835.4167005 0 0 106932454.1225417 0 0 109409045.3432567 0 0 108471576.9766867 0 0 110343288.3485575 0 0 106667039.5511783 0 0 108487103.4122721 0 0 108116826.3263056 0 0 106639097.1880595 0 0 110374113.6086573 0 0 108081235.8559428 0 0 112790573.1636262 0 0 109096365.9133847 0 0 112321789.0891951 0 0 105871497.6029392 0 0 108803440.7526978 0 0 112534046.5990996 0 0 108790645.0503379 0 0 105745962.2986969 0 0 101936872.0538834 0 0 99392622.40885435 0 0 108935965.3981691 0 0 85136612.93555695 0 0 7279219.398128578 0 0 96941203.38714805 0 0 114804185.7660779 0 0 97098993.90520465 0 0 89038122.18831265 0 0 110573133.8255495 0 0 112471288.2857056 0 0 91164951.5994646 0 0 90279972.32514018 0 0 105752327.7369852 0 0 110100755.7421244 0 0 102072480.5437912 0 0 105461965.7273435 0 0 89300476.82107253 0 0 106962909.7705513 0 0 107589837.9046284 0 0 109351949.5225414 0 0 105371117.900694 0 0 106905159.7672112 0 0 108493147.3404 0 0 106649631.6760436 0 0 105350031.6754873 0 0 108519777.5850253 0 0 103284266.2141787 0 0 106689906.6584415 0 0 108099859.9110467 0 0 103958594.8940409 0 0 108255670.1325388 0 0 108791418.0556574 0 0 105689789.9438362 0 0 103941112.3954659 0 0 108855012.4073167 0 0 108896001.0041197 0 0 99458416.43990946 0 0 105656205.5237463 0 0 101826911.5606504 0 0 90279037.39905752 0 0 99479499.56523152 0 0 99073012.65855494 0 0 10460886.70468729 0 0 63061226.74925631 0 0 95146644.09505777 0 0 59749803.11649161 0 0 89256646.28965722 0 0 92213808.85375726 0 0 111372519.6423409 0 0 91114872.81359249 0 0 90700196.42353293 0 0 109571973.1554798 0 0 92272386.80080459 0 0 89387434.07992238 0 0 105255773.3162848 0 0 90886258.44064033 0 0 101706394.4845865 0 0 89926889.2895226 0 0 90300542.17617722 0 0 102618640.2408903 0 0 105382970.034843 0 0 106624883.9591376 0 0 102617723.8312656 0 0 106626295.3333417 0 0 103380321.3546712 0 0 103270173.4526133 0 0 108100888.9648516 0 0 104045364.8921189 0 0 98251437.47158168 0 0 103975627.2764785 0 0 105638733.5433996 0 0 99505444.17074005 0 0 98235906.3128341 0 0 105647205.5502308 0 0 99174864.56317945 0 0 90729491.91359164 0 0 90230748.05573483 0 0 8345962.628858889 0 0 60940119.55306289 0 0 50601623.43555949 0 0 61961875.14990861 0 0 69623367.45624518 0 0 89076198.02517173 0 0 67091636.63945952 0 0 92348948.44149733 0 0 90569422.63674146 0 0 91129561.34062465 0 0 91587521.7754575 0 0 68082218.47951859 0 0 89967417.88022968 0 0 90210488.22130395 0 0 70009284.85428107 0 0 91135731.1128283 0 0 89119759.9965665 0 0 74538029.31893905 0 0 98469229.34413497 0 0 102727186.1066888 0 0 103263665.7677527 0 0 98036230.21196854 0 0 103429662.7312492 0 0 103860057.9889894 0 0 98053975.41961706 0 0 103817296.0894756 0 0 98422252.82022521 0 0 99274546.2753648 0 0 90162028.13232602 0 0 98384385.90375154 0 0 90392639.96652305 0 0 90521296.17115958 0 0 82459770.28381203 0 0 49750392.01705677 0 0 47558617.91755012 0 0 43032200.81782056 0 0 64083996.93920649 0 0 36308377.88147993 0 0 68190695.04048675 0 0 68975522.76533192 0 0 90570892.91920693 0 0 68752193.66641442 0 0 70340595.42002262 0 0 89681817.18421924 0 0 69385605.2676504 0 0 74827435.75912483 0 0 88736253.80187954 0 0 71362421.81861578 0 0 90254376.71346419 0 0 75953803.9353441 0 0 82668062.23136269 0 0 98277034.61474819 0 0 98500606.4460939 0 0 103219156.6011738 0 0 91257659.69225372 0 0 98248904.99170801 0 0 98179905.70126012 0 0 90552685.49089769 0 0 91325489.4900589 0 0 98073467.27371296 0 0 82660012.35217875 0 0 90055998.76111117 0 0 82795980.33758774 0 0 76003871.50263357 0 0 100629741.5203497 0 0 21151591.75600419 0 0 39786905.34292635 0 0 41745551.30428094 0 0 65032016.62876603 0 0 39720765.49713018 0 0 69581733.31230584 0 0 68541646.02464905 0 0 44577326.56128464 0 0 71299837.54968107 0 0 68266744.04470703 0 0 51828507.5798725 0 0 76301397.53554881 0 0 70015146.21511197 0 0 74775487.96119942 0 0 73452615.51533565 0 0 83189355.27049948 0 0 92906138.52731058 0 0 98711267.79539306 0 0 98016908.04265942 0 0 92987215.56536798 0 0 97918431.54389133 0 0 91678082.23159066 0 0 90163468.94819406 0 0 82516799.11555348 0 0 91663721.6443318 0 0 73783704.54581642 0 0 82775447.31370075 0 0 82772058.00989932 0 0 78106541.00686838 0 0 24805398.97077799 0 0 32314168.81440069 0 0 19240689.99022243 0 0 39456231.35852509 0 0 42964498.09380693 0 0 41882249.66474393 0 0 45520447.2490472 0 0 67177787.71821702 0 0 46752270.25633694 0 0 52948695.18929768 0 0 68832528.95855452 0 0 74229858.64794306 0 0 54378953.30666461 0 0 62335178.03100931 0 0 74681705.29012245 0 0 61999668.07260438 0 0 73482742.14087835 0 0 86248520.80703209 0 0 93265548.25031406 0 0 91322460.87192877 0 0 83143436.76347455 0 0 86439609.95823765 0 0 91138969.62257726 0 0 82827102.52865435 0 0 73481936.73720659 0 0 73823289.3945429 0 0 19799188.71403737 0 0 22997544.55972436 0 0 35963095.90549248 0 0 39846824.50161895 0 0 20605365.76744776 0 0 46300348.58047259 0 0 36240889.75304873 0 0 53648030.66445961 0 0 44962211.45836359 0 0 52812870.44329968 0 0 49015840.95850367 0 0 63109898.99655782 0 0 62693880.6952292 0 0 66682391.20920934 0 0 73217490.89588694 0 0 79524483.69702965 0 0 86790174.40408553 0 0 82506845.76265749 0 0 79704863.81453098 0 0 82156838.99583326 0 0 74241323.01300822 0 0 73291698.76688625 0 0 66546839.68345588 0 0 73936191.00130443 0 0 25429200.70259414 0 0 38831580.47047891 0 0 42208284.83867379 0 0 39778821.87199385 0 0 51342182.68152712 0 0 50747011.74774121 0 0 51404751.33029494 0 0 60238016.12548843 0 0 60666893.662329 0 0 58978915.52228878 0 0 66711381.23657394 0 0 62343560.93974696 0 0 74416932.41447207 0 0 80083792.80313744 0 0 73912729.44680978 0 0 73869121.08199188 0 0 66842815.46244145 0 0 70398456.40681466 0 0 60769049.70175187 0 0 67469240.81885098 0 0 65777555.88320968 0 0 74639458.20840135 0 0 73705892.84369469 0 0 70501585.07331434 0 0 66737620.10045098 0 0 66732420.58472689 0 0 70388222.61756608 0 0 72278008.13346496 0 0 74726933.65508956 0 0 70327230.26926734 0 0 67579328.62553468 0 0 72870664.94947392 0 0 69848972.72833879 0 0 </DataArray>
      </PointData>
    </Piece>
  </UnstructuredGrid>
</VTKFile>
