<?xml version="1.0"?>
<VTKFile type="UnstructuredGrid" version="2.2">
  <UnstructuredGrid>
    <Piece NumberOfPoints="750" NumberOfCells="250">
      <Points>
        <DataArray type="Float64" NumberOfComponents="3" format="ascii">0.100000000000416 1 0 1.53358386690793e-17 1 0 0.07242270094929616 0.9287161546587119 0 1.560150154043339e-18 1 0 -1.560150154043339e-18 0.9042857142860057 0 0.07242270094929616 0.9287161546587119 0 0.1504496488130419 0.920529655141374 0 0.100000000000416 1 0 0.07242270094929615 0.9287161546587119 0 -1.859393613009554e-18 0.9042857142860055 0 0.08949214017363677 0.8499193320733648 0 0.07242270094929616 0.9287161546587119 0 0.2000000000008322 1 0 0.100000000000416 1 0 0.1504496488130419 0.9205296551413739 0 0.08949214017363677 0.8499193320733647 0 0.1504496488130419 0.9205296551413741 0 0.07242270094929615 0.9287161546587119 0 1.927864805474704e-18 0.9042857142860055 0 -1.927864805474704e-18 0.808571428572008 0 0.08949214017363677 0.8499193320733646 0 0.2000000000008322 1 0 0.1504496488130419 0.9205296551413742 0 0.2499721953898767 0.9185928771667897 0 0.1985034546005834 0.8442209309135895 0 0.1504496488130419 0.9205296551413741 0 0.08949214017363676 0.8499193320733646 0 -1.12206869474232e-18 0.8085714285720079 0 0.07981914983849675 0.7551853746224032 0 0.08949214017363677 0.8499193320733646 0 0.3000000000012483 1 0 0.2000000000008323 1 0 0.2499721953898767 0.9185928771667897 0 0.2499721953898767 0.9185928771667898 0 0.150449648813042 0.9205296551413741 0 0.1985034546005834 0.8442209309135894 0 0.1985034546005834 0.8442209309135895 0 0.0894921401736368 0.8499193320733648 0 0.1647172437482728 0.7772037251075433 0 1.719486532314276e-18 0.8085714285720079 0 -1.719486532314276e-18 0.7128571428580416 0 0.07981914983849675 0.755185374622403 0 0.08949214017363677 0.8499193320733647 0 0.07981914983849676 0.7551853746224032 0 0.1647172437482728 0.7772037251075433 0 0.3498228780407905 0.9196059642995653 0 0.3000000000012484 1 0 0.2499721953898767 0.9185928771667897 0 0.2499721953898767 0.9185928771667898 0 0.1985034546005835 0.8442209309135896 0 0.2982782210013577 0.8494663949300395 0 0.1985034546005834 0.8442209309135895 0 0.1647172437482728 0.7772037251075435 0 0.2569918718770643 0.7888812511183693 0 0.07981914983849675 0.7551853746224031 0 1.177835094642804e-17 0.7128571428580416 0 0.07928054190150095 0.6639934880864439 0 0.07981914983849675 0.7551853746224031 0 0.157601868184365 0.6958879033296578 0 0.1647172437482728 0.7772037251075433 0 0.4000000000016644 1 0 0.3000000000012484 1 0 0.3498228780407904 0.9196059642995652 0 0.3498228780407905 0.9196059642995653 0 0.2499721953898768 0.9185928771667899 0 0.2982782210013576 0.8494663949300395 0 0.2982782210013577 0.8494663949300396 0 0.1985034546005835 0.8442209309135896 0 0.2569918718770643 0.7888812511183693 0 0.1647172437482728 0.7772037251075434 0 0.2419461962806136 0.7223495853150375 0 0.2569918718770643 0.7888812511183693 0 1.707883688939775e-18 0.7128571428580415 0 -1.707883688939775e-18 0.6171428571437531 0 0.07928054190150095 0.6639934880864439 0 0.07981914983849675 0.7551853746224031 0 0.07928054190150097 0.6639934880864441 0 0.157601868184365 0.6958879033296576 0 0.157601868184365 0.6958879033296577 0 0.2419461962806136 0.7223495853150375 0 0.1647172437482728 0.7772037251075433 0 0.4000000000016644 1 0 0.3498228780407905 0.9196059642995655 0 0.451877599516642 0.9201756489681182 0 0.3498228780407905 0.9196059642995653 0 0.2982782210013578 0.8494663949300397 0 0.3974942312305069 0.8548415168052995 0 0.3344732598930554 0.7636851316684045 0 0.2982782210013578 0.8494663949300397 0 0.2569918718770642 0.7888812511183693 0 0.2419461962806136 0.7223495853150373 0 0.3344732598930554 0.7636851316684046 0 0.2569918718770642 0.7888812511183693 0 -1.329039892525742e-18 0.6171428571437529 0 0.07947867006930205 0.5692879274260042 0 0.07928054190150095 0.6639934880864439 0 0.157601868184365 0.6958879033296577 0 0.07928054190150098 0.6639934880864441 0 0.1512795608421136 0.6093594627621803 0 0.157601868184365 0.6958879033296577 0 0.2341354436611464 0.6391200623658057 0 0.2419461962806136 0.7223495853150372 0 0.5000000000020587 1 0 0.4000000000016645 1 0 0.451877599516642 0.9201756489681182 0 0.451877599516642 0.9201756489681183 0 0.3498228780407905 0.9196059642995654 0 0.3974942312305069 0.8548415168052995 0 0.2982782210013577 0.8494663949300396 0 0.3344732598930554 0.7636851316684046 0 0.3974942312305069 0.8548415168052995 0 0.3187788313469121 0.6664952827700941 0 0.3344732598930554 0.7636851316684046 0 0.2419461962806136 0.7223495853150372 0 1.712151821548246e-18 0.6171428571437529 0 -1.712151821548246e-18 0.5214285714291635 0 0.07947867006930205 0.569287927426004 0 0.07928054190150095 0.663993488086444 0 0.07947867006930207 0.5692879274260042 0 0.1512795608421136 0.6093594627621803 0 0.2341354436611464 0.6391200623658055 0 0.157601868184365 0.6958879033296578 0 0.1512795608421136 0.6093594627621803 0 0.2341354436611464 0.6391200623658055 0 0.3187788313469122 0.6664952827700942 0 0.2419461962806136 0.7223495853150372 0 0.5501260307163514 0.9157080124063742 0 0.5000000000020588 1 0 0.451877599516642 0.9201756489681182 0 0.4982783550828394 0.8283290709972287 0 0.4518775995166421 0.9201756489681184 0 0.3974942312305069 0.8548415168052995 0 0.3344732598930554 0.7636851316684045 0 0.427001818256679 0.7748455101960312 0 0.3974942312305069 0.8548415168052995 0 0.4034544632129947 0.697636532593755 0 0.3344732598930554 0.7636851316684046 0 0.318778831346912 0.666495282770094 0 0.07947867006930205 0.5692879274260041 0 1.180450126593712e-17 0.5214285714291635 0 0.07539619259043903 0.4768398233241384 0 0.1512795608421136 0.6093594627621804 0 0.07947867006930208 0.5692879274260042 0 0.1430235002238065 0.5157881957001367 0 0.2175071670863925 0.5477913784148304 0 0.2341354436611464 0.6391200623658057 0 0.1512795608421136 0.6093594627621803 0 0.2341354436611464 0.6391200623658055 0 0.3009805024402902 0.5741244053762113 0 0.318778831346912 0.666495282770094 0 0.6000000000013869 1 0 0.5000000000020588 1 0 0.5501260307163512 0.9157080124063741 0 0.5501260307163514 0.9157080124063742 0 0.4518775995166421 0.9201756489681184 0 0.4982783550828394 0.8283290709972286 0 0.427001818256679 0.7748455101960311 0 0.4982783550828395 0.8283290709972289 0 0.3974942312305069 0.8548415168052995 0 0.4034544632129947 0.697636532593755 0 0.427001818256679 0.7748455101960312 0 0.3344732598930553 0.7636851316684043 0 0.3874961043643115 0.6045058592691969 0 0.4034544632129948 0.6976365325937551 0 0.318778831346912 0.666495282770094 0 1.624205945682807e-18 0.5214285714291634 0 -1.624205945682807e-18 0.4257142857145927 0 0.07539619259043903 0.4768398233241384 0 0.07947867006930205 0.5692879274260041 0 0.07539619259043905 0.4768398233241386 0 0.1430235002238065 0.5157881957001367 0 0.2175071670863925 0.5477913784148304 0 0.1512795608421136 0.6093594627621806 0 0.1430235002238065 0.5157881957001367 0 0.2175071670863925 0.5477913784148304 0 0.3009805024402902 0.5741244053762113 0 0.2341354436611464 0.6391200623658054 0 0.3009805024402901 0.5741244053762112 0 0.3874961043643115 0.604505859269197 0 0.318778831346912 0.666495282770094 0 0.6000000000013869 1 0 0.5501260307163515 0.9157080124063744 0 0.6547996067038541 0.9007657124885792 0 0.5501260307163514 0.9157080124063742 0 0.4982783550828395 0.8283290709972289 0 0.5904037090422966 0.8429143001779439 0 0.427001818256679 0.7748455101960311 0 0.4913158036475568 0.7286208350277664 0 0.4982783550828394 0.8283290709972286 0 0.4034544632129947 0.697636532593755 0 0.4913158036475568 0.7286208350277664 0 0.4270018182566789 0.774845510196031 0 0.4745187976455839 0.6356120107071151 0 0.4034544632129948 0.6976365325937551 0 0.3874961043643114 0.6045058592691968 0 0.07539619259043903 0.4768398233241385 0 1.10117065432973e-17 0.4257142857145926 0 0.08017840601838515 0.3963300372633092 0 0.1430235002238065 0.5157881957001368 0 0.07539619259043906 0.4768398233241386 0 0.1336105785134736 0.43617026892093 0 0.2005261161267241 0.4579553458730797 0 0.2175071670863925 0.5477913784148305 0 0.1430235002238065 0.5157881957001367 0 0.2845914509771853 0.4848763822095442 0 0.3009805024402902 0.5741244053762113 0 0.2175071670863925 0.5477913784148303 0 0.3009805024402901 0.5741244053762112 0 0.370652546614703 0.5134749220451615 0 0.3874961043643114 0.6045058592691968 0 0.7000000000006934 1 0 0.600000000001387 1 0 0.6547996067038541 0.9007657124885792 0 0.6547996067038542 0.9007657124885793 0 0.5501260307163515 0.9157080124063743 0 0.5904037090422966 0.8429143001779439 0 0.4982783550828394 0.8283290709972287 0 0.5766230053158803 0.7565871942768906 0 0.5904037090422966 0.8429143001779439 0 0.4982783550828394 0.8283290709972287 0 0.4913158036475568 0.7286208350277664 0 0.5766230053158802 0.7565871942768904 0 0.4745187976455839 0.6356120107071151 0 0.4913158036475568 0.7286208350277664 0 0.4034544632129947 0.6976365325937549 0 0.457563969842983 0.5427700263048025 0 0.474518797645584 0.6356120107071153 0 0.3874961043643114 0.6045058592691968 0 1.727225729790304e-18 0.4257142857145926 0 -1.727225729790304e-18 0.3300000000000001 0 0.08017840601838515 0.3963300372633092 0 0.07539619259043903 0.4768398233241385 0 0.08017840601838516 0.3963300372633093 0 0.1336105785134736 0.43617026892093 0 0.2005261161267241 0.4579553458730797 0 0.1430235002238065 0.5157881957001369 0 0.1336105785134736 0.43617026892093 0 0.2845914509771853 0.4848763822095442 0 0.2175071670863926 0.5477913784148305 0 0.2005261161267241 0.4579553458730796 0 0.2845914509771853 0.4848763822095442 0 0.370652546614703 0.5134749220451615 0 0.3009805024402901 0.5741244053762112 0 0.3706525466147029 0.5134749220451614 0 0.457563969842983 0.5427700263048026 0 0.3874961043643114 0.6045058592691968 0 0.7543567317362886 0.9205245603071641 0 0.7000000000006935 1 0 0.6547996067038541 0.9007657124885792 0 0.6561937266592248 0.7952487040793255 0 0.6547996067038543 0.9007657124885794 0 0.5904037090422966 0.8429143001779439 0 0.5766230053158802 0.7565871942768905 0 0.6561937266592249 0.7952487040793256 0 0.5904037090422966 0.8429143001779439 0 0.4913158036475567 0.7286208350277663 0 0.5631276294683243 0.6660590631089184 0 0.5766230053158801 0.7565871942768904 0 0.4745187976455839 0.6356120107071151 0 0.5631276294683243 0.6660590631089184 0 0.4913158036475567 0.7286208350277662 0 0.5449520634070169 0.5736116873632142 0 0.474518797645584 0.6356120107071153 0 0.4575639698429829 0.5427700263048024 0 -1.536348116418776e-18 0.33 0 0.0854102851163888 0.3187555226130792 0 0.08017840601838515 0.3963300372633092 0 0.08017840601838515 0.3963300372633093 0 0.164059367054696 0.3719448044930115 0 0.1336105785134736 0.43617026892093 0 0.164059367054696 0.3719448044930115 0 0.2005261161267241 0.4579553458730797 0 0.1336105785134736 0.43617026892093 0 0.2845914509771853 0.4848763822095442 0 0.2005261161267242 0.4579553458730797 0 0.2643248175621772 0.3987638366763465 0 0.3539299266278166 0.4249789750790706 0 0.370652546614703 0.5134749220451615 0 0.2845914509771852 0.4848763822095442 0 0.3706525466147029 0.5134749220451614 0 0.4393289521948477 0.4527926136921334 0 0.4575639698429829 0.5427700263048025 0 0.7999999999999998 1 0 0.7000000000006935 1 0 0.7543567317362885 0.920524560307164 0 0.7543567317362886 0.9205245603071641 0 0.6547996067038543 0.9007657124885794 0 0.733735753435247 0.8320636705894817 0 0.6547996067038542 0.9007657124885793 0 0.6561937266592249 0.7952487040793256 0 0.733735753435247 0.8320636705894817 0 0.6531478674828468 0.7030485185081188 0 0.6561937266592249 0.7952487040793256 0 0.5766230053158801 0.7565871942768904 0 0.5631276294683242 0.6660590631089183 0 0.6531478674828469 0.7030485185081189 0 0.5766230053158801 0.7565871942768904 0 0.5449520634070169 0.5736116873632142 0 0.5631276294683243 0.6660590631089184 0 0.4745187976455839 0.635612010707115 0 0.5264916765091933 0.482014321178542 0 0.544952063407017 0.5736116873632143 0 0.4575639698429829 0.5427700263048024 0 0.0854102851163888 0.3187555226130791 0 0.164059367054696 0.3719448044930115 0 0.08017840601838513 0.3963300372633092 0 0.2005261161267241 0.4579553458730797 0 0.164059367054696 0.3719448044930115 0 0.2643248175621772 0.3987638366763465 0 0.3539299266278166 0.4249789750790706 0 0.2845914509771854 0.4848763822095443 0 0.2643248175621771 0.3987638366763465 0 0.3539299266278166 0.4249789750790706 0 0.4393289521948477 0.4527926136921334 0 0.3706525466147029 0.5134749220451614 0 0.4393289521948477 0.4527926136921333 0 0.5264916765091934 0.482014321178542 0 0.4575639698429829 0.5427700263048025 0 0.7999999999999998 1 0 0.7543567317362887 0.9205245603071643 0 0.8469936203143577 0.9266230858757654 0 0.7543567317362886 0.9205245603071641 0 0.7337357534352472 0.8320636705894819 0 0.8112077680452559 0.8636996853036775 0 0.6561937266592248 0.7952487040793255 0 0.739472295912085 0.7432808756035073 0 0.733735753435247 0.8320636705894817 0 0.6531478674828468 0.7030485185081188 0 0.739472295912085 0.7432808756035073 0 0.6561937266592247 0.7952487040793254 0 0.5631276294683242 0.6660590631089183 0 0.6374023866986613 0.6062433926805767 0 0.6531478674828467 0.7030485185081187 0 0.5449520634070169 0.5736116873632142 0 0.6374023866986613 0.6062433926805767 0 0.5631276294683241 0.6660590631089182 0 0.5264916765091933 0.482014321178542 0 0.6148622751821855 0.5113105423847634 0 0.5449520634070167 0.5736116873632142 0 0.0854102851163888 0.3187555226130791 0 0.1650000004351555 0.2857883829976277 0 0.164059367054696 0.3719448044930114 0 0.164059367054696 0.3719448044930115 0 0.2462583129076185 0.3160366088497619 0 0.2643248175621772 0.3987638366763465 0 0.336583731679023 0.3367909035536117 0 0.3539299266278166 0.4249789750790707 0 0.2643248175621771 0.3987638366763465 0 0.3539299266278166 0.4249789750790706 0 0.4214663514767307 0.3644860394694712 0 0.4393289521948476 0.4527926136921333 0 0.4393289521948477 0.4527926136921333 0 0.5075735779823184 0.3921138039661037 0 0.5264916765091933 0.4820143211785419 0 0.8999999999995836 1 0 0.7999999999999999 1 0 0.8469936203143577 0.9266230858757654 0 0.8469936203143578 0.9266230858757655 0 0.7543567317362887 0.9205245603071642 0 0.8112077680452559 0.8636996853036775 0 0.7337357534352471 0.8320636705894818 0 0.819256625240533 0.7890860953933758 0 0.8112077680452559 0.8636996853036775 0 0.7394722959120849 0.7432808756035072 0 0.819256625240533 0.7890860953933758 0 0.733735753435247 0.8320636705894817 0 0.6531478674828468 0.7030485185081188 0 0.7391175425474388 0.6347508716709132 0 0.7394722959120847 0.7432808756035071 0 0.6531478674828468 0.7030485185081188 0 0.6374023866986613 0.6062433926805767 0 0.7391175425474386 0.6347508716709129 0 0.5449520634070169 0.5736116873632142 0 0.6148622751821855 0.5113105423847634 0 0.6374023866986611 0.6062433926805765 0 0.5264916765091933 0.482014321178542 0 0.5953929619133024 0.4201954587110724 0 0.6148622751821853 0.5113105423847633 0 0.164059367054696 0.3719448044930115 0 0.1650000004351555 0.2857883829976277 0 0.2462583129076185 0.3160366088497618 0 0.2462583129076185 0.3160366088497618 0 0.3365837316790231 0.3367909035536117 0 0.2643248175621771 0.3987638366763465 0 0.336583731679023 0.3367909035536117 0 0.4214663514767307 0.3644860394694712 0 0.3539299266278165 0.4249789750790706 0 0.4393289521948477 0.4527926136921333 0 0.4214663514767307 0.3644860394694712 0 0.5075735779823183 0.3921138039661036 0 0.5264916765091933 0.482014321178542 0 0.5075735779823184 0.3921138039661037 0 0.5953929619133022 0.4201954587110723 0 0.8999999999995836 1 0 0.8469936203143579 0.9266230858757657 0 0.9267949192429045 0.9267949192429457 0 0.9016961094998541 0.8502010143526014 0 0.8469936203143579 0.9266230858757656 0 0.8112077680452559 0.8636996853036775 0 0.8192566252405329 0.7890860953933757 0 0.9016961094998542 0.8502010143526015 0 0.8112077680452559 0.8636996853036775 0 0.7394722959120849 0.7432808756035072 0 0.8288651147246971 0.698679757807666 0 0.8192566252405328 0.7890860953933756 0 0.7391175425474387 0.634750871670913 0 0.8288651147246971 0.698679757807666 0 0.7394722959120847 0.7432808756035071 0 0.6374023866986612 0.6062433926805766 0 0.702296650772572 0.5383879928347232 0 0.7391175425474386 0.6347508716709129 0 0.6374023866986612 0.6062433926805766 0 0.6148622751821855 0.5113105423847634 0 0.7022966507725718 0.5383879928347229 0 0.6148622751821854 0.5113105423847633 0 0.5953929619133024 0.4201954587110725 0 0.6812846140412886 0.4460449154471239 0 0.1650000004351555 0.2857883829976276 0 0.2333452383548381 0.2333452372282833 0 0.2462583129076185 0.3160366088497618 0 0.2462583129076185 0.3160366088497618 0 0.325185383712115 0.2418990257178655 0 0.3365837316790229 0.3367909035536116 0 0.336583731679023 0.3367909035536117 0 0.4070425547712777 0.2792204871089636 0 0.4214663514767306 0.3644860394694711 0 0.5075735779823183 0.3921138039661037 0 0.4214663514767307 0.3644860394694712 0 0.4889892423138356 0.3038076761249733 0 0.5953929619133023 0.4201954587110724 0 0.5075735779823184 0.3921138039661037 0 0.5758076665880537 0.3296092558990191 0 1 1 0 0.8999999999995838 1 0 0.9267949192429045 0.9267949192429457 0 0.8469936203143578 0.9266230858757655 0 0.9016961094998542 0.8502010143526015 0 0.9267949192429045 0.9267949192429457 0 0.9016961094998541 0.8502010143526014 0 0.819256625240533 0.7890860953933758 0 0.9105973158607924 0.7479451577263728 0 0.8192566252405329 0.7890860953933757 0 0.8288651147246971 0.698679757807666 0 0.9105973158607924 0.7479451577263728 0 0.8337113423553407 0.5996960087499142 0 0.8288651147246971 0.698679757807666 0 0.7391175425474386 0.6347508716709129 0 0.7391175425474387 0.634750871670913 0 0.702296650772572 0.5383879928347232 0 0.7760953731115513 0.5499323499659109 0 0.7022966507725719 0.5383879928347231 0 0.6148622751821855 0.5113105423847634 0 0.6812846140412886 0.4460449154471239 0 0.5953929619133023 0.4201954587110724 0 0.6649137529579178 0.3577436959955138 0 0.6812846140412886 0.4460449154471239 0 0.2333452383548381 0.2333452372282832 0 0.325185383712115 0.2418990257178654 0 0.2462583129076185 0.3160366088497618 0 0.336583731679023 0.3367909035536117 0 0.325185383712115 0.2418990257178655 0 0.4070425547712775 0.2792204871089635 0 0.4214663514767306 0.3644860394694711 0 0.4070425547712777 0.2792204871089636 0 0.4889892423138356 0.3038076761249733 0 0.5758076665880538 0.3296092558990192 0 0.5075735779823184 0.3921138039661037 0 0.4889892423138356 0.3038076761249733 0 0.5953929619133023 0.4201954587110724 0 0.5758076665880539 0.3296092558990192 0 0.6649137529579175 0.3577436959955136 0 1 0.8999999999997368 0 1 1 0 0.9267949192429045 0.9267949192429457 0 0.9016961094998541 0.8502010143526014 0 1 0.8999999999997369 0 0.9267949192429045 0.9267949192429457 0 1 0.7999999999994734 0 0.9016961094998543 0.8502010143526015 0 0.9105973158607924 0.7479451577263728 0 0.828865114724697 0.6986797578076659 0 0.9137660456996721 0.6497040788059111 0 0.9105973158607924 0.7479451577263728 0 0.8337113423553407 0.5996960087499142 0 0.9137660456996721 0.6497040788059111 0 0.8288651147246969 0.6986797578076658 0 0.8337113423553407 0.5996960087499142 0 0.7391175425474388 0.6347508716709132 0 0.7760953731115513 0.5499323499659109 0 0.7022966507725719 0.5383879928347231 0 0.7640906286245651 0.4727193297685514 0 0.7760953731115513 0.5499323499659109 0 0.7022966507725719 0.5383879928347231 0 0.6812846140412888 0.4460449154471241 0 0.7640906286245649 0.4727193297685512 0 0.6649137529579177 0.3577436959955137 0 0.7509658874862278 0.383790884649259 0 0.6812846140412886 0.4460449154471239 0 0.2333452383548381 0.2333452372282832 0 0.2857883835161865 0.1649999995369853 0 0.3251853837121149 0.2418990257178654 0 0.4070425547712776 0.2792204871089636 0 0.325185383712115 0.2418990257178655 0 0.4035780771799723 0.2107049125048627 0 0.4889892423138356 0.3038076761249734 0 0.4070425547712777 0.2792204871089636 0 0.4711446761746211 0.2206591250436211 0 0.5533431996313982 0.2396037875354144 0 0.5758076665880539 0.3296092558990192 0 0.4889892423138356 0.3038076761249733 0 0.6649137529579177 0.3577436959955137 0 0.5758076665880539 0.3296092558990192 0 0.6436084350545209 0.26423538634157 0 1 0.7999999999994734 0 1 0.8999999999997369 0 0.901696109499854 0.8502010143526013 0 1 0.69999999999921 0 1 0.7999999999994735 0 0.9105973158607924 0.7479451577263728 0 0.913766045699672 0.649704078805911 0 1 0.6999999999992101 0 0.9105973158607924 0.7479451577263728 0 0.9143104164693288 0.5502457745856388 0 0.9137660456996721 0.6497040788059111 0 0.8337113423553406 0.5996960087499141 0 0.8396680954007476 0.5041237028824692 0 0.8337113423553408 0.5996960087499144 0 0.7760953731115513 0.5499323499659109 0 0.764090628624565 0.4727193297685513 0 0.8396680954007477 0.5041237028824693 0 0.7760953731115513 0.549932349965911 0 0.6812846140412887 0.446044915447124 0 0.7509658874862278 0.383790884649259 0 0.7640906286245649 0.4727193297685512 0 0.6649137529579177 0.3577436959955137 0 0.7333924435874726 0.2993780894363455 0 0.7509658874862276 0.3837908846492589 0 0.3251853837121149 0.2418990257178654 0 0.2857883835161865 0.1649999995369853 0 0.364895775260603 0.1555527535858053 0 0.3251853837121149 0.2418990257178654 0 0.3648957752606031 0.1555527535858053 0 0.4035780771799723 0.2107049125048627 0 0.4711446761746212 0.2206591250436211 0 0.4070425547712777 0.2792204871089636 0 0.4035780771799723 0.2107049125048627 0 0.5533431996313982 0.2396037875354144 0 0.4889892423138357 0.3038076761249734 0 0.4711446761746211 0.2206591250436211 0 0.643608435054521 0.26423538634157 0 0.5758076665880539 0.3296092558990192 0 0.5533431996313981 0.2396037875354144 0 0.6649137529579177 0.3577436959955137 0 0.6436084350545211 0.2642353863415701 0 0.7333924435874724 0.2993780894363454 0 1 0.5999999999989468 0 1 0.6999999999992101 0 0.9137660456996719 0.6497040788059109 0 1 0.5999999999989468 0 0.9137660456996722 0.6497040788059111 0 0.9143104164693286 0.5502457745856387 0 0.9143104164693288 0.5502457745856388 0 0.8337113423553408 0.5996960087499144 0 0.8396680954007475 0.5041237028824691 0 0.8342331509350035 0.4140361328318218 0 0.8396680954007477 0.5041237028824693 0 0.7640906286245649 0.4727193297685512 0 0.7509658874862277 0.3837908846492589 0 0.8342331509350036 0.4140361328318218 0 0.7640906286245649 0.4727193297685512 0 0.7509658874862277 0.3837908846492589 0 0.7333924435874726 0.2993780894363455 0 0.8263642251709323 0.3235072125777742 0 0.2857883835161864 0.1649999995369853 0 0.3187555227431478 0.08541028463096599 0 0.364895775260603 0.1555527535858053 0 0.3648957752606031 0.1555527535858053 0 0.4407949287895321 0.1503338094757088 0 0.4035780771799723 0.2107049125048627 0 0.440794928789532 0.1503338094757088 0 0.4711446761746212 0.2206591250436211 0 0.4035780771799723 0.2107049125048627 0 0.5533431996313982 0.2396037875354144 0 0.4711446761746213 0.2206591250436211 0 0.5280186054028273 0.15706471926695 0 0.643608435054521 0.26423538634157 0 0.5533431996313983 0.2396037875354144 0 0.6132366197277308 0.170283671093053 0 0.7333924435874725 0.2993780894363454 0 0.6436084350545211 0.2642353863415701 0 0.7180649978892393 0.1971965142324811 0 1 0.4999999999986943 0 1 0.5999999999989469 0 0.9143104164693286 0.5502457745856387 0 0.916368709783832 0.4515076337375428 0 0.9143104164693289 0.5502457745856389 0 0.8396680954007475 0.5041237028824691 0 0.916368709783832 0.4515076337375428 0 0.8396680954007477 0.5041237028824693 0 0.8342331509350034 0.4140361328318217 0 0.7509658874862277 0.3837908846492589 0 0.8263642251709326 0.3235072125777743 0 0.8342331509350034 0.4140361328318217 0 0.8263642251709324 0.3235072125777742 0 0.7333924435874726 0.2993780894363455 0 0.7983682599267166 0.2535536781211901 0 0.3648957752606031 0.1555527535858053 0 0.3187555227431478 0.08541028463096599 0 0.3966376598822499 0.07841900855448648 0 0.3648957752606031 0.1555527535858053 0 0.39663765988225 0.07841900855448652 0 0.440794928789532 0.1503338094757088 0 0.5280186054028274 0.15706471926695 0 0.4711446761746213 0.2206591250436211 0 0.440794928789532 0.1503338094757088 0 0.6132366197277309 0.170283671093053 0 0.5533431996313983 0.2396037875354144 0 0.5280186054028273 0.15706471926695 0 0.7180649978892394 0.1971965142324811 0 0.6436084350545211 0.2642353863415701 0 0.6132366197277308 0.170283671093053 0 0.7333924435874725 0.2993780894363454 0 0.7180649978892395 0.1971965142324812 0 0.7983682599267166 0.2535536781211901 0 0.916368709783832 0.4515076337375428 0 1 0.4999999999986944 0 0.9143104164693286 0.5502457745856388 0 0.9127558318327541 0.3564464450364734 0 0.9163687097838321 0.4515076337375429 0 0.8342331509350034 0.4140361328318217 0 0.8263642251709324 0.3235072125777742 0 0.9127558318327542 0.3564464450364734 0 0.8342331509350034 0.4140361328318217 0 0.8955554812928543 0.2551442917568858 0 0.8263642251709326 0.3235072125777743 0 0.7983682599267166 0.2535536781211901 0 0.3187555227431477 0.08541028463096596 0 0.3300000000000001 1.27415878492528e-17 0 0.3966376598822499 0.0784190085544865 0 0.3966376598822499 0.0784190085544865 0 0.4804947788369185 0.07960233789852757 0 0.440794928789532 0.1503338094757088 0 0.4804947788369185 0.07960233789852755 0 0.5280186054028275 0.15706471926695 0 0.440794928789532 0.1503338094757088 0 0.5713844803892862 0.08071061624839421 0 0.613236619727731 0.170283671093053 0 0.5280186054028273 0.15706471926695 0 0.6649999999991137 0.08289100293350835 0 0.7180649978892395 0.1971965142324811 0 0.6132366197277308 0.170283671093053 0 0.7180649978892394 0.1971965142324811 0 0.8239593393238149 0.1758659824077986 0 0.7983682599267166 0.2535536781211901 0 1 0.399999999998975 0 1 0.4999999999986944 0 0.9163687097838319 0.4515076337375428 0 1 0.399999999998975 0 0.9163687097838322 0.4515076337375429 0 0.912755831832754 0.3564464450364733 0 0.8263642251709324 0.3235072125777742 0 0.8955554812928544 0.2551442917568859 0 0.912755831832754 0.3564464450364733 0 0.8239593393238148 0.1758659824077986 0 0.8955554812928544 0.2551442917568859 0 0.7983682599267166 0.2535536781211901 0 0.33 1.689324295732401e-18 0 0.4257142857140301 -1.689324295732401e-18 0 0.3966376598822499 0.0784190085544865 0 0.4257142857140301 -1.352324701325956e-18 0 0.4804947788369185 0.07960233789852755 0 0.3966376598822499 0.0784190085544865 0 0.4804947788369185 0.07960233789852755 0 0.5713844803892864 0.08071061624839422 0 0.5280186054028273 0.15706471926695 0 0.5713844803892862 0.08071061624839421 0 0.6649999999991139 0.08289100293350837 0 0.6132366197277308 0.170283671093053 0 0.7180649978892394 0.1971965142324811 0 0.6649999999991139 0.08289100293350839 0 0.7614399244630436 0.1024449365784278 0 0.7180649978892394 0.1971965142324811 0 0.7614399244630439 0.1024449365784278 0 0.8239593393238147 0.1758659824077986 0 1 0.2999999999992664 0 1 0.3999999999989751 0 0.912755831832754 0.3564464450364733 0 0.8955554812928543 0.2551442917568858 0 1 0.2999999999992665 0 0.912755831832754 0.3564464450364733 0 0.8955554812928543 0.2551442917568858 0 0.8239593393238149 0.1758659824077987 0 0.9177753013045603 0.1474028499237799 0 0.4257142857140301 1.714815908640931e-18 0 0.5214285714279892 -1.714815908640931e-18 0 0.4804947788369184 0.07960233789852755 0 0.4804947788369185 0.07960233789852755 0 0.5214285714279892 1.171091136225862e-17 0 0.5713844803892861 0.08071061624839421 0 0.6171428571420019 -1.428619940081069e-18 0 0.6649999999991139 0.08289100293350836 0 0.5713844803892861 0.08071061624839421 0 0.6649999999991137 0.08289100293350836 0 0.7128571428562256 1.179835700928075e-17 0 0.7614399244630436 0.1024449365784278 0 0.7614399244630438 0.1024449365784278 0 0.8564285714281221 0.08289100293390839 0 0.8239593393238147 0.1758659824077986 0 1 0.1999999999995579 0 1 0.2999999999992665 0 0.8955554812928542 0.2551442917568858 0 1 0.1999999999995579 0 0.8955554812928546 0.2551442917568859 0 0.9177753013045603 0.1474028499237799 0 0.8239593393238148 0.1758659824077986 0 0.8564285714281221 0.0828910029339084 0 0.9177753013045603 0.1474028499237799 0 0.521428571427989 1.738690751964958e-18 0 0.617142857142002 -1.738690751964958e-18 0 0.5713844803892861 0.08071061624839421 0 0.6171428571420019 1.785661254004595e-18 0 0.7128571428562256 -1.785661254004595e-18 0 0.6649999999991136 0.08289100293350836 0 0.7128571428562255 2.206897581680811e-18 0 0.8085714285708151 -2.206897581680811e-18 0 0.7614399244630436 0.1024449365784278 0 0.808571428570815 -9.604131103805016e-19 0 0.8564285714281221 0.08289100293390837 0 0.7614399244630436 0.1024449365784278 0 1 0.09999999999981467 0 1 0.1999999999995579 0 0.9177753013045603 0.1474028499237799 0 0.9177753013045604 0.1474028499237799 0 0.8564285714281221 0.0828910029339084 0 0.9307084157825722 0.0705158224447139 0 0.808571428570815 1.785661254013212e-18 0 0.9042857142854294 -1.785661254013212e-18 0 0.8564285714281219 0.08289100293390837 0 1 0.09999999999981468 0 0.9177753013045606 0.1474028499237799 0 0.9307084157825722 0.0705158224447139 0 0.856428571428122 0.08289100293390837 0 0.9042857142854294 1.248618294902237e-17 0 0.9307084157825722 0.07051582244471391 0 1 -2.301983213103179e-18 0 1 0.09999999999981468 0 0.9307084157825722 0.07051582244471391 0 0.9042857142854293 1.519071642006778e-18 0 1 -1.519071642006778e-18 0 0.9307084157825722 0.07051582244471391 0 </DataArray>
      </Points>
      <Cells>
        <DataArray type="Int32" Name="connectivity" format="ascii">0 1 2 3 4 5 6 7 8 9 10 11 12 13 14 15 16 17 18 19 20 21 22 23 24 25 26 27 28 29 30 31 32 33 34 35 36 37 38 39 40 41 42 43 44 45 46 47 48 49 50 51 52 53 54 55 56 57 58 59 60 61 62 63 64 65 66 67 68 69 70 71 72 73 74 75 76 77 78 79 80 81 82 83 84 85 86 87 88 89 90 91 92 93 94 95 96 97 98 99 100 101 102 103 104 105 106 107 108 109 110 111 112 113 114 115 116 117 118 119 120 121 122 123 124 125 126 127 128 129 130 131 132 133 134 135 136 137 138 139 140 141 142 143 144 145 146 147 148 149 150 151 152 153 154 155 156 157 158 159 160 161 162 163 164 165 166 167 168 169 170 171 172 173 174 175 176 177 178 179 180 181 182 183 184 185 186 187 188 189 190 191 192 193 194 195 196 197 198 199 200 201 202 203 204 205 206 207 208 209 210 211 212 213 214 215 216 217 218 219 220 221 222 223 224 225 226 227 228 229 230 231 232 233 234 235 236 237 238 239 240 241 242 243 244 245 246 247 248 249 250 251 252 253 254 255 256 257 258 259 260 261 262 263 264 265 266 267 268 269 270 271 272 273 274 275 276 277 278 279 280 281 282 283 284 285 286 287 288 289 290 291 292 293 294 295 296 297 298 299 300 301 302 303 304 305 306 307 308 309 310 311 312 313 314 315 316 317 318 319 320 321 322 323 324 325 326 327 328 329 330 331 332 333 334 335 336 337 338 339 340 341 342 343 344 345 346 347 348 349 350 351 352 353 354 355 356 357 358 359 360 361 362 363 364 365 366 367 368 369 370 371 372 373 374 375 376 377 378 379 380 381 382 383 384 385 386 387 388 389 390 391 392 393 394 395 396 397 398 399 400 401 402 403 404 405 406 407 408 409 410 411 412 413 414 415 416 417 418 419 420 421 422 423 424 425 426 427 428 429 430 431 432 433 434 435 436 437 438 439 440 441 442 443 444 445 446 447 448 449 450 451 452 453 454 455 456 457 458 459 460 461 462 463 464 465 466 467 468 469 470 471 472 473 474 475 476 477 478 479 480 481 482 483 484 485 486 487 488 489 490 491 492 493 494 495 496 497 498 499 500 501 502 503 504 505 506 507 508 509 510 511 512 513 514 515 516 517 518 519 520 521 522 523 524 525 526 527 528 529 530 531 532 533 534 535 536 537 538 539 540 541 542 543 544 545 546 547 548 549 550 551 552 553 554 555 556 557 558 559 560 561 562 563 564 565 566 567 568 569 570 571 572 573 574 575 576 577 578 579 580 581 582 583 584 585 586 587 588 589 590 591 592 593 594 595 596 597 598 599 600 601 602 603 604 605 606 607 608 609 610 611 612 613 614 615 616 617 618 619 620 621 622 623 624 625 626 627 628 629 630 631 632 633 634 635 636 637 638 639 640 641 642 643 644 645 646 647 648 649 650 651 652 653 654 655 656 657 658 659 660 661 662 663 664 665 666 667 668 669 670 671 672 673 674 675 676 677 678 679 680 681 682 683 684 685 686 687 688 689 690 691 692 693 694 695 696 697 698 699 700 701 702 703 704 705 706 707 708 709 710 711 712 713 714 715 716 717 718 719 720 721 722 723 724 725 726 727 728 729 730 731 732 733 734 735 736 737 738 739 740 741 742 743 744 745 746 747 748 749 </DataArray>
        <DataArray type="Int32" Name="offsets" format="ascii">3 6 9 12 15 18 21 24 27 30 33 36 39 42 45 48 51 54 57 60 63 66 69 72 75 78 81 84 87 90 93 96 99 102 105 108 111 114 117 120 123 126 129 132 135 138 141 144 147 150 153 156 159 162 165 168 171 174 177 180 183 186 189 192 195 198 201 204 207 210 213 216 219 222 225 228 231 234 237 240 243 246 249 252 255 258 261 264 267 270 273 276 279 282 285 288 291 294 297 300 303 306 309 312 315 318 321 324 327 330 333 336 339 342 345 348 351 354 357 360 363 366 369 372 375 378 381 384 387 390 393 396 399 402 405 408 411 414 417 420 423 426 429 432 435 438 441 444 447 450 453 456 459 462 465 468 471 474 477 480 483 486 489 492 495 498 501 504 507 510 513 516 519 522 525 528 531 534 537 540 543 546 549 552 555 558 561 564 567 570 573 576 579 582 585 588 591 594 597 600 603 606 609 612 615 618 621 624 627 630 633 636 639 642 645 648 651 654 657 660 663 666 669 672 675 678 681 684 687 690 693 696 699 702 705 708 711 714 717 720 723 726 729 732 735 738 741 744 747 750 </DataArray>
        <DataArray type="Int8" Name="types" format="ascii">69 69 69 69 69 69 69 69 69 69 69 69 69 69 69 69 69 69 69 69 69 69 69 69 69 69 69 69 69 69 69 69 69 69 69 69 69 69 69 69 69 69 69 69 69 69 69 69 69 69 69 69 69 69 69 69 69 69 69 69 69 69 69 69 69 69 69 69 69 69 69 69 69 69 69 69 69 69 69 69 69 69 69 69 69 69 69 69 69 69 69 69 69 69 69 69 69 69 69 69 69 69 69 69 69 69 69 69 69 69 69 69 69 69 69 69 69 69 69 69 69 69 69 69 69 69 69 69 69 69 69 69 69 69 69 69 69 69 69 69 69 69 69 69 69 69 69 69 69 69 69 69 69 69 69 69 69 69 69 69 69 69 69 69 69 69 69 69 69 69 69 69 69 69 69 69 69 69 69 69 69 69 69 69 69 69 69 69 69 69 69 69 69 69 69 69 69 69 69 69 69 69 69 69 69 69 69 69 69 69 69 69 69 69 69 69 69 69 69 69 69 69 69 69 69 69 69 69 69 69 69 69 69 69 69 69 69 69 69 69 69 69 69 69 69 69 69 69 69 69 </DataArray>
      </Cells>
      <CellData>
        <DataArray type="UInt8" Name="vtkGhostType" format="ascii" RangeMin="0" RangeMax="1">0 0 0 0 0 0 0 0 0 0 0 0 0 0 0 0 0 0 0 0 0 0 0 0 0 0 0 0 0 0 0 0 0 0 0 0 0 0 0 0 0 0 0 0 0 0 0 0 0 0 0 0 0 0 0 0 0 0 0 0 0 0 0 0 0 0 0 0 0 0 0 0 0 0 0 0 0 0 0 0 0 0 0 0 0 0 0 0 0 0 0 0 0 0 0 0 0 0 0 0 0 0 0 0 0 0 0 0 0 0 0 0 0 0 0 0 0 0 0 0 0 0 0 0 0 0 0 0 0 0 0 0 0 0 0 0 0 0 0 0 0 0 0 0 0 0 0 0 0 0 0 0 0 0 0 0 0 0 0 0 0 0 0 0 0 0 0 0 0 0 0 0 0 0 0 0 0 0 0 0 0 0 0 0 0 0 0 0 0 0 0 0 0 0 0 0 0 0 0 0 0 0 0 0 0 0 0 0 0 0 0 0 0 0 0 0 0 0 0 0 0 0 0 0 0 0 0 0 0 0 0 0 0 0 0 0 0 0 0 0 0 0 0 0 0 0 0 0 0 0 </DataArray>
        <DataArray type="Int64" IdType="1" Name="vtkOriginalCellIds" format="ascii" RangeMin="0" RangeMax="249">0 1 2 3 4 5 6 7 8 9 10 11 12 13 14 15 16 17 18 19 20 21 22 23 24 25 26 27 28 29 30 31 32 33 34 35 36 37 38 39 40 41 42 43 44 45 46 47 48 49 50 51 52 53 54 55 56 57 58 59 60 61 62 63 64 65 66 67 68 69 70 71 72 73 74 75 76 77 78 79 80 81 82 83 84 85 86 87 88 89 90 91 92 93 94 95 96 97 98 99 100 101 102 103 104 105 106 107 108 109 110 111 112 113 114 115 116 117 118 119 120 121 122 123 124 125 126 127 128 129 130 131 132 133 134 135 136 137 138 139 140 141 142 143 144 145 146 147 148 149 150 151 152 153 154 155 156 157 158 159 160 161 162 163 164 165 166 167 168 169 170 171 172 173 174 175 176 177 178 179 180 181 182 183 184 185 186 187 188 189 190 191 192 193 194 195 196 197 198 199 200 201 202 203 204 205 206 207 208 209 210 211 212 213 214 215 216 217 218 219 220 221 222 223 224 225 226 227 228 229 230 231 232 233 234 235 236 237 238 239 240 241 242 243 244 245 246 247 248 249 </DataArray>
      </CellData>
      <PointData Tensors="stress" Vectors="von_mises_stress">
        <DataArray type="Int64" IdType="1" Name="vtkOriginalPointIds" format="ascii" RangeMin="0" RangeMax="749">0 1 2 3 4 5 6 7 8 9 10 11 12 13 14 15 16 17 18 19 20 21 22 23 24 25 26 27 28 29 30 31 32 33 34 35 36 37 38 39 40 41 42 43 44 45 46 47 48 49 50 51 52 53 54 55 56 57 58 59 60 61 62 63 64 65 66 67 68 69 70 71 72 73 74 75 76 77 78 79 80 81 82 83 84 85 86 87 88 89 90 91 92 93 94 95 96 97 98 99 100 101 102 103 104 105 106 107 108 109 110 111 112 113 114 115 116 117 118 119 120 121 122 123 124 125 126 127 128 129 130 131 132 133 134 135 136 137 138 139 140 141 142 143 144 145 146 147 148 149 150 151 152 153 154 155 156 157 158 159 160 161 162 163 164 165 166 167 168 169 170 171 172 173 174 175 176 177 178 179 180 181 182 183 184 185 186 187 188 189 190 191 192 193 194 195 196 197 198 199 200 201 202 203 204 205 206 207 208 209 210 211 212 213 214 215 216 217 218 219 220 221 222 223 224 225 226 227 228 229 230 231 232 233 234 235 236 237 238 239 240 241 242 243 244 245 246 247 248 249 250 251 252 253 254 255 256 257 258 259 260 261 262 263 264 265 266 267 268 269 270 271 272 273 274 275 276 277 278 279 280 281 282 283 284 285 286 287 288 289 290 291 292 293 294 295 296 297 298 299 300 301 302 303 304 305 306 307 308 309 310 311 312 313 314 315 316 317 318 319 320 321 322 323 324 325 326 327 328 329 330 331 332 333 334 335 336 337 338 339 340 341 342 343 344 345 346 347 348 349 350 351 352 353 354 355 356 357 358 359 360 361 362 363 364 365 366 367 368 369 370 371 372 373 374 375 376 377 378 379 380 381 382 383 384 385 386 387 388 389 390 391 392 393 394 395 396 397 398 399 400 401 402 403 404 405 406 407 408 409 410 411 412 413 414 415 416 417 418 419 420 421 422 423 424 425 426 427 428 429 430 431 432 433 434 435 436 437 438 439 440 441 442 443 444 445 446 447 448 449 450 451 452 453 454 455 456 457 458 459 460 461 462 463 464 465 466 467 468 469 470 471 472 473 474 475 476 477 478 479 480 481 482 483 484 485 486 487 488 489 490 491 492 493 494 495 496 497 498 499 500 501 502 503 504 505 506 507 508 509 510 511 512 513 514 515 516 517 518 519 520 521 522 523 524 525 526 527 528 529 530 531 532 533 534 535 536 537 538 539 540 541 542 543 544 545 546 547 548 549 550 551 552 553 554 555 556 557 558 559 560 561 562 563 564 565 566 567 568 569 570 571 572 573 574 575 576 577 578 579 580 581 582 583 584 585 586 587 588 589 590 591 592 593 594 595 596 597 598 599 600 601 602 603 604 605 606 607 608 609 610 611 612 613 614 615 616 617 618 619 620 621 622 623 624 625 626 627 628 629 630 631 632 633 634 635 636 637 638 639 640 641 642 643 644 645 646 647 648 649 650 651 652 653 654 655 656 657 658 659 660 661 662 663 664 665 666 667 668 669 670 671 672 673 674 675 676 677 678 679 680 681 682 683 684 685 686 687 688 689 690 691 692 693 694 695 696 697 698 699 700 701 702 703 704 705 706 707 708 709 710 711 712 713 714 715 716 717 718 719 720 721 722 723 724 725 726 727 728 729 730 731 732 733 734 735 736 737 738 739 740 741 742 743 744 745 746 747 748 749 </DataArray>
        <DataArray type="UInt8" Name="vtkGhostType" format="ascii" RangeMin="0" RangeMax="0">0 0 0 0 0 0 0 0 0 0 0 0 0 0 0 0 0 0 0 0 0 0 0 0 0 0 0 0 0 0 0 0 0 0 0 0 0 0 0 0 0 0 0 0 0 0 0 0 0 0 0 0 0 0 0 0 0 0 0 0 0 0 0 0 0 0 0 0 0 0 0 0 0 0 0 0 0 0 0 0 0 0 0 0 0 0 0 0 0 0 0 0 0 0 0 0 0 0 0 0 0 0 0 0 0 0 0 0 0 0 0 0 0 0 0 0 0 0 0 0 0 0 0 0 0 0 0 0 0 0 0 0 0 0 0 0 0 0 0 0 0 0 0 0 0 0 0 0 0 0 0 0 0 0 0 0 0 0 0 0 0 0 0 0 0 0 0 0 0 0 0 0 0 0 0 0 0 0 0 0 0 0 0 0 0 0 0 0 0 0 0 0 0 0 0 0 0 0 0 0 0 0 0 0 0 0 0 0 0 0 0 0 0 0 0 0 0 0 0 0 0 0 0 0 0 0 0 0 0 0 0 0 0 0 0 0 0 0 0 0 0 0 0 0 0 0 0 0 0 0 0 0 0 0 0 0 0 0 0 0 0 0 0 0 0 0 0 0 0 0 0 0 0 0 0 0 0 0 0 0 0 0 0 0 0 0 0 0 0 0 0 0 0 0 0 0 0 0 0 0 0 0 0 0 0 0 0 0 0 0 0 0 0 0 0 0 0 0 0 0 0 0 0 0 0 0 0 0 0 0 0 0 0 0 0 0 0 0 0 0 0 0 0 0 0 0 0 0 0 0 0 0 0 0 0 0 0 0 0 0 0 0 0 0 0 0 0 0 0 0 0 0 0 0 0 0 0 0 0 0 0 0 0 0 0 0 0 0 0 0 0 0 0 0 0 0 0 0 0 0 0 0 0 0 0 0 0 0 0 0 0 0 0 0 0 0 0 0 0 0 0 0 0 0 0 0 0 0 0 0 0 0 0 0 0 0 0 0 0 0 0 0 0 0 0 0 0 0 0 0 0 0 0 0 0 0 0 0 0 0 0 0 0 0 0 0 0 0 0 0 0 0 0 0 0 0 0 0 0 0 0 0 0 0 0 0 0 0 0 0 0 0 0 0 0 0 0 0 0 0 0 0 0 0 0 0 0 0 0 0 0 0 0 0 0 0 0 0 0 0 0 0 0 0 0 0 0 0 0 0 0 0 0 0 0 0 0 0 0 0 0 0 0 0 0 0 0 0 0 0 0 0 0 0 0 0 0 0 0 0 0 0 0 0 0 0 0 0 0 0 0 0 0 0 0 0 0 0 0 0 0 0 0 0 0 0 0 0 0 0 0 0 0 0 0 0 0 0 0 0 0 0 0 0 0 0 0 0 0 0 0 0 0 0 0 0 0 0 0 0 0 0 0 0 0 0 0 0 0 0 0 0 0 0 0 0 0 0 0 0 0 0 0 0 0 0 0 0 0 0 0 0 0 0 0 0 0 0 0 0 0 0 0 0 0 0 0 0 0 0 0 0 0 0 0 0 0 0 0 0 0 0 0 0 0 0 0 0 0 0 0 0 0 0 0 0 0 0 0 0 0 0 0 0 0 0 0 0 0 0 0 0 0 0 0 0 0 0 0 0 0 0 0 0 0 0 0 0 0 0 0 0 0 0 0 0 0 0 0 0 0 0 0 0 0 0 0 0 0 0 </DataArray>
        <DataArray type="Float64" Name="stress" format="ascii" NumberOfComponents="9">107367907.907313 2457062.684051651 2457062.684051651 13402135.12217516 0 0 0 0 0 107167133.0694812 23403.01002905174 23403.01002905178 14689851.673923 0 0 0 0 0 108721289.421307 2081412.260571155 2081412.260571155 15733913.05755005 0 0 0 0 0 107034743.9444128 -114264.0489022784 -114264.0489022784 14303495.11168722 0 0 0 0 0 109177723.8892482 27160.97734466413 27160.97734466406 16994036.59815513 0 0 0 0 0 108820938.5721091 2201081.209106796 2201081.209106796 16086126.56875384 0 0 0 0 0 109636772.9448151 4173173.405066578 4173173.405066578 14100007.85031679 0 0 0 0 0 107335059.9731084 2385308.276964992 2385308.276964992 13472532.02459341 0 0 0 0 0 108853009.1226648 2197759.41998218 2197759.41998218 15632116.48034088 0 0 0 0 0 109322407.8611279 3557.278478619216 3557.278478619216 17633338.56758467 0 0 0 0 0 111044345.6514742 3087463.306047142 3087463.306047142 17642812.44563086 0 0 0 0 0 108751876.325022 2191004.469431782 2191004.469431782 15680436.75178358 0 0 0 0 0 108145764.3895123 4304796.858131304 4304796.858131304 10768323.17039497 0 0 0 0 0 107481915.3390831 2512430.749346341 2512430.749346341 13694002.51768995 0 0 0 0 0 109531059.1173698 4092874.645490783 4092874.645490783 13961630.15421839 0 0 0 0 0 111096411.416444 3248337.498071351 3248337.498071352 17748079.62901611 0 0 0 0 0 109556026.8869324 4138757.231422942 4138757.231422941 13854011.28505729 0 0 0 0 0 108864791.8143151 2171013.131260216 2171013.131260216 15698000.22080169 0 0 0 0 0 109066900.6862511 -165170.0669237168 -165170.0669237168 17064428.60393689 0 0 0 0 0 112222263.4937407 169694.2230349298 169694.2230349297 20507639.60841009 0 0 0 0 0 111254093.3606874 3235363.372479521 3235363.372479521 18324625.28944188 0 0 0 0 0 108111210.3566916 4211527.808303913 4211527.808303913 10942957.87610489 0 0 0 0 0 109552942.098539 4234212.355316261 4234212.35531626 13700055.43643633 0 0 0 0 0 110799732.6996837 5695181.241331276 5695181.241331276 10188475.31600545 0 0 0 0 0 112659066.0422687 6025716.260486219 6025716.260486219 13618892.74049063 0 0 0 0 0 109485965.8964592 4127426.703743417 4127426.703743417 13926947.24409975 0 0 0 0 0 111107273.2721054 3281340.382500188 3281340.382500188 17646441.31523097 0 0 0 0 0 112434993.374405 66576.06374689034 66576.06374689034 21377089.02595941 0 0 0 0 0 114969919.0614187 3409953.448669089 3409953.448669089 21277842.62205891 0 0 0 0 0 111043302.4747539 3343163.030907805 3343163.030907805 17541141.38396049 0 0 0 0 0 109078845.122142 5108758.48474585 5108758.48474585 7235325.576168484 0 0 0 0 0 108316408.9595673 4368117.483768912 4368117.483768912 11206959.9601738 0 0 0 0 0 110571961.3601904 5503332.48853338 5503332.48853338 9862981.545977211 0 0 0 0 0 110629376.6814647 5634371.27762404 5634371.27762404 9630237.892122252 0 0 0 0 0 109722576.7714978 4316437.232208341 4316437.232208341 14252269.21951578 0 0 0 0 0 112412491.614279 5770383.183428243 5770383.183428244 13171410.09797081 0 0 0 0 0 112456179.4221251 5950183.154214057 5950183.154214057 12971480.79832878 0 0 0 0 0 111349419.38038 3362237.312372945 3362237.312372945 18423360.53363435 0 0 0 0 0 114718465.2006 5927279.080863775 5927279.080863775 16348324.06181206 0 0 0 0 0 112103911.2045971 -172102.9455899069 -172102.9455899069 20505606.08281728 0 0 0 0 0 117202135.6996573 210779.3420593323 210779.3420593322 24899095.9304768 0 0 0 0 0 115248131.2857468 3627971.711543091 3627971.711543091 22216149.20184385 0 0 0 0 0 110932348.0498834 3032844.111772966 3032844.111772966 17591552.34392983 0 0 0 0 0 115133397.6591292 3753471.074564916 3753471.074564916 21233847.85073958 0 0 0 0 0 115028662.0287682 6188401.265543703 6188401.265543703 17030907.04750012 0 0 0 0 0 111619125.7329486 5703927.220197785 5703927.220197785 5510955.359550613 0 0 0 0 0 109004877.076487 5015170.347908546 5015170.347908547 7410445.462111562 0 0 0 0 0 110674218.5180039 5632519.195786203 5632519.195786203 9621237.019286342 0 0 0 0 0 110572547.9901547 5534443.385343572 5534443.385343572 9852082.149477798 0 0 0 0 0 112496835.3889954 5914650.103001264 5914650.103001264 12850650.77750775 0 0 0 0 0 113498683.7024543 6474504.972412694 6474504.972412694 7885406.931141102 0 0 0 0 0 112392692.820374 5800438.707916776 5800438.707916776 13180812.14544659 0 0 0 0 0 114991331.5263228 6176277.269639106 6176277.269639105 16008545.64175067 0 0 0 0 0 115524121.397653 7036662.036403974 7036662.036403974 10470519.5686784 0 0 0 0 0 114937375.2817509 3822190.608745287 3822190.608745287 21324099.58055004 0 0 0 0 0 117449843.7550046 61652.00242229197 61652.00242229205 26027709.38235389 0 0 0 0 0 121236030.7522277 4087093.823805668 4087093.823805668 25274602.35534233 0 0 0 0 0 115341078.5018548 3786677.034683493 3786677.034683493 22204389.08006563 0 0 0 0 0 119402675.558459 6653733.929968347 6653733.929968347 18567857.05328783 0 0 0 0 0 114851201.0427727 6159317.856005399 6159317.856005399 16199535.27849879 0 0 0 0 0 109782617.1678055 4856001.84029795 4856001.84029795 3582948.834566243 0 0 0 0 0 109245357.0278246 5173878.716112991 5173878.71611299 7676625.870915327 0 0 0 0 0 111356067.8270342 5514071.509666764 5514071.509666764 5190196.566265405 0 0 0 0 0 111457709.6402711 5619644.820700817 5619644.820700817 4965319.96952342 0 0 0 0 0 110843866.7059744 5723618.005944575 5723618.005944575 10194920.88593027 0 0 0 0 0 113214959.6334735 6243054.650158192 6243054.650158192 7455310.791836316 0 0 0 0 0 113306152.6322038 6406222.0164097 6406222.0164097 7206804.842793148 0 0 0 0 0 112721758.1796697 6012188.468422787 6012188.468422787 13651592.59893214 0 0 0 0 0 115284857.0080647 6825884.049808024 6825884.049808024 9893405.56520942 0 0 0 0 0 115200723.1048442 6246115.446417598 6246115.446417598 16823254.2747802 0 0 0 0 0 118542074.0102786 7401225.668643696 7401225.668643696 11061909.06790251 0 0 0 0 0 115365463.4095399 6972551.850795326 6972551.850795329 9840238.327193435 0 0 0 0 0 117027380.6489768 -224576.8124113476 -224576.8124113476 24971565.09044014 0 0 0 0 0 125764355.1725952 333832.2465502205 333832.2465502204 30341172.90420982 0 0 0 0 0 121490910.6250373 4289657.502223331 4289657.502223331 26511200.00558553 0 0 0 0 0 114902205.6099196 3478242.088640685 3478242.088640685 21318831.66764862 0 0 0 0 0 121349287.346632 4529789.558620861 4529789.558620861 25301777.4468496 0 0 0 0 0 119699448.2316264 6897350.546706753 6897350.546706753 19413752.45323453 0 0 0 0 0 119631928.5658724 6992084.723595987 6992084.723595987 18557877.279833 0 0 0 0 0 118708678.1078036 7529264.207985125 7529264.207985125 11526774.03796603 0 0 0 0 0 114841833.3034629 6015451.440446877 6015451.440446877 16229596.4536315 0 0 0 0 0 109674702.7891602 4794254.263101395 4794254.263101395 3707352.84592089 0 0 0 0 0 111509951.2278652 5593532.425366751 5593532.425366751 5028582.932969881 0 0 0 0 0 111846249.0402584 4506604.668122797 4506604.668122797 1121345.081575653 0 0 0 0 0 111395593.8687929 5532547.6947884 5532547.6947884 5181706.941105508 0 0 0 0 0 113338030.7707749 6346987.37232103 6346987.37232103 7183074.486416861 0 0 0 0 0 113665282.8946643 5325546.69271524 5325546.69271524 2460090.096938754 0 0 0 0 0 117029311.1814633 6452131.995959911 6452131.995959911 4654799.118851983 0 0 0 0 0 113117468.0167339 6278780.069773032 6278780.069773032 7505193.830642576 0 0 0 0 0 115497201.236469 6884305.343083808 6884305.343083808 9732582.979654575 0 0 0 0 0 118679775.8630339 7545036.954893563 7545036.954893563 11010836.88633643 0 0 0 0 0 116777600.9738827 6283731.364138085 6283731.364138085 4133087.79080774 0 0 0 0 0 115547839.9489588 6896546.877769594 6896546.877769593 9931716.702896826 0 0 0 0 0 126104760.1777628 88964.52556161147 88964.52556161147 31793624.91415166 0 0 0 0 0 132708620.8116394 4315094.066385364 4315094.066385364 29943023.02839594 0 0 0 0 0 120898488.6159593 4672918.597890466 4672918.597890466 25322426.31173432 0 0 0 0 0 119407860.9098928 7047711.400424605 7047711.400424605 18535142.39816954 0 0 0 0 0 121540575.5742716 4477367.894894976 4477367.894894976 26242901.40224046 0 0 0 0 0 127156086.0927017 6998362.138215234 6998362.138215234 21174044.84617416 0 0 0 0 0 119759078.5725971 6976919.845144695 6976919.845144695 19108677.34736431 0 0 0 0 0 124279402.9288611 7663053.335536258 7663053.335536258 11416371.04975811 0 0 0 0 0 118567039.8551197 7568568.754868811 7568568.754868811 11003907.06961495 0 0 0 0 0 109993494.2538118 3811306.641730975 3811306.641730975 389537.9990443449 0 0 0 0 0 109901009.4319011 4918459.747481827 4918459.747481827 3915968.195449126 0 0 0 0 0 111591577.6587695 4362585.052107873 4362585.052107873 878365.791806492 0 0 0 0 0 111725781.9949453 4426845.629283899 4426845.629283899 715891.2713541704 0 0 0 0 0 111632377.0869848 5675792.697568284 5675792.697568282 5440687.758569315 0 0 0 0 0 113403605.1511423 5166866.864567807 5166866.864567808 2173025.005402718 0 0 0 0 0 113498016.2107141 6475316.549757604 6475316.549757604 7782003.056136636 0 0 0 0 0 116641625.3963548 6163736.476458803 6163736.476458803 4270609.242445923 0 0 0 0 0 113507688.3167253 5244334.214687773 5244334.214687773 1891543.757549741 0 0 0 0 0 121864493.5291666 6199757.156818927 6199757.156818927 3314203.049645442 0 0 0 0 0 116688437.9851337 6366684.791591939 6366684.791591939 4257838.483754284 0 0 0 0 0 118734667.248347 7502032.886804567 7502032.886804567 11027313.22670965 0 0 0 0 0 125623718.1158317 -236015.5115194863 -236015.5115194863 30513922.65210966 0 0 0 0 0 142372364.797635 487729.8196730838 487729.8196730838 36213113.300081 0 0 0 0 0 132675955.0717481 4354872.479165647 4354872.479165647 31404329.95736333 0 0 0 0 0 121290226.0964922 4259832.490415395 4259832.490415395 25437699.0879028 0 0 0 0 0 132286493.4193475 4878610.388368468 4878610.388368468 29819451.63790992 0 0 0 0 0 127213044.4626856 7129099.635945608 7129099.635945608 21938417.46888559 0 0 0 0 0 124281125.8307078 7715689.740530504 7715689.740530504 11816378.16651872 0 0 0 0 0 119624833.3539592 6857401.987002641 6857401.987002641 18635389.84251901 0 0 0 0 0 127037774.0027848 7397002.492466724 7397002.492466724 21063274.85033726 0 0 0 0 0 124198596.5757992 7759443.292212533 7759443.292212533 11369197.0757936 0 0 0 0 0 121656174.4555321 6091600.183020786 6091600.183020786 3186680.086904004 0 0 0 0 0 118834548.6727857 7553555.064340196 7553555.064340195 11085683.14278846 0 0 0 0 0 111401092.0655642 2675697.184140917 2675697.184140917 -2227231.856662369 0 0 0 0 0 109882364.111153 3783851.228693669 3783851.228693668 445750.2157086837 0 0 0 0 0 111734854.7451507 4381079.056044818 4381079.056044818 835630.0360422448 0 0 0 0 0 113845121.208095 3028542.27425355 3028542.27425355 -2466068.100797478 0 0 0 0 0 111576433.1352005 4381020.298608548 4381020.298608548 915162.3246654616 0 0 0 0 0 113550994.4532352 5219328.679182668 5219328.679182668 1956594.221314486 0 0 0 0 0 116932850.3067887 6282013.776445661 6282013.776445661 3961912.998718987 0 0 0 0 0 115893897.1439453 4221413.493933072 4221413.493933072 -857121.2672991849 0 0 0 0 0 113374041.5574005 5147725.95375989 5147725.953759892 2122032.11919449 0 0 0 0 0 118792419.7114198 3638152.449367967 3638152.449367967 -2374296.681566305 0 0 0 0 0 117042843.6299977 6431142.840316347 6431142.840316347 4328407.631348275 0 0 0 0 0 121597782.0476444 6123623.093159929 6123623.093159929 3272785.665118032 0 0 0 0 0 131421158.9337303 5132220.804994117 5132220.804994117 29827060.96807188 0 0 0 0 0 142825039.4559099 174731.9865559345 174731.9865559346 37596527.14695086 0 0 0 0 0 154974405.3673715 1585602.302119057 1585602.302119057 34197625.46915282 0 0 0 0 0 126384161.3073301 7654602.300568115 7654602.300568115 20971013.48961027 0 0 0 0 0 132680811.2489904 4625557.680887831 4625557.68088783 30666824.81409272 0 0 0 0 0 141223423.9016824 5184680.496705637 5184680.496705638 24109314.93023384 0 0 0 0 0 133444234.4037426 6265097.902907321 6265097.902907321 12398826.18205649 0 0 0 0 0 123898996.4065724 7989961.029987107 7989961.029987107 11166017.58323077 0 0 0 0 0 127195473.9656733 7347480.661211369 7347480.661211369 21679399.96575209 0 0 0 0 0 124263169.1667324 7682844.364674945 7682844.364674945 11359653.74951087 0 0 0 0 0 128121242.112149 4648150.760890601 4648150.760890602 1851352.862937833 0 0 0 0 0 121508454.2568839 6250942.411936268 6250942.411936268 3140130.256189722 0 0 0 0 0 109640885.0733106 2340616.39837634 2340616.39837634 -2041321.310901127 0 0 0 0 0 110045999.8846942 3854289.183887904 3854289.183887904 557764.7449320483 0 0 0 0 0 111217589.4858932 2592733.80522821 2592733.80522821 -2359718.911512445 0 0 0 0 0 111340441.0461393 2605910.288975486 2605910.288975486 -2402985.024442886 0 0 0 0 0 111821662.1874532 4490837.543414123 4490837.543414123 1083259.884414177 0 0 0 0 0 113507193.76827 2874453.612379567 2874453.612379567 -2701633.236543848 0 0 0 0 0 115718463.4651812 4086513.671753454 4086513.671753454 -1021986.236564874 0 0 0 0 0 113577975.039509 2821934.461074976 2821934.461074976 -2987252.164251268 0 0 0 0 0 113776644.3714266 5383724.911023313 5383724.911023313 2426808.653212872 0 0 0 0 0 118999704.220644 3763840.368154036 3763840.368154036 -2110634.863004718 0 0 0 0 0 115847762.2252832 4163317.194996463 4163317.194996463 -1081861.698167781 0 0 0 0 0 116971576.0006206 6379619.489687512 6379619.489687512 4204216.0262895 0 0 0 0 0 123199811.9638019 1781728.961080414 1781728.961080414 -4829323.220266703 0 0 0 0 0 118699302.6552558 3772231.108094536 3772231.108094536 -2138367.677100269 0 0 0 0 0 121649300.3429983 5996052.241449426 5996052.241449426 2832370.071806263 0 0 0 0 0 142582334.2928097 3288.024617388907 3288.024617388907 36664253.63087656 0 0 0 0 0 179174702.198124 488741.5234490416 488741.5234490416 38723383.27997803 0 0 0 0 0 153704270.0898397 867399.2191007708 867399.2191007708 34851844.91779934 0 0 0 0 0 133186665.1415759 4757051.869095837 4757051.869095837 30396678.26955418 0 0 0 0 0 152502122.8101522 2125045.856135183 2125045.856135183 33398357.9677002 0 0 0 0 0 140374208.7943526 4989643.775061266 4989643.775061266 24700502.14129317 0 0 0 0 0 132963325.5728589 6189429.263956387 6189429.263956387 12706012.87357976 0 0 0 0 0 127627363.7932649 7412471.203523281 7412471.203523281 21390822.51643239 0 0 0 0 0 139810680.7788558 5630402.735431525 5630402.735431525 23593033.36464856 0 0 0 0 0 132620426.4938387 6528705.451804766 6528705.451804766 12050743.62854685 0 0 0 0 0 127563559.8841386 4436336.60313045 4436336.60313045 1640682.933525705 0 0 0 0 0 124712444.9057936 7835543.55861323 7835543.55861323 11459099.93926826 0 0 0 0 0 127378028.0003704 4586683.689087416 4586683.689087416 1684921.690796989 0 0 0 0 0 122527118.0186548 1412968.176889244 1412968.176889244 -5523092.097845272 0 0 0 0 0 122249728.3063194 6295219.686280763 6295219.686280763 3314754.379250532 0 0 0 0 0 109558210.0607583 2346377.487924431 2346377.487924431 -2046597.212148282 0 0 0 0 0 111360541.6115835 2589802.043233054 2589802.043233054 -2362679.695738112 0 0 0 0 0 110371908.7997903 389612.4215678899 389612.4215678899 -4785498.948896571 0 0 0 0 0 111267532.2803672 2590241.371361998 2590241.371361998 -2371711.183277352 0 0 0 0 0 113629663.544724 2869924.80745338 2869924.80745338 -2700953.176883386 0 0 0 0 0 111924191.4521629 749016.0500304272 749016.0500304272 -4891262.561441623 0 0 0 0 0 115891913.612009 4052718.215574803 4052718.215574803 -1319337.344693843 0 0 0 0 0 116201119.4050672 1410931.946733319 1410931.946733319 -5164139.611454623 0 0 0 0 0 113397040.4175869 2849305.19710492 2849305.19710492 -2618604.635405169 0 0 0 0 0 118791591.1775155 3694247.410570969 3694247.410570969 -2098179.811728698 0 0 0 0 0 115811921.7219114 1177153.439482596 1177153.439482596 -5662718.7625016 0 0 0 0 0 116085008.8697622 4172541.053288493 4172541.053288493 -1038869.40499956 0 0 0 0 0 118063310.3247972 -1358704.351901616 -1358704.351901616 -8848676.654787963 0 0 0 0 0 119403682.2901749 3949038.414601211 3949038.414601211 -2025513.421512748 0 0 0 0 0 122426806.0293512 1562367.831407909 1562367.831407909 -4941788.256728626 0 0 0 0 0 150343577.5325823 2611762.156743973 2611762.156743973 33736327.65837368 0 0 0 0 0 181890254.5138368 -763566.315103602 -763566.315103602 37890541.88583804 0 0 0 0 0 195539260.9188401 -10079417.00356925 -10079417.00356925 31786090.90954243 0 0 0 0 0 138761167.1763442 5987366.87291656 5987366.87291656 23392013.7712342 0 0 0 0 0 153838890.0014018 1301451.362442644 1301451.362442644 34329498.1285602 0 0 0 0 0 162153543.4562746 -2605892.237709362 -2605892.237709362 26360826.69822538 0 0 0 0 0 146929344.9979728 -38564.03199738859 -38564.03199738859 14021885.29237746 0 0 0 0 0 131833231.8606184 7038146.442690435 7038146.442690435 11671459.22369706 0 0 0 0 0 140499546.8241841 5103128.478881764 5103128.478881764 24127564.63817214 0 0 0 0 0 135361901.1198845 28818.81283066049 28818.81283066049 -226688.0459372214 0 0 0 0 0 127161254.9313396 4859398.866942962 4859398.866942962 1424737.704325061 0 0 0 0 0 132928070.7604358 6173508.591220026 6173508.591220026 12086270.38130501 0 0 0 0 0 127561632.2791731 4254601.238595527 4254601.238595527 969559.9089981274 0 0 0 0 0 126970259.909448 -2595120.170906502 -2595120.170906502 -8447665.878642948 0 0 0 0 0 122338492.6611567 1694101.339745817 1694101.339745817 -5098387.848475123 0 0 0 0 0 108806830.4821363 780599.5278985457 780599.5278985457 -3661915.514774199 0 0 0 0 0 109636675.0227019 2360015.3411977 2360015.3411977 -2025472.114488452 0 0 0 0 0 110275069.4896063 392203.2892615094 392203.2892615093 -4780876.604889126 0 0 0 0 0 110304283.374035 298252.5351028209 298252.5351028209 -4904600.613016565 0 0 0 0 0 111392209.8137023 2632094.96722531 2632094.96722531 -2306255.569949162 0 0 0 0 0 111873360.6338108 768667.7067422752 768667.7067422752 -4859787.730388355 0 0 0 0 0 113575112.1281051 2850355.168731482 2850355.168731482 -2927176.397007344 0 0 0 0 0 113588141.6626924 -584962.0129904501 -584962.0129904501 -6734266.839840394 0 0 0 0 0 111917106.2982602 791776.6669758142 791776.6669758142 -4852818.224910911 0 0 0 0 0 113908730.5320349 3050942.658949574 3050942.658949574 -2504033.56846281 0 0 0 0 0 115835540.8161657 1292447.683502842 1292447.683502842 -5250645.590533946 0 0 0 0 0 113242525.7311608 -797858.595408836 -797858.595408836 -7195153.970851376 0 0 0 0 0 118710256.0963408 -986821.0193626875 -986821.0193626875 -8101977.323765192 0 0 0 0 0 115785337.0661691 1273753.676881754 1273753.676881754 -5304146.103427853 0 0 0 0 0 118773069.0543964 3614612.754883451 3614612.754883451 -2615421.663258144 0 0 0 0 0 120304222.9181681 -5315211.752989891 -5315211.752989891 -11723410.94068397 0 0 0 0 0 117949056.1532319 -1134839.277008755 -1134839.277008755 -8278637.704720917 0 0 0 0 0 122522534.6698956 1307894.099755873 1307894.099755873 -5780433.078337008 0 0 0 0 0 183825873.5111066 992990.0841723561 992990.0841723561 39000266.51034358 0 0 0 0 0 275088139.2731656 -3354401.182418908 -3354401.182418908 13527126.69849176 0 0 0 0 0 189060478.1685999 -16957298.1726312 -16957298.1726312 33813693.64305325 0 0 0 0 0 157139657.8135916 3006309.85042259 3006309.85042259 35814305.9807784 0 0 0 0 0 185365745.8823153 -11392650.78181562 -11392650.78181562 28563707.43484111 0 0 0 0 0 159024356.4958705 -3945833.905130313 -3945833.905130313 27621754.14965652 0 0 0 0 0 145301587.5529036 -575284.0715729855 -575284.0715729857 13642863.75398365 0 0 0 0 0 142263213.3760971 5672889.984176978 5672889.984176978 24494969.41415472 0 0 0 0 0 158249757.5733638 -2057675.308574787 -2057675.308574786 25070329.14370354 0 0 0 0 0 133839068.2773881 -541673.4699830947 -541673.4699830946 -692710.7001421273 0 0 0 0 0 134591024.2763353 6782258.201073004 6782258.201073004 12535279.94606026 0 0 0 0 0 143714398.9014869 612206.261280803 612206.2612808029 12839772.27893851 0 0 0 0 0 133267344.2385681 -93830.10085135583 -93830.10085135583 -730965.6618434904 0 0 0 0 0 125682504.3276944 -3256997.685917663 -3256997.685917663 -9546510.64655485 0 0 0 0 0 128932443.764812 4906424.569396622 4906424.569396622 1878504.816700813 0 0 0 0 0 125400151.8973311 -2916917.241669049 -2916917.241669049 -8712856.565843534 0 0 0 0 0 119234289.2624676 -5901342.034964891 -5901342.034964891 -12819263.5534679 0 0 0 0 0 123683759.6861448 1893509.594650571 1893509.594650571 -4834081.84234223 0 0 0 0 0 108537757.3486148 -1168655.285269007 -1168655.285269007 -5570603.501506126 0 0 0 0 0 108816140.185627 803519.5392273517 803519.5392273517 -3689942.219716033 0 0 0 0 0 110239594.6540426 332530.7894080678 332530.7894080678 -4709017.50406716 0 0 0 0 0 111222612.3354823 -1663671.26574622 -1663671.26574622 -6894793.688026571 0 0 0 0 0 110141357.6892951 324679.4571793167 324679.4571793167 -4782821.021535958 0 0 0 0 0 111953996.5035176 772139.2159979676 772139.2159979676 -4996298.990493439 0 0 0 0 0 113155958.7239114 -733721.2983462479 -733721.2983462476 -6791604.661945013 0 0 0 0 0 110938743.0757396 -1827012.426592973 -1827012.426592974 -7199455.772648537 0 0 0 0 0 112183770.6529762 895660.6492771258 895660.6492771258 -4822499.272080596 0 0 0 0 0 115858091.4777239 1148063.876308495 1148063.876308495 -5776513.07861347 0 0 0 0 0 114704537.0884808 -3142602.838968147 -3142602.838968147 -9234547.921911396 0 0 0 0 0 113209549.5949964 -673527.5555799757 -673527.5555799757 -6810469.654374892 0 0 0 0 0 117972273.9985703 -1197713.857973763 -1197713.857973763 -8201249.543214137 0 0 0 0 0 114165702.1686059 -3455110.919579491 -3455110.919579491 -9870127.937319551 0 0 0 0 0 116428398.2172737 1455913.543891603 1455913.543891603 -5216880.268293457 0 0 0 0 0 114151725.2941364 -7511116.40427862 -7511116.40427862 -12963769.00355947 0 0 0 0 0 118973154.2548054 -936754.4686517039 -936754.4686517039 -8097806.062262611 0 0 0 0 0 119031351.2222088 -5606947.409998949 -5606947.409998949 -11926332.42057331 0 0 0 0 0 306137680.1754429 -12893664.69528869 -12893664.69528869 2714680.799314996 0 0 0 0 0 266408279.6850047 -64472426.42908444 -64472426.42908444 24415313.48593866 0 0 0 0 0 168172882.6626623 -8317501.929841555 -8317501.929841553 28650763.25325824 0 0 0 0 0 192457193.6606804 -15057422.76909759 -15057422.76909759 33236053.10424566 0 0 0 0 0 170042692.1333238 -19481141.36918785 -19481141.36918785 21380114.90735136 0 0 0 0 0 157071839.8676138 -2970312.706448263 -2970312.706448264 26589146.00050139 0 0 0 0 0 168653070.9411724 -19673031.47594703 -19673031.47594703 21014371.42405304 0 0 0 0 0 142929977.2026391 1640818.141443435 1640818.141443435 11476159.36112386 0 0 0 0 0 159429967.9525997 -3035731.348332184 -3035731.348332184 26692923.63265635 0 0 0 0 0 132692717.6758472 608591.7479773763 608591.7479773763 -1469351.784254193 0 0 0 0 0 144914060.9335612 -628826.0879231306 -628826.087923131 13495350.2598315 0 0 0 0 0 140815945.0500659 -10620063.78020217 -10620063.78020217 -785883.6183786677 0 0 0 0 0 127508842.9813576 -10675414.71938737 -10675414.71938737 -12251456.45485803 0 0 0 0 0 125263493.9966069 -2671755.124694733 -2671755.124694733 -9016287.055176821 0 0 0 0 0 133824050.8698522 -898828.1326526473 -898828.1326526473 -1560453.611311684 0 0 0 0 0 125660739.0551076 -3428323.708103165 -3428323.708103165 -9767021.215045461 0 0 0 0 0 119020488.3066957 -12144428.42868021 -12144428.42868021 -15544556.50720133 0 0 0 0 0 119031525.2734695 -5516001.077104039 -5516001.077104039 -12058195.54417151 0 0 0 0 0 107645478.7714712 -658851.4646219328 -658851.4646219328 -4595283.994194786 0 0 0 0 0 108760828.0493405 759209.2255343201 759209.2255343202 -3770804.719824187 0 0 0 0 0 108613232.742972 -1104383.111009239 -1104383.111009239 -5452384.317301027 0 0 0 0 0 108550073.8087989 -1118890.925928826 -1118890.925928826 -5425367.347289629 0 0 0 0 0 110205439.6943459 268833.588065425 268833.5880654249 -4964648.210155683 0 0 0 0 0 109332737.263723 -2389050.739837309 -2389050.739837309 -6779367.072122809 0 0 0 0 0 110507778.1365364 431795.4221374737 431795.4221374737 -4669273.265753756 0 0 0 0 0 110880152.686395 -1743455.674548916 -1743455.674548916 -7000218.070202407 0 0 0 0 0 109125390.889888 -2506353.284825787 -2506353.284825787 -7009348.833151089 0 0 0 0 0 111338686.4581729 -4319038.325865109 -4319038.325865109 -8999125.926255994 0 0 0 0 0 110873546.3620557 -1771448.555926274 -1771448.555926274 -7049070.478594684 0 0 0 0 0 113225405.3444105 -801631.7498573873 -801631.7498573873 -7124208.908221613 0 0 0 0 0 114061882.4948704 -3314765.571560127 -3314765.571560127 -9347083.954430027 0 0 0 0 0 110935821.7494489 -4556316.195585729 -4556316.195585729 -9463077.506610028 0 0 0 0 0 113655112.1729517 -559083.8974458969 -559083.8974458969 -6730527.096377506 0 0 0 0 0 114954467.9228769 -7072190.091540983 -7072190.091540983 -12145792.98962021 0 0 0 0 0 114079118.1683999 -3263765.109719278 -3263765.109719278 -9389563.435748713 0 0 0 0 0 118042044.0537733 -1409093.328405605 -1409093.328405605 -8869337.369534478 0 0 0 0 0 112666659.4002374 -12867109.54277987 -12867109.54277987 -15072763.83423267 0 0 0 0 0 113992462.9149549 -7231171.483482469 -7231171.483482469 -12373434.868333 0 0 0 0 0 119226166.1374031 -5961074.006154907 -5961074.006154907 -12709584.38815225 0 0 0 0 0 228979359.362083 -56498923.74352418 -56498923.74352418 14741859.88906357 0 0 0 0 0 168055847.0381338 -24290284.3409949 -24290284.3409949 29262428.12525773 0 0 0 0 0 197728841.2666991 -9391724.869609913 -9391724.869609913 37206419.92947572 0 0 0 0 0 148766078.0653506 553280.8701796182 553280.8701796182 13485078.6934164 0 0 0 0 0 160400112.9942041 -18988085.59041356 -18988085.59041356 19167374.79708145 0 0 0 0 0 137108195.6691682 -11351137.66492372 -11351137.66492372 973697.9283322504 0 0 0 0 0 125394264.9899737 -11651055.9394056 -11651055.9394056 -13484212.11613884 0 0 0 0 0 136474974.9098363 264759.6194931578 264759.6194931577 -314589.9347140919 0 0 0 0 0 136081104.3792948 -10614155.08423526 -10614155.08423526 -1967321.096158138 0 0 0 0 0 124832754.1787733 -11094377.53432759 -11094377.53432759 -12758315.75603053 0 0 0 0 0 117502630.2506397 -12942614.4358809 -12942614.4358809 -16941088.69603623 0 0 0 0 0 127528988.8906915 -2535943.75583528 -2535943.75583528 -8478498.523392882 0 0 0 0 0 117152139.4873187 -12494905.90163794 -12494905.90163794 -15847381.53412278 0 0 0 0 0 111613815.6411273 -13420616.62201753 -13420616.62201753 -16039456.24420948 0 0 0 0 0 120522645.2974564 -5330857.284465057 -5330857.284465057 -11766059.4421813 0 0 0 0 0 107666901.5593803 -641581.9873127955 -641581.9873127955 -4624611.653386069 0 0 0 0 0 108556898.8073495 -1127685.938616518 -1127685.938616518 -5411902.676488989 0 0 0 0 0 107025263.5840704 -2346523.57784024 -2346523.57784024 -5811440.986575891 0 0 0 0 0 108693354.4396389 -1066208.513248327 -1066208.513248327 -5422044.651340397 0 0 0 0 0 109045885.8413265 -2475442.607327974 -2475442.607327974 -6797774.656908295 0 0 0 0 0 107555700.3777935 -3028554.573854115 -3028554.573854115 -6595456.38216605 0 0 0 0 0 110988242.036788 -1837847.625854317 -1837847.625854317 -7211222.631492991 0 0 0 0 0 108811886.6927456 -4778842.056177709 -4778842.056177709 -8297347.986605005 0 0 0 0 0 109050542.7383935 -2439425.478817965 -2439425.478817965 -6837341.6228492 0 0 0 0 0 110833286.8963754 -4414178.343202515 -4414178.343202515 -9142069.295550123 0 0 0 0 0 108590654.0411969 -4912734.531055521 -4912734.531055522 -8541712.609738374 0 0 0 0 0 111265826.8016344 -1671818.71377476 -1671818.71377476 -6940336.234560042 0 0 0 0 0 114168683.2603409 -3463771.29505612 -3463771.29505612 -9787754.297723472 0 0 0 0 0 110626287.8642696 -7934740.932978944 -7934740.932978944 -11211721.80243482 0 0 0 0 0 110826945.8257378 -4424370.47859377 -4424370.47859377 -9176387.160300469 0 0 0 0 0 113973642.4097021 -7277627.454190501 -7277627.454190501 -12298890.05867769 0 0 0 0 0 110026558.3887111 -8259715.483172045 -8259715.483172045 -11778082.19708491 0 0 0 0 0 114827461.819195 -3123236.495289528 -3123236.495289528 -9264368.779751312 0 0 0 0 0 111365344.0501137 -13073481.48867075 -13073481.48867075 -15304992.88316838 0 0 0 0 0 107316785.0948324 -13083182.46516421 -13083182.46516421 -13831080.68895891 0 0 0 0 0 115032038.7199905 -7105941.65544765 -7105941.65544765 -12166890.94129265 0 0 0 0 0 256074355.2636187 -71030374.06306401 -71030374.06306401 28556836.32254444 0 0 0 0 0 164511236.8901154 -86919884.77632789 -86919884.77632789 46647421.38281603 0 0 0 0 0 150759447.0625653 -14442198.74871569 -14442198.7487157 14054646.52570057 0 0 0 0 0 166433022.8869248 -25289272.3295587 -25289272.3295587 25826337.96424682 0 0 0 0 0 130737223.7418865 -31455769.68545115 -31455769.68545115 6539857.144111187 0 0 0 0 0 133700822.6627523 -8219563.209340893 -8219563.209340893 -4088095.985760518 0 0 0 0 0 117339763.2470089 -23013329.33255265 -23013329.33255265 -14196822.5085185 0 0 0 0 0 124611186.4582602 -10612519.48598996 -10612519.48598996 -13358253.68885669 0 0 0 0 0 137645536.7262114 -12522381.88464986 -12522381.88464986 -1628050.414090103 0 0 0 0 0 125356376.9350388 -11935155.35403903 -11935155.35403903 -13815454.56566641 0 0 0 0 0 110648180.4502673 -21604148.75117777 -21604148.75117777 -18594590.49931566 0 0 0 0 0 117235091.5639905 -12426711.66533893 -12426711.66533893 -16024042.87111723 0 0 0 0 0 117469088.8708675 -13016419.30460668 -13016419.30460668 -16637987.9356642 0 0 0 0 0 105389101.7817505 -20365000.51128143 -20365000.51128143 -17248183.73198128 0 0 0 0 0 111429867.2238263 -13074881.36198011 -13074881.36198011 -15380524.79526158 0 0 0 0 0 106336541.2940667 -1835037.667821612 -1835037.667821612 -4969836.486117012 0 0 0 0 0 107603156.4030513 -682001.3005480015 -682001.3005480015 -4693351.719549923 0 0 0 0 0 107091810.0086485 -2296306.609544682 -2296306.609544682 -5724449.099324546 0 0 0 0 0 107057916.532199 -2328236.420819776 -2328236.420819776 -5690559.313155835 0 0 0 0 0 108515030.2106824 -1153612.21142595 -1153612.21142595 -5568335.313099956 0 0 0 0 0 107647671.6629361 -2980124.459899471 -2980124.459899471 -6507547.878840227 0 0 0 0 0 109094569.509793 -2534929.404822536 -2534929.404822536 -6924682.936272637 0 0 0 0 0 107034256.6253483 -4707743.210693557 -4707743.210693557 -7428180.513772223 0 0 0 0 0 107519129.2802768 -2983565.263436002 -2983565.263436002 -6497709.398091764 0 0 0 0 0 108481044.90835 -4845512.103996977 -4845512.103996977 -8406556.273276063 0 0 0 0 0 106946289.9681479 -4767079.043166041 -4767079.043166041 -7507702.907392696 0 0 0 0 0 109276669.9279492 -2411891.96182532 -2411891.96182532 -6765732.35341268 0 0 0 0 0 110977317.9340381 -4542486.254090198 -4542486.254090198 -9393704.305245535 0 0 0 0 0 106984701.2303426 -8418766.833983583 -8418766.833983583 -9852761.15523389 0 0 0 0 0 108469382.5181348 -4809704.488647479 -4809704.488647479 -8403066.977491807 0 0 0 0 0 111442774.8571185 -4305847.947882983 -4305847.947882983 -9057106.192748159 0 0 0 0 0 109904608.0333133 -8066138.539669413 -8066138.539669413 -11354700.97858421 0 0 0 0 0 106516090.3628258 -8655196.924763152 -8655196.924763152 -10180339.16377793 0 0 0 0 0 114129957.2937402 -7535972.125290592 -7535972.125290592 -12792645.13624402 0 0 0 0 0 108047953.8637186 -12719262.66568132 -12719262.66568132 -13251842.50126088 0 0 0 0 0 109894071.0487621 -8044724.196907301 -8044724.196907301 -11380377.59599478 0 0 0 0 0 111600961.0108997 -13425623.05577192 -13425623.05577192 -15703085.96654738 0 0 0 0 0 101699900.1849258 -18511016.55426729 -18511016.55426729 -14406931.10060328 0 0 0 0 0 107173464.575218 -12840696.03979871 -12840696.03979871 -13460672.46037993 0 0 0 0 0 176407873.6633441 -20823341.93050842 -20823341.93050842 21565249.94584344 0 0 0 0 0 142196430.3842459 -73758998.88017608 -73758998.88017608 40328999.87636138 0 0 0 0 0 127062790.3064178 -32691857.56787059 -32691857.56787059 12557631.08255984 0 0 0 0 0 122757418.3988214 -30713879.79631783 -30713879.79631783 4069905.347299656 0 0 0 0 0 114806370.9950411 -24000780.14048944 -24000780.14048944 -14719269.41340693 0 0 0 0 0 142153256.5930069 -10723174.89966959 -10723174.89966959 -482331.5569104141 0 0 0 0 0 114110542.9377032 -23628202.73703854 -23628202.73703854 -14732418.12414685 0 0 0 0 0 108941244.9427485 -22511762.83473596 -22511762.83473596 -20222310.23222473 0 0 0 0 0 127851145.651576 -10815707.07231212 -10815707.07231212 -12396542.94581067 0 0 0 0 0 119000271.3515676 -12297254.09402471 -12297254.09402471 -15629962.50541321 0 0 0 0 0 108553553.0249455 -22052122.15703715 -22052122.15703715 -18905488.18990964 0 0 0 0 0 104286352.9480584 -20939551.73023044 -20939551.73023044 -18240941.27448755 0 0 0 0 0 112555848.0313535 -12992078.52743476 -12992078.52743476 -15134628.68178854 0 0 0 0 0 104005697.1852505 -20568955.43021783 -20568955.43021783 -17493615.83779134 0 0 0 0 0 101026959.7146998 -18830666.82059831 -18830666.82059831 -14872754.81422468 0 0 0 0 0 106348433.252461 -1821969.200681193 -1821969.200681193 -5002065.289615286 0 0 0 0 0 107060949.7217645 -2305033.713533176 -2305033.713533176 -5696898.731885727 0 0 0 0 0 105749652.9804554 -3182028.974100128 -3182028.974100128 -5741083.004387773 0 0 0 0 0 105702178.011751 -4291024.32152431 -4291024.32152431 -6562208.73100774 0 0 0 0 0 107133135.6061859 -2298768.070228347 -2298768.070228347 -5740768.77730792 0 0 0 0 0 107557487.415465 -3008337.710466829 -3008337.710466829 -6459005.196467647 0 0 0 0 0 106876787.0861352 -4737171.035546135 -4737171.035546135 -7482030.613858531 0 0 0 0 0 105748060.2567193 -4258146.742707296 -4258146.742707296 -6444028.582809949 0 0 0 0 0 107553860.5653073 -2994835.534899544 -2994835.534899544 -6490831.156984011 0 0 0 0 0 108576453.6336237 -4903363.121125371 -4903363.121125371 -8393744.350075895 0 0 0 0 0 105358079.3593135 -7180413.233589119 -7180413.233589119 -8277043.699242978 0 0 0 0 0 106869826.4247757 -4721511.068962741 -4721511.068962741 -7477855.111120146 0 0 0 0 0 106561701.8890458 -8435348.907249136 -8435348.907249136 -9979515.919114754 0 0 0 0 0 105319397.2637158 -7208821.305124562 -7208821.305124562 -8256315.88992067 0 0 0 0 0 108743093.08224 -4787356.166193755 -4787356.166193755 -8321146.400749668 0 0 0 0 0 109995461.679612 -8280187.707817092 -8280187.707817092 -11658445.10435642 0 0 0 0 0 104782019.8204949 -12099379.81419601 -12099379.81419601 -11227761.68857368 0 0 0 0 0 106410102.4890911 -8404104.642667454 -8404104.642667454 -9821433.207881555 0 0 0 0 0 110691308.4840132 -7981055.680794903 -7981055.680794903 -11222788.75512978 0 0 0 0 0 107128457.3635961 -12814505.98469907 -12814505.98469907 -13419902.03666422 0 0 0 0 0 104234889.3473112 -12330216.64549162 -12330216.64549162 -11555352.50298913 0 0 0 0 0 107933555.5401228 -12825716.96691026 -12825716.96691026 -13273102.28973183 0 0 0 0 0 100818821.2135142 -18572440.92613378 -18572440.92613378 -14599539.24923515 0 0 0 0 0 98852328.61733316 -16712984.38423933 -16712984.38423933 -11842531.53851917 0 0 0 0 0 152910020.2562741 -81702501.02323057 -81702501.02323057 56311916.93395838 0 0 0 0 0 56264578.7631332 -57046748.52561073 -57046748.52561073 45571497.81132399 0 0 0 0 0 121315123.0827363 -28883506.46812538 -28883506.46812538 1265893.957744691 0 0 0 0 0 125977358.1609359 -34097027.4496296 -34097027.4496296 8713101.325284211 0 0 0 0 0 73716864.53537485 -31992942.09074554 -31992942.09074554 -12443379.89367747 0 0 0 0 0 114558119.8132007 -23664762.63422278 -23664762.63422278 -14895558.75073955 0 0 0 0 0 114602701.0164696 -24445481.01612166 -24445481.01612166 -15852941.43657675 0 0 0 0 0 88075623.16074793 -30684244.75215525 -30684244.75215525 -19427961.71522412 0 0 0 0 0 109064624.8109903 -22341341.56080372 -22341341.56080372 -18858224.97739825 0 0 0 0 0 104247414.4122038 -20712817.28520978 -20712817.28520978 -17472570.76961222 0 0 0 0 0 108862252.7908582 -22566158.92426768 -22566158.92426767 -19563445.99298075 0 0 0 0 0 89541372.67246574 -28020256.68665992 -28020256.68665992 -17624196.15938221 0 0 0 0 0 100935270.5881375 -18653835.69234801 -18653835.69234801 -14578749.96413372 0 0 0 0 0 104262117.0070756 -20907799.43586523 -20907799.43586523 -17661292.23467663 0 0 0 0 0 89626644.07471748 -24355870.56800196 -24355870.56800196 -13969767.2889385 0 0 0 0 0 105012224.2967682 -2713627.890484371 -2713627.890484371 -4970772.786604047 0 0 0 0 0 106306833.0057689 -1848075.453210881 -1848075.453210882 -5035146.014621479 0 0 0 0 0 105782149.8068866 -3146730.847938226 -3146730.847938226 -5700463.06538833 0 0 0 0 0 107023871.9585378 -2347852.646420913 -2347852.646420913 -5821292.097765254 0 0 0 0 0 105816455.3003081 -4224624.007706564 -4224624.007706563 -6444864.747336586 0 0 0 0 0 105766339.567997 -3147780.995667452 -3147780.995667453 -5684821.130557776 0 0 0 0 0 105717467.9733887 -4237041.653218056 -4237041.653218057 -6504655.450363565 0 0 0 0 0 106931914.9241221 -4767547.845681799 -4767547.845681798 -7431899.653900952 0 0 0 0 0 104253146.5287022 -6451164.90942829 -6451164.90942829 -7146216.979772641 0 0 0 0 0 106971109.7160379 -4734440.24436068 -4734440.24436068 -7452099.641805841 0 0 0 0 0 105230805.7423234 -7176762.652806649 -7176762.652806648 -8312900.882753784 0 0 0 0 0 104233321.8621653 -6470764.621637391 -6470764.621637391 -7101590.353120753 0 0 0 0 0 102156510.7145575 -10166554.10047255 -10166554.10047255 -8628813.141092181 0 0 0 0 0 105284310.3044283 -7185788.642158034 -7185788.642158034 -8318568.704982926 0 0 0 0 0 106609310.4638957 -8475433.417046741 -8475433.417046741 -9816177.656948581 0 0 0 0 0 107030348.6469011 -8347769.340326559 -8347769.340326559 -9780074.958003588 0 0 0 0 0 104143255.295366 -12123146.63534256 -12123146.63534256 -11305940.50928949 0 0 0 0 0 101854918.4320107 -11924062.7866857 -11924062.7866857 -9803647.531494416 0 0 0 0 0 104132039.65815 -12154216.31352906 -12154216.31352906 -11350429.083715 0 0 0 0 0 107313355.0736088 -13078122.56857465 -13078122.56857465 -13580044.3304585 0 0 0 0 0 99296864.54908369 -16544011.32692957 -16544011.32692957 -11668370.47474075 0 0 0 0 0 101018925.6893952 -18791095.28260395 -18791095.28260395 -14486973.07030018 0 0 0 0 0 90064158.97655572 -20587355.30667196 -20587355.30667196 -10706556.90779596 0 0 0 0 0 98767153.73284915 -16588199.85593875 -16588199.85593875 -11771953.01967813 0 0 0 0 0 54951278.01266863 -47224480.03299376 -47224480.03299376 41189480.71400519 0 0 0 0 0 76165380.5261263 -31387081.96476618 -31387081.96476618 -12994210.57348202 0 0 0 0 0 128486169.7372796 -34130896.49221554 -34130896.49221554 5403125.165486732 0 0 0 0 0 114945880.62114 -24107355.00639692 -24107355.00639692 -14645516.91594436 0 0 0 0 0 77542635.28802165 -34444532.81406143 -34444532.81406143 -10577114.19497583 0 0 0 0 0 88295517.77853595 -31081017.54489755 -31081017.54489755 -22199206.21663899 0 0 0 0 0 109630152.5961188 -22148848.74803717 -22148848.74803717 -18788817.07928788 0 0 0 0 0 88166678.92803811 -31295830.65041191 -31295830.65041191 -19131717.02780573 0 0 0 0 0 89005138.0356199 -28404412.48652989 -28404412.4865299 -18592065.45597311 0 0 0 0 0 89360034.86355792 -24487305.900303 -24487305.900303 -14180376.91059912 0 0 0 0 0 104817996.4872926 -20663194.81461577 -20663194.81461577 -17352220.8862046 0 0 0 0 0 88964014.15826619 -28239324.116339 -28239324.116339 -17652336.88926155 0 0 0 0 0 101276425.080909 -18702424.61163239 -18702424.61163238 -14463420.00364203 0 0 0 0 0 89276978.84075536 -24358972.14743998 -24358972.14743998 -14057812.92226518 0 0 0 0 0 90046665.2103394 -20564583.21523875 -20564583.21523875 -10575493.69328467 0 0 0 0 0 104490068.6802629 -4106810.011971024 -4106810.011971024 -5669187.236765101 0 0 0 0 0 105023376.7072672 -2704599.991394452 -2704599.991394452 -5015457.39372525 0 0 0 0 0 105776307.3790212 -3148972.293381582 -3148972.293381582 -5686295.268732072 0 0 0 0 0 105645955.2911584 -4268718.135331844 -4268718.135331844 -6439981.835212546 0 0 0 0 0 104463937.5996586 -4131901.428876586 -4131901.428876586 -5676428.060577587 0 0 0 0 0 105795511.1406845 -3127806.613479745 -3127806.613479745 -5696599.367660213 0 0 0 0 0 103323431.4780657 -5785352.130449805 -5785352.130449805 -6117758.306955223 0 0 0 0 0 105788760.0128428 -4268395.636851867 -4268395.636851867 -6490872.932280384 0 0 0 0 0 104172168.1704996 -6436628.275996172 -6436628.275996172 -7166653.321726391 0 0 0 0 0 105315704.3260338 -7229027.808985778 -7229027.808985778 -8213974.201899556 0 0 0 0 0 101798193.2232796 -8745729.460009255 -8745729.460009255 -7344276.300114728 0 0 0 0 0 104185421.6625125 -6440649.331072542 -6440649.331072542 -7172922.817059775 0 0 0 0 0 102215490.4572947 -10082229.03188615 -10082229.03188615 -8600506.033467978 0 0 0 0 0 101823635.5748782 -8728021.77069819 -8728021.770698188 -7232689.038370132 0 0 0 0 0 105306327.5678462 -7236939.548543636 -7236939.548543636 -8318527.556490381 0 0 0 0 0 102240281.750098 -10112255.32003413 -10112255.32003413 -8456671.532323411 0 0 0 0 0 106469972.1366596 -8565058.910400927 -8565058.910400925 -10106597.41206568 0 0 0 0 0 102092512.2393564 -11834633.28836923 -11834633.28836923 -9668449.754852679 0 0 0 0 0 104211010.8648929 -12344498.3987563 -12344498.3987563 -11388580.49585699 0 0 0 0 0 97902359.21977678 -14622310.10113942 -14622310.10113942 -9461724.833075415 0 0 0 0 0 101823301.956811 -11744517.89829046 -11744517.89829046 -9652520.700385505 0 0 0 0 0 104640882.8039975 -12185944.74293254 -12185944.74293254 -11203062.00312893 0 0 0 0 0 98718743.59618798 -16543418.48977816 -16543418.48977816 -11814494.47073561 0 0 0 0 0 97726127.84632747 -14667484.0590402 -14667484.0590402 -9471724.385249751 0 0 0 0 0 89987300.25189947 -20519489.39212973 -20519489.39212973 -10760239.98803955 0 0 0 0 0 90660062.48035684 -17407640.07628109 -17407640.07628109 -8025426.694862888 0 0 0 0 0 98892853.62429458 -16678718.74798289 -16678718.74798289 -11694127.91312578 0 0 0 0 0 55591526.23054518 -43552222.27342324 -43552222.27342325 46433959.41186474 0 0 0 0 0 -2640121.303690323 -6914930.592971659 -6914930.592971657 -134779.7072457031 0 0 0 0 0 76337444.1043511 -34011405.51591219 -34011405.51591219 -14586539.66363545 0 0 0 0 0 90297161.45627677 -32394441.47735047 -32394441.47735047 -18727308.96308093 0 0 0 0 0 73292481.96882413 -31440756.94794716 -31440756.94794716 -15183301.13688719 0 0 0 0 0 58584145.63274209 -32730463.69631161 -32730463.69631162 -18982830.13257189 0 0 0 0 0 89506861.04047005 -28680714.81429139 -28680714.81429139 -17293686.80133408 0 0 0 0 0 87696635.07526134 -31050845.90046052 -31050845.90046052 -20399650.77866267 0 0 0 0 0 64452221.23328868 -31725182.96029453 -31725182.96029453 -16046300.00801983 0 0 0 0 0 70548579.17479268 -27837358.12495969 -27837358.12495969 -11542143.07071587 0 0 0 0 0 89501378.42444836 -24580278.98379991 -24580278.98379991 -13869722.73858941 0 0 0 0 0 88977646.49975546 -28260654.32427106 -28260654.32427106 -17667504.2677714 0 0 0 0 0 90116379.09926268 -20665395.21469812 -20665395.21469812 -10651029.15660582 0 0 0 0 0 89363330.02914691 -24363017.74990355 -24363017.74990355 -13656193.319799 0 0 0 0 0 75892201.00815015 -23125828.79105858 -23125828.79105858 -8084107.658490132 0 0 0 0 0 103357474.2420254 -5761299.619475537 -5761299.619475537 -6131942.620366827 0 0 0 0 0 104429261.8101552 -4108374.758851158 -4108374.758851159 -5699918.589637698 0 0 0 0 0 105715761.3997632 -4319186.845683988 -4319186.845683987 -6487039.454688475 0 0 0 0 0 101361402.8168956 -7590868.475059643 -7590868.475059643 -6255973.125035058 0 0 0 0 0 103276272.7099917 -5756007.63444996 -5756007.63444996 -6170576.427473055 0 0 0 0 0 104229031.6181892 -6472678.808621938 -6472678.808621938 -7077074.222748977 0 0 0 0 0 101784417.6797446 -8704309.100077504 -8704309.100077504 -7344921.236918574 0 0 0 0 0 101387342.2217347 -7574717.87566232 -7574717.875662319 -6160654.017133193 0 0 0 0 0 104217898.1843021 -6479179.852617119 -6479179.852617119 -7166442.873647187 0 0 0 0 0 98008676.20926395 -11016105.9799876 -11016105.9799876 -6886000.996548469 0 0 0 0 0 101825783.7581694 -8723124.806282584 -8723124.806282584 -7341871.228708152 0 0 0 0 0 102256586.837329 -10112733.75029359 -10112733.75029359 -8453540.097062729 0 0 0 0 0 97454420.40532978 -12852140.12071095 -12852140.12071095 -7994698.929129995 0 0 0 0 0 102347582.6343289 -10119962.12554974 -10119962.12554974 -8604609.019594062 0 0 0 0 0 101863050.5466236 -11785688.53859211 -11785688.53859211 -9515545.729201861 0 0 0 0 0 97665601.3498376 -14607528.13900702 -14607528.13900702 -9533525.216070462 0 0 0 0 0 97555305.33771804 -12783464.13375508 -12783464.13375508 -7796302.361615815 0 0 0 0 0 101889175.6637009 -11785833.6706136 -11785833.6706136 -9617394.855458664 0 0 0 0 0 98868791.58622976 -16662841.25777488 -16662841.25777488 -11583362.33561536 0 0 0 0 0 90574298.26031192 -17487270.95643193 -17487270.95643193 -8265789.032912231 0 0 0 0 0 97658536.10745682 -14597990.50384829 -14597990.50384829 -9508842.95869291 0 0 0 0 0 90063867.01886527 -20504170.21022972 -20504170.21022972 -10345041.49890228 0 0 0 0 0 81181467.05398628 -19012906.17039009 -19012906.17039008 -6061016.457332315 0 0 0 0 0 90661187.02979238 -17449753.11618719 -17449753.11618719 -8179229.461831187 0 0 0 0 0 73684000.23697986 -35970984.60806217 -35970984.60806217 -11861296.55054533 0 0 0 0 0 6128051.284851648 -6771309.16445129 -6771309.16445129 14727.2158758734 0 0 0 0 0 29782856.00968416 -24888967.21624017 -24888967.21624017 -27199069.04218279 0 0 0 0 0 70927456.11516163 -34325038.91328461 -34325038.91328461 -10020312.63275932 0 0 0 0 0 28875130.72225334 -23228685.28711227 -23228685.28711227 -25165085.96809428 0 0 0 0 0 59136479.96331262 -32177405.11281434 -32177405.11281434 -19308221.64737978 0 0 0 0 0 64881505.25629314 -31750406.74511009 -31750406.74511009 -16760318.78798199 0 0 0 0 0 86969335.69221662 -31163392.47409311 -31163392.47409312 -19879876.37044647 0 0 0 0 0 60337849.10967806 -33620391.23213742 -33620391.23213742 -18343715.27007858 0 0 0 0 0 71084636.85650134 -27671404.04414783 -27671404.04414783 -11463786.0459219 0 0 0 0 0 88456727.86929646 -28414211.32570094 -28414211.32570094 -17714885.51001818 0 0 0 0 0 65569345.10528314 -32043770.37093643 -32043770.37093643 -15578381.80110248 0 0 0 0 0 76506647.3995675 -22820293.22579879 -22820293.22579879 -7571341.299269695 0 0 0 0 0 88858443.16146791 -24598044.96778635 -24598044.96778635 -14013713.57812021 0 0 0 0 0 71344745.65846728 -27841744.04990223 -27841744.04990223 -11346385.86466957 0 0 0 0 0 89595279.47064276 -20744531.87782753 -20744531.87782753 -10734730.64922033 0 0 0 0 0 76789345.69728191 -23031231.53735396 -23031231.53735396 -7914942.01562295 0 0 0 0 0 81660854.2995612 -18752675.31087652 -18752675.31087652 -5587882.736878717 0 0 0 0 0 98386383.25695078 -9374324.761716135 -9374324.761716135 -5852738.726180711 0 0 0 0 0 101373004.3339529 -7563460.968195098 -7563460.968195098 -6265080.726172096 0 0 0 0 0 101822071.9194812 -8730411.889405135 -8730411.889405135 -7201266.203768747 0 0 0 0 0 98490495.715516 -9308084.528715871 -9308084.528715871 -5681051.75471843 0 0 0 0 0 101724865.7738607 -8792506.767391032 -8792506.767391032 -7373131.237444837 0 0 0 0 0 98155023.15561 -10936616.30013928 -10936616.30013928 -6840969.696189115 0 0 0 0 0 98129407.58592139 -10938476.77548558 -10938476.77548558 -6667016.090736501 0 0 0 0 0 102120410.8449762 -10199542.92703707 -10199542.92703707 -8684867.724480497 0 0 0 0 0 97595864.35197198 -12786379.19237966 -12786379.19237966 -7942097.303573758 0 0 0 0 0 91532160.25056359 -14882559.24589743 -14882559.24589743 -6618501.733576866 0 0 0 0 0 97543697.31833307 -12786120.24043253 -12786120.24043253 -7905274.231663665 0 0 0 0 0 97718860.68895635 -14626761.19212627 -14626761.19212627 -9300117.038074628 0 0 0 0 0 90660429.61489291 -17407707.61349553 -17407707.61349553 -8272399.623427726 0 0 0 0 0 91731129.96025729 -14755906.47062528 -14755906.47062528 -6322687.095462606 0 0 0 0 0 97618733.19834398 -14696553.09805143 -14696553.09805143 -9481919.687112706 0 0 0 0 0 90235066.04035129 -17548760.67391337 -17548760.67391337 -8235741.296861238 0 0 0 0 0 81813621.34889376 -18905586.74432692 -18905586.74432692 -5955485.979720312 0 0 0 0 0 84388122.88946196 -15542881.20077494 -15542881.20077494 -3931069.413408805 0 0 0 0 0 5956672.829582318 1421179.765031683 1421179.765031685 -9484923.314934319 0 0 0 0 0 -13851138.060912 18527444.70844262 18527444.70844261 -69359331.00574955 0 0 0 0 0 32171303.91273056 -28274267.94453461 -28274267.94453461 -15197295.39986736 0 0 0 0 0 31186699.46674441 -25051577.3989763 -25051577.3989763 -21785860.41576337 0 0 0 0 0 37413871.2756964 -28915162.82133898 -28915162.82133898 -18535659.21900139 0 0 0 0 0 59109647.61623432 -32238498.26459898 -32238498.26459898 -19171484.67690638 0 0 0 0 0 37232760.24981015 -27915235.53157369 -27915235.53157369 -16710362.43591499 0 0 0 0 0 65672864.16982209 -32326180.85829575 -32326180.85829575 -14727732.89248201 0 0 0 0 0 59506677.53432433 -32704306.64346613 -32704306.64346613 -20050028.13222848 0 0 0 0 0 71500332.55661415 -28126214.16471347 -28126214.16471346 -10910752.22081454 0 0 0 0 0 65077252.23368794 -31372910.23301223 -31372910.23301223 -15911534.02092033 0 0 0 0 0 47569362.12370794 -25675157.79854875 -25675157.79854877 -8409934.014112968 0 0 0 0 0 76804814.82095501 -23244115.52929493 -23244115.52929494 -7612090.672001903 0 0 0 0 0 71124768.056768 -27396921.97895261 -27396921.97895261 -10900636.51864418 0 0 0 0 0 57393564.89229026 -21663766.40102455 -21663766.40102455 -4248452.424951104 0 0 0 0 0 82101994.40523688 -19205331.80217551 -19205331.80217551 -5858960.804000754 0 0 0 0 0 76491591.86952256 -22663145.53350484 -22663145.53350484 -7298275.794266454 0 0 0 0 0 67446690.38742027 -17532852.42528038 -17532852.42528038 -2083146.813847468 0 0 0 0 0 94351936.82218136 -10777069.28172998 -10777069.28172998 -4794288.804812813 0 0 0 0 0 98530355.9271435 -9328540.765881313 -9328540.765881313 -5814269.415745058 0 0 0 0 0 98131402.79399155 -10927210.00270048 -10927210.00270048 -6651628.193701054 0 0 0 0 0 92824581.20117089 -12699080.68716297 -12699080.68716297 -5537324.503409441 0 0 0 0 0 98208419.15091249 -10974469.3916716 -10974469.3916716 -6815372.405838455 0 0 0 0 0 97525073.88238066 -12758932.47777335 -12758932.47777335 -7714898.836322947 0 0 0 0 0 93064993.05067529 -12553932.12945316 -12553932.12945316 -5230073.572105834 0 0 0 0 0 97305689.56160685 -12888001.17479715 -12888001.17479715 -7959889.199975039 0 0 0 0 0 91785799.77978963 -14798465.8020236 -14798465.8020236 -6556455.923744042 0 0 0 0 0 90651464.45734681 -17329372.07063821 -17329372.07063821 -7883440.042811296 0 0 0 0 0 83947996.37529527 -15780880.98691856 -15780880.98691856 -4340882.173188648 0 0 0 0 0 91766739.58968352 -14823347.14513744 -14823347.14513744 -6498161.742871665 0 0 0 0 0 84377051.13658094 -15616117.78351076 -15616117.78351076 -4190121.706860326 0 0 0 0 0 81792577.82911009 -18788484.39533077 -18788484.39533077 -5704456.581490555 0 0 0 0 0 77027887.33268024 -15765460.63185597 -15765460.63185597 -2221038.752424385 0 0 0 0 0 22439707.53299193 -22717346.12192393 -22717346.12192393 -24634940.84184432 0 0 0 0 0 -888148.9456428356 8343209.205040901 8343209.205040899 -51319792.71008793 0 0 0 0 0 3888170.964250453 -15481610.26187682 -15481610.26187682 -34627477.55663569 0 0 0 0 0 29645629.95846435 -25469059.22834049 -25469059.22834049 -26744836.93604644 0 0 0 0 0 3762104.379277108 -11797153.75874329 -11797153.75874329 -30491665.31483644 0 0 0 0 0 38960371.28786067 -30056697.12340311 -30056697.12340311 -12614370.20796191 0 0 0 0 0 48935308.38283083 -25419144.02881147 -25419144.02881147 -8524958.242312647 0 0 0 0 0 63668563.76540951 -31635865.68140799 -31635865.68140799 -15789639.16546248 0 0 0 0 0 38811256.24957421 -28905066.1571435 -28905066.1571435 -15343795.80997355 0 0 0 0 0 58848946.57467559 -21119902.23303834 -21119902.23303834 -3511509.215595119 0 0 0 0 0 69609129.28619264 -27903297.156639 -27903297.156639 -11494389.23101715 0 0 0 0 0 49476959.92863674 -25795441.69534189 -25795441.69534188 -7907076.917098862 0 0 0 0 0 68793810.14549367 -16918706.04231111 -16918706.04231111 -1264221.055579147 0 0 0 0 0 75201032.20041034 -23223357.89564194 -23223357.89564195 -7953783.397460659 0 0 0 0 0 59274330.40100979 -21695871.54116373 -21695871.54116373 -3841011.706528183 0 0 0 0 0 80930161.20363025 -19239077.50193311 -19239077.5019331 -6173103.314116849 0 0 0 0 0 69355380.02094485 -17392499.22754536 -17392499.22754536 -1604997.513118855 0 0 0 0 0 77440870.81717196 -15566378.71237713 -15566378.71237713 -2151691.067565368 0 0 0 0 0 93173009.75274098 -12602265.93706553 -12602265.93706553 -5427685.74034093 0 0 0 0 0 94559612.93963969 -10647769.71500415 -10647769.71500415 -4546269.702904908 0 0 0 0 0 97903733.54475458 -11068619.15601618 -11068619.15601618 -6911761.125609064 0 0 0 0 0 86737224.70297834 -13314497.08908173 -13314497.08908173 -3502557.795144916 0 0 0 0 0 93154779.66222163 -12636569.49942626 -12636569.49942626 -5380733.591527168 0 0 0 0 0 91717161.64342132 -14721678.94544117 -14721678.94544117 -6265503.465997889 0 0 0 0 0 84506533.66286275 -15664212.79811726 -15664212.79811727 -4203596.360237879 0 0 0 0 0 87125967.10698137 -13095207.63226749 -13095207.63226749 -3115218.474316121 0 0 0 0 0 91320543.60282989 -14938204.98250313 -14938204.98250313 -6602929.373329724 0 0 0 0 0 79938366.54051262 -12393928.26564107 -12393928.26564106 -527014.2804945819 0 0 0 0 0 83980500.37475149 -15644876.31038461 -15644876.31038461 -4216936.84934175 0 0 0 0 0 77436594.37895742 -15655419.52689416 -15655419.52689416 -2281284.884590984 0 0 0 0 0 -6850547.321799159 14915177.40719542 14915177.40719542 -76947674.84071742 0 0 0 0 0 -5410649.648971766 8350199.640174036 8350199.640174036 -103388200.8474542 0 0 0 0 0 9911684.535841644 -17246756.03407048 -17246756.03407048 -12633613.65580649 0 0 0 0 0 10117637.33011064 -15077627.23407925 -15077627.23407925 -25138581.42068081 0 0 0 0 0 23503039.93156038 -17033393.71448316 -17033393.71448316 -10810087.86662642 0 0 0 0 0 34595389.53339686 -27773784.5221728 -27773784.5221728 -16344659.90054359 0 0 0 0 0 21904364.62555586 -16534957.97402206 -16534957.97402206 -9980257.182983866 0 0 0 0 0 49663049.9906109 -26343087.53463008 -26343087.53463008 -6684888.014243927 0 0 0 0 0 38156242.79377592 -28195319.73471176 -28195319.73471176 -17083125.70551003 0 0 0 0 0 37270849.25068931 -13942823.55596022 -13942823.55596022 -1613416.609872381 0 0 0 0 0 59189727.92904808 -21862190.56325006 -21862190.56325006 -3370357.560956544 0 0 0 0 0 49191610.86507523 -24988939.09177028 -24988939.09177028 -7754936.6141844 0 0 0 0 0 49849303.56037574 -10863768.76953481 -10863768.76953481 1700550.169951005 0 0 0 0 0 69424498.92595312 -17917340.12138519 -17917340.12138519 -1470872.20965368 0 0 0 0 0 58879766.67658485 -20922024.0821874 -20922024.0821874 -3286585.990810969 0 0 0 0 0 68457406.22043712 -16974937.57679373 -16974937.57679373 -1587496.682619076 0 0 0 0 0 71470672.39101405 -12009711.22135018 -12009711.22135018 1038085.741688587 0 0 0 0 0 77813344.92794655 -15728743.32495043 -15728743.32495043 -2261661.932372205 0 0 0 0 0 89444750.8558253 -11342228.96211181 -11342228.96211182 -3059004.340863333 0 0 0 0 0 94679238.54994728 -10715780.91936565 -10715780.91936565 -4685133.423254154 0 0 0 0 0 93040809.68809773 -12528445.09490699 -12528445.09490699 -5218460.330252072 0 0 0 0 0 89759471.69307336 -11153741.01125122 -11153741.01125122 -2770031.705889664 0 0 0 0 0 92703859.75687243 -12729177.12523723 -12729177.12523723 -5506261.597306197 0 0 0 0 0 87306155.60936391 -13217357.53331501 -13217357.53331501 -3342229.69227971 0 0 0 0 0 84348106.64090081 -15469476.61455108 -15469476.61455108 -3935022.377614712 0 0 0 0 0 79472108.6064464 -12614114.44077865 -12614114.44077865 -875906.3726415299 0 0 0 0 0 87293879.21033739 -13283070.42907707 -13283070.42907707 -3281060.269409504 0 0 0 0 0 71744604.11857399 -12037328.09041366 -12037328.09041366 1067856.98851011 0 0 0 0 0 79868831.61705424 -12487837.01574028 -12487837.01574029 -772318.0483640648 0 0 0 0 0 77442186.01836087 -15645217.83320683 -15645217.83320683 -2261182.597664528 0 0 0 0 0 -7987627.882404787 477284.0971655124 477284.0971655124 -79795200.78433709 0 0 0 0 0 3530990.386168976 -80220.11570418027 -80220.11570418038 -22774870.4390335 0 0 0 0 0 2302050.751238025 -10142225.65576911 -10142225.65576911 -28570694.81446769 0 0 0 0 0 -196258.038592239 414727.1857251471 414727.1857251471 -22908997.99799658 0 0 0 0 0 24964725.24681127 -18330140.60894157 -18330140.60894157 -6093552.884082607 0 0 0 0 0 8106692.259224423 -14280936.67848271 -14280936.67848271 -31748285.15933235 0 0 0 0 0 24778595.6947229 -17497233.0434537 -17497233.0434537 -8497445.286061453 0 0 0 0 0 39670472.39016587 -13486471.9739948 -13486471.9739948 -927302.9865745156 0 0 0 0 0 46900601.09794719 -25333908.93575681 -25333908.93575681 -8261666.610071223 0 0 0 0 0 39906656.58279334 -14270996.02647155 -14270996.02647155 -956404.2530624018 0 0 0 0 0 52241092.86230902 -10203820.4764455 -10203820.4764455 2700547.7062518 0 0 0 0 0 56446506.5316665 -21479424.97968309 -21479424.97968309 -4107728.255314183 0 0 0 0 0 67200924.38033526 -17757263.5003071 -17757263.5003071 -1878282.80615252 0 0 0 0 0 52556386.45349308 -11109477.55761689 -11109477.55761689 2262136.887195364 0 0 0 0 0 62527069.40317392 -9008355.25455902 -9008355.25455902 3004565.581628629 0 0 0 0 0 68333438.98113868 -17365393.72170839 -17365393.72170839 -1271286.253836136 0 0 0 0 0 61816294.54677743 -9236283.804631302 -9236283.804631302 2646486.139735574 0 0 0 0 0 71450286.07292268 -12025768.52689888 -12025768.52689888 992875.8708462329 0 0 0 0 0 84110238.18494831 -10631611.79099147 -10631611.79099147 -850825.5759595006 0 0 0 0 0 89930636.03945275 -11280094.42319317 -11280094.42319317 -2880971.548920006 0 0 0 0 0 87115949.78972077 -13073834.66755917 -13073834.66755917 -3139384.934732159 0 0 0 0 0 80257705.55986996 -12513709.21980036 -12513709.21980036 -705728.7709683366 0 0 0 0 0 84568278.12215346 -10373833.34414669 -10373833.34414669 -571640.2598832571 0 0 0 0 0 86651821.64195086 -13335809.3706072 -13335809.3706072 -3433201.012680289 0 0 0 0 0 79999152.37238395 -12597334.70835884 -12597334.70835884 -520882.7510010066 0 0 0 0 0 71430864.54321544 -11911627.09480282 -11911627.09480282 891253.3710083291 0 0 0 0 0 74145525.13231306 -8098864.445528472 -8098864.445528472 2395731.716701565 0 0 0 0 0 3843224.791941686 -1433956.974508603 -1433956.974508603 -19870764.15436407 0 0 0 0 0 24940690.36709728 606891.8151342402 606891.8151342401 -2450793.591711919 0 0 0 0 0 20391596.38319197 -16157829.87415951 -16157829.87415951 -9698757.646945134 0 0 0 0 0 24453154.97959299 -16083024.26707376 -16083024.26707376 -9433211.731116319 0 0 0 0 0 21199274.3491335 -130780.6990188759 -130780.6990188762 -3666583.731340984 0 0 0 0 0 39956203.46084588 -14509821.05931774 -14509821.05931774 -82635.83903132148 0 0 0 0 0 39025879.49162479 -107661.5014860935 -107661.5014860935 2039205.525276752 0 0 0 0 0 52229134.10299031 -10907788.5395812 -10907788.5395812 2518263.151636007 0 0 0 0 0 39929046.73710658 -13020083.29935048 -13020083.29935048 -628687.9981591468 0 0 0 0 0 51987200.07063679 -9950202.671911677 -9950202.671911677 2451284.730393041 0 0 0 0 0 52037644.99157602 -172843.6322617856 -172843.6322617857 3730042.299432255 0 0 0 0 0 62976084.43526327 -9791338.468719276 -9791338.468719276 3123195.574444996 0 0 0 0 0 62388483.44248801 -9331332.966155797 -9331332.966155797 2604574.68287889 0 0 0 0 0 68415028.23846506 -5603124.285226379 -5603124.285226379 3741571.900113914 0 0 0 0 0 71259313.26037975 -12029380.02405519 -12029380.02405519 1106841.575835459 0 0 0 0 0 79278509.32570612 -8364292.227679502 -8364292.227679502 1432364.583927701 0 0 0 0 0 84814164.33988391 -10583618.96321032 -10583618.96321032 -588690.5379802709 0 0 0 0 0 79863556.01455151 -12165836.47257081 -12165836.47257081 -566388.1635461501 0 0 0 0 0 79615539.85996549 -8141835.343573797 -8141835.343573797 1595729.822030169 0 0 0 0 0 79336791.48807776 -12516191.1892425 -12516191.1892425 -649551.6805156922 0 0 0 0 0 74529174.95120971 -8160354.162773729 -8160354.162773729 2462388.682895879 0 0 0 0 0 71516784.62349989 -11905796.12099108 -11905796.12099108 1270897.049705279 0 0 0 0 0 68022052.28217451 -5820021.58873681 -5820021.58873681 3464529.789631636 0 0 0 0 0 74200885.91016926 -8006454.494089381 -8006454.494089381 2304061.655981397 0 0 0 0 0 25148863.17119622 -924584.8097026999 -924584.8097026999 -2594086.222799073 0 0 0 0 0 41917318.56935591 572687.8854233479 572687.8854233481 3080540.852675748 0 0 0 0 0 36634332.16047764 -13579243.57631086 -13579243.57631086 -1462757.708407021 0 0 0 0 0 41960996.92642367 -594589.4995611038 -594589.4995611038 2742645.05878618 0 0 0 0 0 54439216.58641978 327773.2088049332 327773.208804933 4476074.421849959 0 0 0 0 0 49726473.34449072 -10406230.78005048 -10406230.78005048 1774405.713680275 0 0 0 0 0 54230046.88412964 -520863.0177010189 -520863.0177010189 4366767.460233512 0 0 0 0 0 63288095.6105982 386767.6762102758 386767.6762102758 4720184.393840251 0 0 0 0 0 60752183.0182098 -9486988.781984797 -9486988.781984797 2541674.266586797 0 0 0 0 0 61858079.83814887 31259.03568880279 31259.03568880279 4131209.822357062 0 0 0 0 0 68233461.32893975 -5876491.406494142 -5876491.406494142 3613687.820893083 0 0 0 0 0 62675796.30147667 -9097729.435886977 -9097729.435886977 3220318.119813381 0 0 0 0 0 76013015.21991538 -4587103.792700628 -4587103.792700628 3227555.568408568 0 0 0 0 0 79965897.80924663 -8333050.995766611 -8333050.995766611 1693472.951892089 0 0 0 0 0 74183581.91700746 -7967846.012661432 -7967846.012661432 2306674.084351621 0 0 0 0 0 74217495.90659006 -8066244.942593036 -8066244.942593036 2493149.21161174 0 0 0 0 0 68216491.78185135 -5858760.716998343 -5858760.716998342 3434729.09921048 0 0 0 0 0 72351610.19093832 -3885281.471665025 -3885281.471665025 3677081.990545124 0 0 0 0 0 63462581.91484441 -172605.672318948 -172605.672318948 4411809.924538174 0 0 0 0 0 70074922.77943304 216193.5518461448 216193.5518461449 4259764.434470802 0 0 0 0 0 67394531.44334033 -5791836.984981909 -5791836.984981909 3503564.122666386 0 0 0 0 0 76210674.03168811 -4468907.468236447 -4468907.468236447 3203288.063256269 0 0 0 0 0 74090035.97340137 -8020324.03306601 -8020324.03306601 2478476.327454037 0 0 0 0 0 72396640.80361454 -3996153.467342345 -3996153.467342345 3640517.46287409 0 0 0 0 0 68422883.10980248 -5603260.562609123 -5603260.562609123 3780003.785433972 0 0 0 0 0 69261981.80395305 27878.92709991679 27878.92709991673 3975783.250430392 0 0 0 0 0 72325700.51172294 -3978353.600006361 -3978353.600006361 3730790.139668267 0 0 0 0 0 74655672.92714466 37392.38035814052 37392.38035814052 3863084.148876763 0 0 0 0 0 76374277.4046444 -4590604.03975429 -4590604.03975429 3372119.379058625 0 0 0 0 0 72255678.63814467 -3872955.082205953 -3872955.082205953 3665670.061971016 0 0 0 0 0 70096505.17002596 -55978.75728921937 -55978.75728921937 4200115.685831667 0 0 0 0 0 75188947.29110062 179323.4415758589 179323.4415758589 3873893.099494935 0 0 0 0 0 71817235.96280196 -3989478.528505802 -3989478.528505802 3657388.031819017 0 0 0 0 0 </DataArray>
        <DataArray type="Float64" Name="von_mises_stress" format="ascii" NumberOfComponents="3">101408800.0127846 0 0 100607995.0700585 0 0 101825163.6368318 0 0 100634650.1609838 0 0 101739696.3992832 0 0 101785929.35371 0 0 103548881.349688 0 0 101350744.2299908 0 0 102000679.903715 0 0 101628863.4074316 0 0 103477246.979646 0 0 101880934.9134739 0 0 103437542.2274118 0 0 101409782.2819007 0 0 103495991.8073151 0 0 103513185.7416466 0 0 103558179.1378772 0 0 101984083.5069474 0 0 101590654.358342 0 0 103482165.2655437 0 0 103425943.5976413 0 0 103328316.2529458 0 0 103631882.3149248 0 0 106516790.8529727 0 0 106987147.8754591 0 0 103466679.9082829 0 0 103544426.6034942 0 0 103366902.4985758 0 0 106089202.5303193 0 0 103526558.7751001 0 0 106004667.692993 0 0 103435223.9191317 0 0 106408057.120611 0 0 106570101.2094386 0 0 103587886.848432 0 0 106900510.2704208 0 0 107030183.0996127 0 0 103496390.2046978 0 0 107956179.2897118 0 0 103357050.865382 0 0 106922348.2713448 0 0 106035323.2482963 0 0 103379945.593355 0 0 106297850.2143286 0 0 108025167.822987 0 0 109404204.049622 0 0 105848182.9571916 0 0 106626692.7275144 0 0 106417754.9546193 0 0 107127056.2928005 0 0 110323865.0717437 0 0 106882538.7879376 0 0 108390792.1648384 0 0 111306961.6739304 0 0 106068514.0296782 0 0 106771999.3982631 0 0 110981405.217954 0 0 106146763.8495578 0 0 111863214.4473654 0 0 108169938.3361844 0 0 108352468.0821301 0 0 105983683.2706999 0 0 109268398.3546663 0 0 109476495.3829124 0 0 106557866.5097607 0 0 110204105.1051366 0 0 110415450.8589702 0 0 107030580.0432168 0 0 111292040.6752847 0 0 108271960.867532 0 0 114122835.8550167 0 0 111407632.5487354 0 0 106716774.1407587 0 0 113640371.7881567 0 0 110822026.8843042 0 0 106012387.9133786 0 0 111133784.7388965 0 0 111860652.4989492 0 0 112148362.2754396 0 0 114092450.5899234 0 0 108137161.7830893 0 0 108184371.438347 0 0 109500776.4516935 0 0 111549891.0325706 0 0 109313687.0221327 0 0 110455430.9862319 0 0 112816350.3396165 0 0 115297856.0755323 0 0 110091693.6121459 0 0 111574659.9688718 0 0 114302247.1154552 0 0 115238892.4376716 0 0 111543254.1494856 0 0 113504085.7485469 0 0 120763368.3215393 0 0 110680463.2219121 0 0 111934516.7921853 0 0 110976241.2748141 0 0 118602764.8070727 0 0 112024975.7798119 0 0 119693771.4949868 0 0 114194822.7795632 0 0 109989399.208723 0 0 108317616.6695986 0 0 111407305.88851 0 0 111618434.9160453 0 0 109436017.720397 0 0 112683664.0189889 0 0 110358191.250154 0 0 115055792.5123476 0 0 112917296.2776553 0 0 120690508.0176022 0 0 115130284.9586959 0 0 114304872.4640538 0 0 113454111.15836 0 0 128140779.3211013 0 0 120264860.2153643 0 0 111010000.9363262 0 0 120449003.0669222 0 0 118375141.853677 0 0 119497392.5260829 0 0 112090486.7974491 0 0 118584797.0718067 0 0 119651528.4271517 0 0 120486568.7856961 0 0 114417532.0419233 0 0 112610912.740284 0 0 109851197.7033696 0 0 111568279.0542084 0 0 115190390.3564011 0 0 111373146.6920882 0 0 112929476.7581277 0 0 115496061.6125673 0 0 116530360.7761154 0 0 112675412.9239696 0 0 120102776.6446601 0 0 115445242.9214856 0 0 120444254.1149465 0 0 119584224.6520118 0 0 128157484.4653615 0 0 141012675.9321409 0 0 117994216.7395651 0 0 120496343.5272799 0 0 131115580.5130345 0 0 128108010.4228937 0 0 119465978.6640295 0 0 118442028.4242248 0 0 119636884.6240976 0 0 127399827.5122636 0 0 120428420.977094 0 0 110743624.2893045 0 0 109956037.8926029 0 0 112499898.3241678 0 0 112641511.7662898 0 0 111530851.4804498 0 0 114980225.6542784 0 0 116439808.0976176 0 0 115175863.9516243 0 0 112933596.4867086 0 0 120217802.1877136 0 0 116599335.3284081 0 0 115402757.2802055 0 0 125659435.9774685 0 0 119942498.7619957 0 0 120630741.3850704 0 0 128211668.892034 0 0 163279385.2382348 0 0 139580702.8422768 0 0 121132996.233471 0 0 138854894.4241059 0 0 130030696.1175732 0 0 127448457.7617692 0 0 119035629.4204534 0 0 129955116.9976499 0 0 127484040.0395082 0 0 126866962.4122859 0 0 120100485.8595051 0 0 126762923.9757901 0 0 125293024.5665224 0 0 121041632.0778272 0 0 110661815.1576798 0 0 112640157.9503945 0 0 112820574.3279401 0 0 112554268.8752154 0 0 115102733.2014647 0 0 114436149.9356149 0 0 116747207.036157 0 0 118867458.358263 0 0 114828679.5026411 0 0 120012786.6696825 0 0 118720333.0272963 0 0 116808161.3283037 0 0 122663697.0075828 0 0 120545194.9204051 0 0 124979445.6737354 0 0 136459422.010722 0 0 166121877.5418734 0 0 182267921.0985236 0 0 128903871.981654 0 0 139784460.474124 0 0 150624183.1153683 0 0 140280545.1275039 0 0 126850828.809864 0 0 130277213.5925559 0 0 135320621.997572 0 0 126668804.9565808 0 0 127592789.4557203 0 0 127161307.8765949 0 0 131337336.7429242 0 0 124962032.5094635 0 0 110686882.3533607 0 0 110722126.8105935 0 0 112733289.516896 0 0 112826056.3452704 0 0 112632762.8667498 0 0 114381358.5169682 0 0 115136287.0189437 0 0 117074602.4153521 0 0 114420236.3533842 0 0 115258608.9512506 0 0 118558215.2060759 0 0 116970438.8804939 0 0 122915714.019447 0 0 118532190.0767854 0 0 120205394.4104896 0 0 126793323.2541617 0 0 122286129.5057867 0 0 125439548.3209441 0 0 167022641.6849458 0 0 267954557.1057079 0 0 176130849.9753941 0 0 142315342.086064 0 0 173670507.4517591 0 0 147232180.749591 0 0 138848441.0022587 0 0 131889758.4565122 0 0 147257799.1541031 0 0 133974613.6337815 0 0 129103041.3434738 0 0 137647939.2182057 0 0 133576142.091914 0 0 130642190.1346835 0 0 128089623.0191356 0 0 130033755.9670727 0 0 126405443.1898734 0 0 126047862.5654755 0 0 111432605.3443737 0 0 110707147.80982 0 0 112665762.7739436 0 0 114840291.4504363 0 0 112603417.1039591 0 0 114530738.4133376 0 0 116701559.9285717 0 0 114734580.8577595 0 0 114659653.5070807 0 0 118827099.0147977 0 0 119665053.9738427 0 0 116757878.6178925 0 0 122281278.5167814 0 0 119497987.720554 0 0 119084208.6363931 0 0 121765089.624212 0 0 123107498.061348 0 0 125764091.3982794 0 0 303258587.5173653 0 0 274699738.5454609 0 0 154564594.1189838 0 0 179957794.8561613 0 0 163573164.2603852 0 0 145221435.9191929 0 0 161940426.8155423 0 0 136928615.5910555 0 0 147642186.7316067 0 0 133208504.3681339 0 0 138391200.9257721 0 0 142024474.8284363 0 0 135040962.1733103 0 0 129997973.817947 0 0 134418702.8967306 0 0 130815258.7735185 0 0 129017482.648535 0 0 125802277.5811953 0 0 110017793.8154283 0 0 110690414.1928411 0 0 111448335.2335413 0 0 111374258.6560808 0 0 112753156.7619554 0 0 112933616.1483188 0 0 112888121.8429313 0 0 114572324.8806941 0 0 112859583.5907487 0 0 116304397.180496 0 0 114591956.9291228 0 0 116935445.9380149 0 0 119137042.8233347 0 0 116192978.2913491 0 0 117121898.3897935 0 0 122014414.6096246 0 0 119164591.107594 0 0 122680164.1643283 0 0 122799546.9935588 0 0 121262240.822429 0 0 126401448.9323024 0 0 240722474.6460895 0 0 160484006.7969125 0 0 180474312.4278918 0 0 141739908.8448922 0 0 154665601.8765415 0 0 137690857.0084554 0 0 133862037.086192 0 0 136173778.6512786 0 0 138127796.8095349 0 0 132975386.9869512 0 0 128581544.5946946 0 0 131714902.8115283 0 0 127605027.5589775 0 0 122541238.5311932 0 0 126931064.5059306 0 0 110051476.0597619 0 0 111376239.5722617 0 0 110112130.4863657 0 0 111506367.1420496 0 0 112676934.5853308 0 0 111116635.5780445 0 0 114792607.2522362 0 0 113463496.4165314 0 0 112695930.9643661 0 0 115916098.297567 0 0 113404455.1459144 0 0 114893486.6887409 0 0 119479079.0903421 0 0 117382993.4801711 0 0 115924386.1042185 0 0 121226430.8688623 0 0 117190526.7900596 0 0 119766346.9284621 0 0 121822266.4176161 0 0 117008084.0374721 0 0 122052519.919044 0 0 270773601.9174125 0 0 204053906.6706842 0 0 139913673.0448236 0 0 160599829.9899731 0 0 137697779.3175767 0 0 135069692.9128161 0 0 130690898.1554768 0 0 132809353.8137828 0 0 139869549.1134964 0 0 134227057.7154951 0 0 126307796.6692263 0 0 127720202.5406516 0 0 128497129.3425078 0 0 120037042.6422182 0 0 121902855.6730673 0 0 108950742.6212069 0 0 110023334.8577009 0 0 110132076.7879139 0 0 110085115.2506665 0 0 111412326.0438148 0 0 111157255.5344445 0 0 112793380.3084487 0 0 111218989.8517574 0 0 111026571.6295822 0 0 113220614.5702235 0 0 111188783.381004 0 0 112865956.9924384 0 0 116201036.4951823 0 0 113123343.9053202 0 0 113192875.044434 0 0 116409458.1054157 0 0 116816331.0302432 0 0 112917550.9498144 0 0 121688078.0486559 0 0 117236702.2629834 0 0 116806233.8567864 0 0 122396009.7238841 0 0 114064837.6328114 0 0 116583189.7938901 0 0 165957705.7745471 0 0 174581019.8628461 0 0 132221377.4420892 0 0 131036451.5663295 0 0 129136182.0946125 0 0 142442009.7477448 0 0 128539484.7687583 0 0 126215112.2635366 0 0 135158576.2175549 0 0 128934303.3324857 0 0 124948709.0896316 0 0 119959419.6495918 0 0 122699974.1360278 0 0 119102169.3499419 0 0 113916001.7339355 0 0 108977220.9489935 0 0 110091090.1979052 0 0 108868231.1497914 0 0 109372816.5210809 0 0 110179272.7678937 0 0 111047553.5421141 0 0 111104541.6244987 0 0 109359033.3190683 0 0 111053656.9130829 0 0 113317209.3794082 0 0 110410155.6848647 0 0 111089391.8803956 0 0 112808181.1039562 0 0 110378594.2337182 0 0 113398406.302755 0 0 117116894.0545921 0 0 112727644.9217362 0 0 112568853.0151799 0 0 117434997.5273261 0 0 116523385.7064745 0 0 112476721.8570028 0 0 117147059.0816983 0 0 113434766.5664454 0 0 109142370.0264603 0 0 192827866.7523201 0 0 103606805.2595685 0 0 121689372.7492656 0 0 134820337.4340203 0 0 96807842.14231177 0 0 128515149.8558097 0 0 130186528.6430662 0 0 112030031.3039671 0 0 125502543.4115774 0 0 119362948.3254048 0 0 125946994.665263 0 0 110384413.0568133 0 0 113551860.5126957 0 0 119671006.7589445 0 0 105914980.0028372 0 0 107685009.1621256 0 0 108953882.0801477 0 0 108877316.3826225 0 0 110117270.9278422 0 0 109417344.5806773 0 0 108854573.1374146 0 0 109352392.1805212 0 0 111137159.961379 0 0 108563943.3003412 0 0 111169372.6274416 0 0 110314268.296456 0 0 108534014.5897498 0 0 108147949.1814578 0 0 110363579.9974501 0 0 112792574.8012373 0 0 113108672.496518 0 0 112189523.4147026 0 0 109041643.813705 0 0 112199993.5709852 0 0 116892919.1641908 0 0 109349113.0897482 0 0 113715383.1675135 0 0 102189438.8548885 0 0 108946999.2823689 0 0 86107330.04793526 0 0 96518891.11196922 0 0 135538310.733929 0 0 128970399.8627443 0 0 101613647.1254845 0 0 114346854.6388724 0 0 125632142.6417672 0 0 112676452.7002079 0 0 110944004.7237244 0 0 105995523.3971888 0 0 119672120.2759656 0 0 110193835.5257378 0 0 113789932.8517884 0 0 105708049.1063799 0 0 102138805.6140124 0 0 107666257.7856061 0 0 107716539.6168059 0 0 108866124.6872387 0 0 109256665.7181958 0 0 107651033.5013198 0 0 108885855.6602505 0 0 106980094.1135448 0 0 109414417.5325737 0 0 108498540.5637803 0 0 110361039.0665415 0 0 106724343.2723453 0 0 108514065.475093 0 0 108173897.475518 0 0 106695464.6688336 0 0 110392888.5355324 0 0 108138904.0971814 0 0 112814134.2300134 0 0 109165649.598044 0 0 112383620.1666359 0 0 105987987.1038761 0 0 108875558.9184519 0 0 112595999.9784709 0 0 108910483.0716226 0 0 105862422.173767 0 0 102126531.6735154 0 0 99576486.85161065 0 0 109056706.0002149 0 0 86946260.60511634 0 0 6789818.847330269 0 0 98324542.12541278 0 0 115271598.5696773 0 0 98309818.62503374 0 0 89763308.83016776 0 0 110837301.9735012 0 0 112986551.2469763 0 0 91613569.28677669 0 0 90598507.56957546 0 0 105954833.8244912 0 0 110382971.7418503 0 0 102259234.0789081 0 0 105671478.9009491 0 0 89582441.63057913 0 0 107011787.6702381 0 0 107623281.1870436 0 0 109356420.4080902 0 0 105441712.5003075 0 0 106953637.427196 0 0 108519176.8488399 0 0 106705785.6542481 0 0 105419099.3854462 0 0 108547259.6519465 0 0 103384541.0702174 0 0 106746176.2395489 0 0 108157044.6981629 0 0 104069848.427071 0 0 108312572.8508896 0 0 108862577.5173066 0 0 105806670.1169469 0 0 104052169.033653 0 0 108926730.3090683 0 0 109015010.6576497 0 0 99643088.6843805 0 0 105773322.1936959 0 0 102017174.059256 0 0 90540753.76998198 0 0 99662746.13089962 0 0 101170094.9692646 0 0 12173676.38052657 0 0 64830779.66019414 0 0 96452751.68189916 0 0 61028319.93301935 0 0 89969887.26597066 0 0 92636795.17098589 0 0 111910441.3600056 0 0 91793302.22109649 0 0 91001115.53919661 0 0 109872039.5450542 0 0 92687058.8104036 0 0 89663841.77823414 0 0 105472891.8146725 0 0 91189074.99443913 0 0 101898874.7481356 0 0 90202918.05976115 0 0 90561880.98234053 0 0 102720101.7265647 0 0 105452558.5539059 0 0 106680633.304725 0 0 102717601.4724791 0 0 106683655.1760992 0 0 103478905.3719159 0 0 103369988.2468231 0 0 108159209.3130926 0 0 104155418.3745329 0 0 98425596.04965018 0 0 104086648.0825304 0 0 105755924.9527093 0 0 99689178.33724503 0 0 98410402.53577951 0 0 105764915.3380767 0 0 99360409.77940987 0 0 90989198.37721829 0 0 90482884.32230836 0 0 8833913.549482225 0 0 61082174.83362045 0 0 51886057.83825282 0 0 63151404.06275281 0 0 70198120.67126524 0 0 89852379.98683405 0 0 67726898.2871637 0 0 92758262.82359725 0 0 91282009.76268293 0 0 91425233.42534246 0 0 92009489.74512856 0 0 68481400.59215109 0 0 90239031.42449868 0 0 90517953.49004199 0 0 70386589.02730978 0 0 91391652.32473993 0 0 89400600.26148619 0 0 74908472.17660315 0 0 98612358.19149311 0 0 102826941.1044978 0 0 103362779.3006867 0 0 98194359.02928677 0 0 103528754.2945506 0 0 103971241.8052806 0 0 98212293.84022178 0 0 103929136.848052 0 0 98595422.77219859 0 0 99459990.30345893 0 0 90413538.55375408 0 0 98557984.03285097 0 0 90643430.61657169 0 0 90782796.9138958 0 0 82779308.55839239 0 0 52303511.35480261 0 0 45354850.78649833 0 0 43036637.66420201 0 0 65476843.0729434 0 0 36321730.41666398 0 0 68826016.2174986 0 0 69343962.79093044 0 0 91026977.92942131 0 0 69305600.77537842 0 0 70713659.85058548 0 0 89997612.10596596 0 0 69767716.98915255 0 0 75201434.32851338 0 0 89017287.15687223 0 0 71732128.36309481 0 0 90514476.11272964 0 0 76321944.64809254 0 0 82988858.43449913 0 0 98433144.99550956 0 0 98642601.13277845 0 0 103319817.3477911 0 0 91485192.71556965 0 0 98405989.10711677 0 0 98354970.74288262 0 0 90803068.04990733 0 0 91554175.90014367 0 0 98248441.60316096 0 0 82977695.64917119 0 0 90309185.62812606 0 0 83114625.08830357 0 0 75294764.16390492 0 0 100271191.5936697 0 0 20647740.05025475 0 0 40036207.50965536 0 0 42106553.30147794 0 0 65634391.64916241 0 0 40119325.0311818 0 0 69961913.8778868 0 0 69056126.11956313 0 0 45043883.73479355 0 0 71668691.91066407 0 0 68650949.60964574 0 0 52342172.71106741 0 0 76663981.12075473 0 0 70393337.09923513 0 0 75149344.84186529 0 0 73854343.28680943 0 0 83507871.13809076 0 0 93102779.64279421 0 0 98852217.0975178 0 0 98174812.26408266 0 0 93183746.99888667 0 0 98077122.90219435 0 0 91903666.11951646 0 0 90417286.01852971 0 0 82832903.97235034 0 0 91889849.62510875 0 0 74186162.74745776 0 0 83091553.42069872 0 0 83091040.78482546 0 0 75431585.69401345 0 0 24123711.73186997 0 0 32621748.8676006 0 0 18637524.54724807 0 0 40002563.88683774 0 0 43122321.60134991 0 0 42268098.37584239 0 0 45979740.68789759 0 0 67577586.57097693 0 0 47218641.80701372 0 0 53463221.59287024 0 0 69211249.14130308 0 0 74603820.23792216 0 0 54883245.07771316 0 0 62826494.89397012 0 0 75051869.38518241 0 0 62491959.36902515 0 0 73885159.05038017 0 0 86510131.64938501 0 0 93460036.45351107 0 0 91551358.28016764 0 0 83457666.26687659 0 0 86702408.5246404 0 0 91367456.96160655 0 0 83145064.74221843 0 0 73885372.5968011 0 0 74229467.71883129 0 0 19490673.5519723 0 0 23536803.51315187 0 0 36354077.24403393 0 0 40203906.71660051 0 0 21092131.05146092 0 0 46775439.13969009 0 0 36854600.45690315 0 0 54157631.1453141 0 0 45447605.00049146 0 0 53336010.25168869 0 0 49608097.12677226 0 0 63593309.12426499 0 0 63181485.38423625 0 0 67161124.00686869 0 0 73623516.24473785 0 0 79856473.49254982 0 0 87049635.78645131 0 0 82827932.47578603 0 0 80038522.9968885 0 0 82477316.10721596 0 0 74646998.2154264 0 0 73696014.81897666 0 0 67027130.41888321 0 0 74342981.54540521 0 0 25953613.14112938 0 0 39445568.97359131 0 0 42687897.45159017 0 0 40376195.20657889 0 0 51920915.7788857 0 0 51276119.2757429 0 0 51979680.45520622 0 0 60773200.64039835 0 0 61170467.08943564 0 0 59523521.17923634 0 0 67189060.66769923 0 0 62836206.24242911 0 0 74808435.04852487 0 0 80414036.62521273 0 0 74321362.70154889 0 0 74277796.41970222 0 0 67319591.89742424 0 0 70844834.88538483 0 0 61298708.91433723 0 0 67949987.55730206 0 0 66263929.18589737 0 0 75031192.48601758 0 0 74114755.16676232 0 0 70948760.50291385 0 0 67216592.59948714 0 0 67218784.29106702 0 0 70834464.7250713 0 0 72696301.72438209 0 0 75117195.9177728 0 0 70777497.73071468 0 0 68057713.4658407 0 0 73286505.53780265 0 0 70302016.37215316 0 0 </DataArray>
      </PointData>
    </Piece>
  </UnstructuredGrid>
</VTKFile>
